c Standarized MaxSat Instance
c{
c "sha1sum": "d2a1e39a91aae95c43690448a1ab7d6380ce8bab",
c "nvars": 12764,
c "ncls": 46236,
c "total_lits": 112632,
c "nhards": 45996,
c "nhard_nlits": 112392,
c "nhard_len_stats":
c    { "min": 1,
c      "max": 6,
c      "ave": 2.4435,
c      "stddev": 0.9078 },
c "nsofts": 240,
c "nsoft_nlits": 240,
c "nsoft_len_stats":
c    { "min": 1,
c      "max": 1,
c      "ave": 1.0000,
c      "stddev": 0.0000 },
c "nsoft_wts": 237,
c "soft_wt_stats":
c    { "min": 1,
c      "max": 111346,
c      "ave": 9806.3583,
c      "stddev": 26078.9515 }
c}
c------------------------------------------------------------
c produced by dsep2cnf_new.pl
3935 1 0
h -1 2 3 4 5 0
h 1 -2 0
h 1 -3 0
h 1 -4 0
h 1 -5 0
106837 6 0
h -6 7 8 9 10 0
h 6 -7 0
h 6 -8 0
h 6 -9 0
h 6 -10 0
637 -11 0
h -11 12 13 14 15 0
h 11 -12 0
h 11 -13 0
h 11 -14 0
h 11 -15 0
1041 -16 0
h -16 17 18 19 20 0
h 16 -17 0
h 16 -18 0
h 16 -19 0
h 16 -20 0
362 -21 0
h -21 22 23 24 25 0
h 21 -22 0
h 21 -23 0
h 21 -24 0
h 21 -25 0
4935 26 0
h -26 27 28 29 30 0
h 26 -27 0
h 26 -28 0
h 26 -29 0
h 26 -30 0
448 -31 0
h -31 32 33 34 35 0
h 31 -32 0
h 31 -33 0
h 31 -34 0
h 31 -35 0
10946 36 0
h -36 37 38 39 40 0
h 36 -37 0
h 36 -38 0
h 36 -39 0
h 36 -40 0
423 -41 0
h -41 42 43 44 45 0
h 41 -42 0
h 41 -43 0
h 41 -44 0
h 41 -45 0
113 46 0
h -46 47 48 49 50 0
h 46 -47 0
h 46 -48 0
h 46 -49 0
h 46 -50 0
1060 -51 0
h -51 52 53 54 55 0
h 51 -52 0
h 51 -53 0
h 51 -54 0
h 51 -55 0
388 -56 0
h -56 57 58 59 60 0
h 56 -57 0
h 56 -58 0
h 56 -59 0
h 56 -60 0
4208 61 0
h -61 62 63 64 65 0
h 61 -62 0
h 61 -63 0
h 61 -64 0
h 61 -65 0
174 -66 0
h -66 67 68 69 70 0
h 66 -67 0
h 66 -68 0
h 66 -69 0
h 66 -70 0
2569 71 0
h -71 72 73 74 75 0
h 71 -72 0
h 71 -73 0
h 71 -74 0
h 71 -75 0
1098 -76 0
h -76 77 78 79 80 0
h 76 -77 0
h 76 -78 0
h 76 -79 0
h 76 -80 0
2918 81 0
h -81 82 83 84 85 0
h 81 -82 0
h 81 -83 0
h 81 -84 0
h 81 -85 0
4298 86 0
h -86 87 88 89 90 0
h 86 -87 0
h 86 -88 0
h 86 -89 0
h 86 -90 0
3499 91 0
h -91 92 93 94 95 0
h 91 -92 0
h 91 -93 0
h 91 -94 0
h 91 -95 0
101804 96 0
h -96 97 98 99 100 0
h 96 -97 0
h 96 -98 0
h 96 -99 0
h 96 -100 0
108085 101 0
h -101 102 103 104 105 0
h 101 -102 0
h 101 -103 0
h 101 -104 0
h 101 -105 0
106968 106 0
h -106 107 108 109 110 0
h 106 -107 0
h 106 -108 0
h 106 -109 0
h 106 -110 0
110858 111 0
h -111 112 113 114 115 0
h 111 -112 0
h 111 -113 0
h 111 -114 0
h 111 -115 0
1654 -116 0
h -116 117 118 119 120 0
h 116 -117 0
h 116 -118 0
h 116 -119 0
h 116 -120 0
611 121 0
h -121 122 123 124 125 0
h 121 -122 0
h 121 -123 0
h 121 -124 0
h 121 -125 0
1355 -126 0
h -126 127 128 129 130 0
h 126 -127 0
h 126 -128 0
h 126 -129 0
h 126 -130 0
912 -131 0
h -131 132 133 134 135 0
h 131 -132 0
h 131 -133 0
h 131 -134 0
h 131 -135 0
677 -136 0
h -136 137 138 139 140 0
h 136 -137 0
h 136 -138 0
h 136 -139 0
h 136 -140 0
910 -141 0
h -141 142 143 144 145 0
h 141 -142 0
h 141 -143 0
h 141 -144 0
h 141 -145 0
1759 -146 0
h -146 147 148 149 150 0
h 146 -147 0
h 146 -148 0
h 146 -149 0
h 146 -150 0
1387 -151 0
h -151 152 153 154 155 0
h 151 -152 0
h 151 -153 0
h 151 -154 0
h 151 -155 0
798 -156 0
h -156 157 158 159 160 0
h 156 -157 0
h 156 -158 0
h 156 -159 0
h 156 -160 0
3659 161 0
h -161 162 163 164 165 0
h 161 -162 0
h 161 -163 0
h 161 -164 0
h 161 -165 0
638 -166 0
h -166 167 168 169 170 0
h 166 -167 0
h 166 -168 0
h 166 -169 0
h 166 -170 0
709 -171 0
h -171 172 173 174 175 0
h 171 -172 0
h 171 -173 0
h 171 -174 0
h 171 -175 0
97 -176 0
h -176 177 178 179 180 0
h 176 -177 0
h 176 -178 0
h 176 -179 0
h 176 -180 0
3124 181 0
h -181 182 183 184 185 0
h 181 -182 0
h 181 -183 0
h 181 -184 0
h 181 -185 0
4976 186 0
h -186 187 188 189 190 0
h 186 -187 0
h 186 -188 0
h 186 -189 0
h 186 -190 0
4858 191 0
h -191 192 193 194 195 0
h 191 -192 0
h 191 -193 0
h 191 -194 0
h 191 -195 0
1465 -196 0
h -196 197 198 199 200 0
h 196 -197 0
h 196 -198 0
h 196 -199 0
h 196 -200 0
2260 -201 0
h -201 202 203 204 205 0
h 201 -202 0
h 201 -203 0
h 201 -204 0
h 201 -205 0
3084 206 0
h -206 207 208 209 210 0
h 206 -207 0
h 206 -208 0
h 206 -209 0
h 206 -210 0
755 -211 0
h -211 212 213 214 215 0
h 211 -212 0
h 211 -213 0
h 211 -214 0
h 211 -215 0
11310 216 0
h -216 217 218 219 220 0
h 216 -217 0
h 216 -218 0
h 216 -219 0
h 216 -220 0
10987 221 0
h -221 222 223 224 225 0
h 221 -222 0
h 221 -223 0
h 221 -224 0
h 221 -225 0
14479 226 0
h -226 227 228 229 230 0
h 226 -227 0
h 226 -228 0
h 226 -229 0
h 226 -230 0
12093 231 0
h -231 232 233 234 235 0
h 231 -232 0
h 231 -233 0
h 231 -234 0
h 231 -235 0
858 -236 0
h -236 237 238 239 240 0
h 236 -237 0
h 236 -238 0
h 236 -239 0
h 236 -240 0
501 -241 0
h -241 242 243 244 245 0
h 241 -242 0
h 241 -243 0
h 241 -244 0
h 241 -245 0
729 -246 0
h -246 247 248 249 250 0
h 246 -247 0
h 246 -248 0
h 246 -249 0
h 246 -250 0
724 251 0
h -251 252 253 254 255 0
h 251 -252 0
h 251 -253 0
h 251 -254 0
h 251 -255 0
1360 256 0
h -256 257 258 259 260 0
h 256 -257 0
h 256 -258 0
h 256 -259 0
h 256 -260 0
1699 -261 0
h -261 262 263 264 265 0
h 261 -262 0
h 261 -263 0
h 261 -264 0
h 261 -265 0
415 -266 0
h -266 267 268 269 270 0
h 266 -267 0
h 266 -268 0
h 266 -269 0
h 266 -270 0
377 -271 0
h -271 272 273 274 275 0
h 271 -272 0
h 271 -273 0
h 271 -274 0
h 271 -275 0
929 -276 0
h -276 277 278 279 280 0
h 276 -277 0
h 276 -278 0
h 276 -279 0
h 276 -280 0
1020 -281 0
h -281 282 283 284 285 0
h 281 -282 0
h 281 -283 0
h 281 -284 0
h 281 -285 0
1588 -286 0
h -286 287 288 289 290 0
h 286 -287 0
h 286 -288 0
h 286 -289 0
h 286 -290 0
1410 -291 0
h -291 292 293 294 295 0
h 291 -292 0
h 291 -293 0
h 291 -294 0
h 291 -295 0
3634 296 0
h -296 297 298 299 300 0
h 296 -297 0
h 296 -298 0
h 296 -299 0
h 296 -300 0
466 -301 0
h -301 302 303 304 305 0
h 301 -302 0
h 301 -303 0
h 301 -304 0
h 301 -305 0
877 -306 0
h -306 307 308 309 310 0
h 306 -307 0
h 306 -308 0
h 306 -309 0
h 306 -310 0
737 -311 0
h -311 312 313 314 315 0
h 311 -312 0
h 311 -313 0
h 311 -314 0
h 311 -315 0
3489 316 0
h -316 317 318 319 320 0
h 316 -317 0
h 316 -318 0
h 316 -319 0
h 316 -320 0
7740 321 0
h -321 322 323 324 325 0
h 321 -322 0
h 321 -323 0
h 321 -324 0
h 321 -325 0
3680 326 0
h -326 327 328 329 330 0
h 326 -327 0
h 326 -328 0
h 326 -329 0
h 326 -330 0
5345 331 0
h -331 332 333 334 335 0
h 331 -332 0
h 331 -333 0
h 331 -334 0
h 331 -335 0
450 -336 0
h -336 337 338 339 340 0
h 336 -337 0
h 336 -338 0
h 336 -339 0
h 336 -340 0
481 -341 0
h -341 342 343 344 345 0
h 341 -342 0
h 341 -343 0
h 341 -344 0
h 341 -345 0
663 -346 0
h -346 347 348 349 350 0
h 346 -347 0
h 346 -348 0
h 346 -349 0
h 346 -350 0
964 351 0
h -351 352 353 354 355 0
h 351 -352 0
h 351 -353 0
h 351 -354 0
h 351 -355 0
2223 356 0
h -356 357 358 359 360 0
h 356 -357 0
h 356 -358 0
h 356 -359 0
h 356 -360 0
3715 361 0
h -361 362 363 364 365 0
h 361 -362 0
h 361 -363 0
h 361 -364 0
h 361 -365 0
2219 366 0
h -366 367 368 369 370 0
h 366 -367 0
h 366 -368 0
h 366 -369 0
h 366 -370 0
3706 371 0
h -371 372 373 374 375 0
h 371 -372 0
h 371 -373 0
h 371 -374 0
h 371 -375 0
1662 -376 0
h -376 377 378 379 380 0
h 376 -377 0
h 376 -378 0
h 376 -379 0
h 376 -380 0
938 -381 0
h -381 382 383 384 385 0
h 381 -382 0
h 381 -383 0
h 381 -384 0
h 381 -385 0
2079 386 0
h -386 387 388 389 390 0
h 386 -387 0
h 386 -388 0
h 386 -389 0
h 386 -390 0
1842 -391 0
h -391 392 393 394 395 0
h 391 -392 0
h 391 -393 0
h 391 -394 0
h 391 -395 0
1893 396 0
h -396 397 398 399 400 0
h 396 -397 0
h 396 -398 0
h 396 -399 0
h 396 -400 0
3691 401 0
h -401 402 403 404 405 0
h 401 -402 0
h 401 -403 0
h 401 -404 0
h 401 -405 0
103504 406 0
h -406 407 408 409 410 0
h 406 -407 0
h 406 -408 0
h 406 -409 0
h 406 -410 0
101732 411 0
h -411 412 413 414 415 0
h 411 -412 0
h 411 -413 0
h 411 -414 0
h 411 -415 0
108868 416 0
h -416 417 418 419 420 0
h 416 -417 0
h 416 -418 0
h 416 -419 0
h 416 -420 0
105517 421 0
h -421 422 423 424 425 0
h 421 -422 0
h 421 -423 0
h 421 -424 0
h 421 -425 0
111346 426 0
h -426 427 428 429 430 0
h 426 -427 0
h 426 -428 0
h 426 -429 0
h 426 -430 0
110517 431 0
h -431 432 433 434 435 0
h 431 -432 0
h 431 -433 0
h 431 -434 0
h 431 -435 0
46 436 0
h -436 437 438 439 440 0
h 436 -437 0
h 436 -438 0
h 436 -439 0
h 436 -440 0
3574 -441 0
h -441 442 443 444 445 0
h 441 -442 0
h 441 -443 0
h 441 -444 0
h 441 -445 0
545 446 0
h -446 447 448 449 450 0
h 446 -447 0
h 446 -448 0
h 446 -449 0
h 446 -450 0
2519 -451 0
h -451 452 453 454 455 0
h 451 -452 0
h 451 -453 0
h 451 -454 0
h 451 -455 0
425 -456 0
h -456 457 458 459 460 0
h 456 -457 0
h 456 -458 0
h 456 -459 0
h 456 -460 0
1775 -461 0
h -461 462 463 464 465 0
h 461 -462 0
h 461 -463 0
h 461 -464 0
h 461 -465 0
750 -466 0
h -466 467 468 469 470 0
h 466 -467 0
h 466 -468 0
h 466 -469 0
h 466 -470 0
2598 -471 0
h -471 472 473 474 475 0
h 471 -472 0
h 471 -473 0
h 471 -474 0
h 471 -475 0
976 -476 0
h -476 477 478 479 480 0
h 476 -477 0
h 476 -478 0
h 476 -479 0
h 476 -480 0
1195 -481 0
h -481 482 483 484 485 0
h 481 -482 0
h 481 -483 0
h 481 -484 0
h 481 -485 0
1728 -486 0
h -486 487 488 489 490 0
h 486 -487 0
h 486 -488 0
h 486 -489 0
h 486 -490 0
2250 -491 0
h -491 492 493 494 495 0
h 491 -492 0
h 491 -493 0
h 491 -494 0
h 491 -495 0
2915 496 0
h -496 497 498 499 500 0
h 496 -497 0
h 496 -498 0
h 496 -499 0
h 496 -500 0
1663 -501 0
h -501 502 503 504 505 0
h 501 -502 0
h 501 -503 0
h 501 -504 0
h 501 -505 0
2624 506 0
h -506 507 508 509 510 0
h 506 -507 0
h 506 -508 0
h 506 -509 0
h 506 -510 0
1315 -511 0
h -511 512 513 514 515 0
h 511 -512 0
h 511 -513 0
h 511 -514 0
h 511 -515 0
2841 516 0
h -516 517 518 519 520 0
h 516 -517 0
h 516 -518 0
h 516 -519 0
h 516 -520 0
1129 -521 0
h -521 522 523 524 525 0
h 521 -522 0
h 521 -523 0
h 521 -524 0
h 521 -525 0
1456 -526 0
h -526 527 528 529 530 0
h 526 -527 0
h 526 -528 0
h 526 -529 0
h 526 -530 0
261 -531 0
h -531 532 533 534 535 0
h 531 -532 0
h 531 -533 0
h 531 -534 0
h 531 -535 0
2008 536 0
h -536 537 538 539 540 0
h 536 -537 0
h 536 -538 0
h 536 -539 0
h 536 -540 0
484 -541 0
h -541 542 543 544 545 0
h 541 -542 0
h 541 -543 0
h 541 -544 0
h 541 -545 0
2594 546 0
h -546 547 548 549 550 0
h 546 -547 0
h 546 -548 0
h 546 -549 0
h 546 -550 0
4714 551 0
h -551 552 553 554 555 0
h 551 -552 0
h 551 -553 0
h 551 -554 0
h 551 -555 0
2824 -556 0
h -556 557 558 559 560 0
h 556 -557 0
h 556 -558 0
h 556 -559 0
h 556 -560 0
865 561 0
h -561 562 563 564 565 0
h 561 -562 0
h 561 -563 0
h 561 -564 0
h 561 -565 0
117 566 0
h -566 567 568 569 570 0
h 566 -567 0
h 566 -568 0
h 566 -569 0
h 566 -570 0
2362 -571 0
h -571 572 573 574 575 0
h 571 -572 0
h 571 -573 0
h 571 -574 0
h 571 -575 0
3018 -576 0
h -576 577 578 579 580 0
h 576 -577 0
h 576 -578 0
h 576 -579 0
h 576 -580 0
2485 581 0
h -581 582 583 584 585 0
h 581 -582 0
h 581 -583 0
h 581 -584 0
h 581 -585 0
11146 586 0
h -586 587 588 589 590 0
h 586 -587 0
h 586 -588 0
h 586 -589 0
h 586 -590 0
13640 591 0
h -591 592 593 594 595 0
h 591 -592 0
h 591 -593 0
h 591 -594 0
h 591 -595 0
13363 596 0
h -596 597 598 599 600 0
h 596 -597 0
h 596 -598 0
h 596 -599 0
h 596 -600 0
12284 601 0
h -601 602 603 604 605 0
h 601 -602 0
h 601 -603 0
h 601 -604 0
h 601 -605 0
11949 606 0
h -606 607 608 609 610 0
h 606 -607 0
h 606 -608 0
h 606 -609 0
h 606 -610 0
15332 611 0
h -611 612 613 614 615 0
h 611 -612 0
h 611 -613 0
h 611 -614 0
h 611 -615 0
1245 -616 0
h -616 617 618 619 620 0
h 616 -617 0
h 616 -618 0
h 616 -619 0
h 616 -620 0
1755 -621 0
h -621 622 623 624 625 0
h 621 -622 0
h 621 -623 0
h 621 -624 0
h 621 -625 0
1259 -626 0
h -626 627 628 629 630 0
h 626 -627 0
h 626 -628 0
h 626 -629 0
h 626 -630 0
116 631 0
h -631 632 633 634 635 0
h 631 -632 0
h 631 -633 0
h 631 -634 0
h 631 -635 0
461 636 0
h -636 637 638 639 640 0
h 636 -637 0
h 636 -638 0
h 636 -639 0
h 636 -640 0
124 641 0
h -641 642 643 644 645 0
h 641 -642 0
h 641 -643 0
h 641 -644 0
h 641 -645 0
1 646 0
h -646 647 648 649 650 0
h 646 -647 0
h 646 -648 0
h 646 -649 0
h 646 -650 0
1484 651 0
h -651 652 653 654 655 0
h 651 -652 0
h 651 -653 0
h 651 -654 0
h 651 -655 0
3383 -656 0
h -656 657 658 659 660 0
h 656 -657 0
h 656 -658 0
h 656 -659 0
h 656 -660 0
111 661 0
h -661 662 663 664 665 0
h 661 -662 0
h 661 -663 0
h 661 -664 0
h 661 -665 0
2640 -666 0
h -666 667 668 669 670 0
h 666 -667 0
h 666 -668 0
h 666 -669 0
h 666 -670 0
1057 -671 0
h -671 672 673 674 675 0
h 671 -672 0
h 671 -673 0
h 671 -674 0
h 671 -675 0
1093 -676 0
h -676 677 678 679 680 0
h 676 -677 0
h 676 -678 0
h 676 -679 0
h 676 -680 0
805 -681 0
h -681 682 683 684 685 0
h 681 -682 0
h 681 -683 0
h 681 -684 0
h 681 -685 0
2703 -686 0
h -686 687 688 689 690 0
h 686 -687 0
h 686 -688 0
h 686 -689 0
h 686 -690 0
1751 -691 0
h -691 692 693 694 695 0
h 691 -692 0
h 691 -693 0
h 691 -694 0
h 691 -695 0
1554 -696 0
h -696 697 698 699 700 0
h 696 -697 0
h 696 -698 0
h 696 -699 0
h 696 -700 0
2090 -701 0
h -701 702 703 704 705 0
h 701 -702 0
h 701 -703 0
h 701 -704 0
h 701 -705 0
3247 706 0
h -706 707 708 709 710 0
h 706 -707 0
h 706 -708 0
h 706 -709 0
h 706 -710 0
2384 711 0
h -711 712 713 714 715 0
h 711 -712 0
h 711 -713 0
h 711 -714 0
h 711 -715 0
1406 -716 0
h -716 717 718 719 720 0
h 716 -717 0
h 716 -718 0
h 716 -719 0
h 716 -720 0
2812 721 0
h -721 722 723 724 725 0
h 721 -722 0
h 721 -723 0
h 721 -724 0
h 721 -725 0
999 -726 0
h -726 727 728 729 730 0
h 726 -727 0
h 726 -728 0
h 726 -729 0
h 726 -730 0
1379 -731 0
h -731 732 733 734 735 0
h 731 -732 0
h 731 -733 0
h 731 -734 0
h 731 -735 0
5819 736 0
h -736 737 738 739 740 0
h 736 -737 0
h 736 -738 0
h 736 -739 0
h 736 -740 0
3614 741 0
h -741 742 743 744 745 0
h 741 -742 0
h 741 -743 0
h 741 -744 0
h 741 -745 0
6056 746 0
h -746 747 748 749 750 0
h 746 -747 0
h 746 -748 0
h 746 -749 0
h 746 -750 0
4482 751 0
h -751 752 753 754 755 0
h 751 -752 0
h 751 -753 0
h 751 -754 0
h 751 -755 0
8585 756 0
h -756 757 758 759 760 0
h 756 -757 0
h 756 -758 0
h 756 -759 0
h 756 -760 0
4665 761 0
h -761 762 763 764 765 0
h 761 -762 0
h 761 -763 0
h 761 -764 0
h 761 -765 0
1346 -766 0
h -766 767 768 769 770 0
h 766 -767 0
h 766 -768 0
h 766 -769 0
h 766 -770 0
1699 -771 0
h -771 772 773 774 775 0
h 771 -772 0
h 771 -773 0
h 771 -774 0
h 771 -775 0
1422 -776 0
h -776 777 778 779 780 0
h 776 -777 0
h 776 -778 0
h 776 -779 0
h 776 -780 0
543 781 0
h -781 782 783 784 785 0
h 781 -782 0
h 781 -783 0
h 781 -784 0
h 781 -785 0
365 786 0
h -786 787 788 789 790 0
h 786 -787 0
h 786 -788 0
h 786 -789 0
h 786 -790 0
322 791 0
h -791 792 793 794 795 0
h 791 -792 0
h 791 -793 0
h 791 -794 0
h 791 -795 0
3197 796 0
h -796 797 798 799 800 0
h 796 -797 0
h 796 -798 0
h 796 -799 0
h 796 -800 0
1401 801 0
h -801 802 803 804 805 0
h 801 -802 0
h 801 -803 0
h 801 -804 0
h 801 -805 0
3181 806 0
h -806 807 808 809 810 0
h 806 -807 0
h 806 -808 0
h 806 -809 0
h 806 -810 0
3215 811 0
h -811 812 813 814 815 0
h 811 -812 0
h 811 -813 0
h 811 -814 0
h 811 -815 0
4560 816 0
h -816 817 818 819 820 0
h 816 -817 0
h 816 -818 0
h 816 -819 0
h 816 -820 0
3205 821 0
h -821 822 823 824 825 0
h 821 -822 0
h 821 -823 0
h 821 -824 0
h 821 -825 0
2766 -826 0
h -826 827 828 829 830 0
h 826 -827 0
h 826 -828 0
h 826 -829 0
h 826 -830 0
3409 -831 0
h -831 832 833 834 835 0
h 831 -832 0
h 831 -833 0
h 831 -834 0
h 831 -835 0
2361 -836 0
h -836 837 838 839 840 0
h 836 -837 0
h 836 -838 0
h 836 -839 0
h 836 -840 0
749 841 0
h -841 842 843 844 845 0
h 841 -842 0
h 841 -843 0
h 841 -844 0
h 841 -845 0
104023 846 0
h -846 847 848 849 850 0
h 846 -847 0
h 846 -848 0
h 846 -849 0
h 846 -850 0
106045 851 0
h -851 852 853 854 855 0
h 851 -852 0
h 851 -853 0
h 851 -854 0
h 851 -855 0
104465 856 0
h -856 857 858 859 860 0
h 856 -857 0
h 856 -858 0
h 856 -859 0
h 856 -860 0
111215 861 0
h -861 862 863 864 865 0
h 861 -862 0
h 861 -863 0
h 861 -864 0
h 861 -865 0
1283 -866 0
h -866 867 868 869 870 0
h 866 -867 0
h 866 -868 0
h 866 -869 0
h 866 -870 0
1991 -871 0
h -871 872 873 874 875 0
h 871 -872 0
h 871 -873 0
h 871 -874 0
h 871 -875 0
4717 -876 0
h -876 877 878 879 880 0
h 876 -877 0
h 876 -878 0
h 876 -879 0
h 876 -880 0
1078 -881 0
h -881 882 883 884 885 0
h 881 -882 0
h 881 -883 0
h 881 -884 0
h 881 -885 0
2079 -886 0
h -886 887 888 889 890 0
h 886 -887 0
h 886 -888 0
h 886 -889 0
h 886 -890 0
2247 -891 0
h -891 892 893 894 895 0
h 891 -892 0
h 891 -893 0
h 891 -894 0
h 891 -895 0
3393 -896 0
h -896 897 898 899 900 0
h 896 -897 0
h 896 -898 0
h 896 -899 0
h 896 -900 0
2382 -901 0
h -901 902 903 904 905 0
h 901 -902 0
h 901 -903 0
h 901 -904 0
h 901 -905 0
877 906 0
h -906 907 908 909 910 0
h 906 -907 0
h 906 -908 0
h 906 -909 0
h 906 -910 0
1418 911 0
h -911 912 913 914 915 0
h 911 -912 0
h 911 -913 0
h 911 -914 0
h 911 -915 0
2459 -916 0
h -916 917 918 919 920 0
h 916 -917 0
h 916 -918 0
h 916 -919 0
h 916 -920 0
1218 921 0
h -921 922 923 924 925 0
h 921 -922 0
h 921 -923 0
h 921 -924 0
h 921 -925 0
2837 -926 0
h -926 927 928 929 930 0
h 926 -927 0
h 926 -928 0
h 926 -929 0
h 926 -930 0
2707 -931 0
h -931 932 933 934 935 0
h 931 -932 0
h 931 -933 0
h 931 -934 0
h 931 -935 0
1338 -936 0
h -936 937 938 939 940 0
h 936 -937 0
h 936 -938 0
h 936 -939 0
h 936 -940 0
1172 941 0
h -941 942 943 944 945 0
h 941 -942 0
h 941 -943 0
h 941 -944 0
h 941 -945 0
1711 -946 0
h -946 947 948 949 950 0
h 946 -947 0
h 946 -948 0
h 946 -949 0
h 946 -950 0
4584 -951 0
h -951 952 953 954 955 0
h 951 -952 0
h 951 -953 0
h 951 -954 0
h 951 -955 0
457 -956 0
h -956 957 958 959 960 0
h 956 -957 0
h 956 -958 0
h 956 -959 0
h 956 -960 0
1056 -961 0
h -961 962 963 964 965 0
h 961 -962 0
h 961 -963 0
h 961 -964 0
h 961 -965 0
12259 966 0
h -966 967 968 969 970 0
h 966 -967 0
h 966 -968 0
h 966 -969 0
h 966 -970 0
11430 971 0
h -971 972 973 974 975 0
h 971 -972 0
h 971 -973 0
h 971 -974 0
h 971 -975 0
14189 976 0
h -976 977 978 979 980 0
h 976 -977 0
h 976 -978 0
h 976 -979 0
h 976 -980 0
13910 981 0
h -981 982 983 984 985 0
h 981 -982 0
h 981 -983 0
h 981 -984 0
h 981 -985 0
3005 -986 0
h -986 987 988 989 990 0
h 986 -987 0
h 986 -988 0
h 986 -989 0
h 986 -990 0
961 -991 0
h -991 992 993 994 995 0
h 991 -992 0
h 991 -993 0
h 991 -994 0
h 991 -995 0
1205 -996 0
h -996 997 998 999 1000 0
h 996 -997 0
h 996 -998 0
h 996 -999 0
h 996 -1000 0
712 -1001 0
h -1001 1002 1003 1004 1005 0
h 1001 -1002 0
h 1001 -1003 0
h 1001 -1004 0
h 1001 -1005 0
1091 -1006 0
h -1006 1007 1008 1009 1010 0
h 1006 -1007 0
h 1006 -1008 0
h 1006 -1009 0
h 1006 -1010 0
2112 -1011 0
h -1011 1012 1013 1014 1015 0
h 1011 -1012 0
h 1011 -1013 0
h 1011 -1014 0
h 1011 -1015 0
359 -1016 0
h -1016 1017 1018 1019 1020 0
h 1016 -1017 0
h 1016 -1018 0
h 1016 -1019 0
h 1016 -1020 0
4598 -1021 0
h -1021 1022 1023 1024 1025 0
h 1021 -1022 0
h 1021 -1023 0
h 1021 -1024 0
h 1021 -1025 0
2185 -1026 0
h -1026 1027 1028 1029 1030 0
h 1026 -1027 0
h 1026 -1028 0
h 1026 -1029 0
h 1026 -1030 0
2605 -1031 0
h -1031 1032 1033 1034 1035 0
h 1031 -1032 0
h 1031 -1033 0
h 1031 -1034 0
h 1031 -1035 0
2221 -1036 0
h -1036 1037 1038 1039 1040 0
h 1036 -1037 0
h 1036 -1038 0
h 1036 -1039 0
h 1036 -1040 0
3512 -1041 0
h -1041 1042 1043 1044 1045 0
h 1041 -1042 0
h 1041 -1043 0
h 1041 -1044 0
h 1041 -1045 0
1134 1046 0
h -1046 1047 1048 1049 1050 0
h 1046 -1047 0
h 1046 -1048 0
h 1046 -1049 0
h 1046 -1050 0
1734 1051 0
h -1051 1052 1053 1054 1055 0
h 1051 -1052 0
h 1051 -1053 0
h 1051 -1054 0
h 1051 -1055 0
968 1056 0
h -1056 1057 1058 1059 1060 0
h 1056 -1057 0
h 1056 -1058 0
h 1056 -1059 0
h 1056 -1060 0
2215 -1061 0
h -1061 1062 1063 1064 1065 0
h 1061 -1062 0
h 1061 -1063 0
h 1061 -1064 0
h 1061 -1065 0
4727 1066 0
h -1066 1067 1068 1069 1070 0
h 1066 -1067 0
h 1066 -1068 0
h 1066 -1069 0
h 1066 -1070 0
6387 1071 0
h -1071 1072 1073 1074 1075 0
h 1071 -1072 0
h 1071 -1073 0
h 1071 -1074 0
h 1071 -1075 0
4012 1076 0
h -1076 1077 1078 1079 1080 0
h 1076 -1077 0
h 1076 -1078 0
h 1076 -1079 0
h 1076 -1080 0
6627 1081 0
h -1081 1082 1083 1084 1085 0
h 1081 -1082 0
h 1081 -1083 0
h 1081 -1084 0
h 1081 -1085 0
3459 -1086 0
h -1086 1087 1088 1089 1090 0
h 1086 -1087 0
h 1086 -1088 0
h 1086 -1089 0
h 1086 -1090 0
779 -1091 0
h -1091 1092 1093 1094 1095 0
h 1091 -1092 0
h 1091 -1093 0
h 1091 -1094 0
h 1091 -1095 0
1301 -1096 0
h -1096 1097 1098 1099 1100 0
h 1096 -1097 0
h 1096 -1098 0
h 1096 -1099 0
h 1096 -1100 0
851 -1101 0
h -1101 1102 1103 1104 1105 0
h 1101 -1102 0
h 1101 -1103 0
h 1101 -1104 0
h 1101 -1105 0
1684 1106 0
h -1106 1107 1108 1109 1110 0
h 1106 -1107 0
h 1106 -1108 0
h 1106 -1109 0
h 1106 -1110 0
3765 1111 0
h -1111 1112 1113 1114 1115 0
h 1111 -1112 0
h 1111 -1113 0
h 1111 -1114 0
h 1111 -1115 0
1799 1116 0
h -1116 1117 1118 1119 1120 0
h 1116 -1117 0
h 1116 -1118 0
h 1116 -1119 0
h 1116 -1120 0
3752 1121 0
h -1121 1122 1123 1124 1125 0
h 1121 -1122 0
h 1121 -1123 0
h 1121 -1124 0
h 1121 -1125 0
5239 -1126 0
h -1126 1127 1128 1129 1130 0
h 1126 -1127 0
h 1126 -1128 0
h 1126 -1129 0
h 1126 -1130 0
105226 1131 0
h -1131 1132 1133 1134 1135 0
h 1131 -1132 0
h 1131 -1133 0
h 1131 -1134 0
h 1131 -1135 0
3956 -1136 0
h -1136 1137 1138 1139 1140 0
h 1136 -1137 0
h 1136 -1138 0
h 1136 -1139 0
h 1136 -1140 0
4212 -1141 0
h -1141 1142 1143 1144 1145 0
h 1141 -1142 0
h 1141 -1143 0
h 1141 -1144 0
h 1141 -1145 0
1255 -1146 0
h -1146 1147 1148 1149 1150 0
h 1146 -1147 0
h 1146 -1148 0
h 1146 -1149 0
h 1146 -1150 0
4816 -1151 0
h -1151 1152 1153 1154 1155 0
h 1151 -1152 0
h 1151 -1153 0
h 1151 -1154 0
h 1151 -1155 0
3934 -1156 0
h -1156 1157 1158 1159 1160 0
h 1156 -1157 0
h 1156 -1158 0
h 1156 -1159 0
h 1156 -1160 0
12080 1161 0
h -1161 1162 1163 1164 1165 0
h 1161 -1162 0
h 1161 -1163 0
h 1161 -1164 0
h 1161 -1165 0
3184 -1166 0
h -1166 1167 1168 1169 1170 0
h 1166 -1167 0
h 1166 -1168 0
h 1166 -1169 0
h 1166 -1170 0
3837 -1171 0
h -1171 1172 1173 1174 1175 0
h 1171 -1172 0
h 1171 -1173 0
h 1171 -1174 0
h 1171 -1175 0
4330 -1176 0
h -1176 1177 1178 1179 1180 0
h 1176 -1177 0
h 1176 -1178 0
h 1176 -1179 0
h 1176 -1180 0
1011 -1181 0
h -1181 1182 1183 1184 1185 0
h 1181 -1182 0
h 1181 -1183 0
h 1181 -1184 0
h 1181 -1185 0
4662 1186 0
h -1186 1187 1188 1189 1190 0
h 1186 -1187 0
h 1186 -1188 0
h 1186 -1189 0
h 1186 -1190 0
3524 -1191 0
h -1191 1192 1193 1194 1195 0
h 1191 -1192 0
h 1191 -1193 0
h 1191 -1194 0
h 1191 -1195 0
1620 1196 0
h -1196 1197 1198 1199 1200 0
h 1196 -1197 0
h 1196 -1198 0
h 1196 -1199 0
h 1196 -1200 0
c Putting all --- arcs in 0,0,0 as false.
h -1201 0
h -1202 0
h -1203 0
h -1204 0
h -1205 0
h -1206 0
h -1207 0
h -1208 0
h -1209 0
h -1210 0
h -1211 0
h -1212 0
h -1213 0
h -1214 0
h -1215 0
h -1216 0
h -1217 0
h -1218 0
h -1219 0
h -1220 0
h -1221 0
h 1222 -1223 -1224 0
h -1222 1223 0
h -1222 1224 0
h 1225 -1224 -1224 0
h -1225 1224 0
h -1225 1224 0
h 1226 -1224 -1223 0
h -1226 1224 0
h -1226 1223 0
h 1227 -1223 -1223 -1228 0
h -1227 1223 0
h -1227 1223 0
h -1227 1228 0
h -1229 1230 1222 1225 1226 1227 0
h 1229 -1230 0
h 1229 -1222 0
h 1229 -1225 0
h 1229 -1226 0
h 1229 -1227 0
h 1231 -1223 -1232 0
h -1231 1223 0
h -1231 1232 0
h 1233 -1224 -1232 0
h -1233 1224 0
h -1233 1232 0
h 1234 -1224 -1235 0
h -1234 1224 0
h -1234 1235 0
h 1236 -1223 -1235 -1228 0
h -1236 1223 0
h -1236 1235 0
h -1236 1228 0
h -49 1237 1231 1233 1234 1236 0
h 49 -1237 0
h 49 -1231 0
h 49 -1233 0
h 49 -1234 0
h 49 -1236 0
h 1238 -1223 -1239 0
h -1238 1223 0
h -1238 1239 0
h 1240 -1224 -1241 0
h -1240 1224 0
h -1240 1241 0
h 1242 -1224 -1239 0
h -1242 1224 0
h -1242 1239 0
h 1243 -1223 -1241 -1228 0
h -1243 1223 0
h -1243 1241 0
h -1243 1228 0
h -47 1244 1238 1240 1242 1243 0
h 47 -1244 0
h 47 -1238 0
h 47 -1240 0
h 47 -1242 0
h 47 -1243 0
h 1245 -1246 -1239 0
h -1245 1246 0
h -1245 1239 0
h 1247 -1248 -1239 0
h -1247 1248 0
h -1247 1239 0
h 1249 -1248 -1241 0
h -1249 1248 0
h -1249 1241 0
h 1250 -1246 -1241 -1228 0
h -1250 1246 0
h -1250 1241 0
h -1250 1228 0
h -50 1251 1245 1247 1249 1250 0
h 50 -1251 0
h 50 -1245 0
h 50 -1247 0
h 50 -1249 0
h 50 -1250 0
h 1252 -1235 -1248 0
h -1252 1235 0
h -1252 1248 0
h 1253 -1232 -1246 0
h -1253 1232 0
h -1253 1246 0
h 1254 -1232 -1248 0
h -1254 1232 0
h -1254 1248 0
h 1255 -1235 -1246 -1228 0
h -1255 1235 0
h -1255 1246 0
h -1255 1228 0
h -48 1256 1252 1253 1254 1255 0
h 48 -1256 0
h 48 -1252 0
h 48 -1253 0
h 48 -1254 0
h 48 -1255 0
h 1257 -1235 -1232 0
h -1257 1235 0
h -1257 1232 0
h 1258 -1232 -1232 0
h -1258 1232 0
h -1258 1232 0
h 1259 -1232 -1235 0
h -1259 1232 0
h -1259 1235 0
h 1260 -1235 -1235 -1228 0
h -1260 1235 0
h -1260 1235 0
h -1260 1228 0
h -1261 1262 1257 1258 1259 1260 0
h 1261 -1262 0
h 1261 -1257 0
h 1261 -1258 0
h 1261 -1259 0
h 1261 -1260 0
h 1263 -1264 -1265 0
h -1263 1264 0
h -1263 1265 0
h 1266 -1265 -1265 0
h -1266 1265 0
h -1266 1265 0
h 1267 -1265 -1264 0
h -1267 1265 0
h -1267 1264 0
h 1268 -1264 -1264 -1269 0
h -1268 1264 0
h -1268 1264 0
h -1268 1269 0
h -1270 1271 1263 1266 1267 1268 0
h 1270 -1271 0
h 1270 -1263 0
h 1270 -1266 0
h 1270 -1267 0
h 1270 -1268 0
h 1272 -1264 -1273 0
h -1272 1264 0
h -1272 1273 0
h 1274 -1265 -1273 0
h -1274 1265 0
h -1274 1273 0
h 1275 -1265 -1276 0
h -1275 1265 0
h -1275 1276 0
h 1277 -1264 -1276 -1269 0
h -1277 1264 0
h -1277 1276 0
h -1277 1269 0
h -144 1278 1272 1274 1275 1277 0
h 144 -1278 0
h 144 -1272 0
h 144 -1274 0
h 144 -1275 0
h 144 -1277 0
h 1279 -1264 -1280 0
h -1279 1264 0
h -1279 1280 0
h 1281 -1265 -1282 0
h -1281 1265 0
h -1281 1282 0
h 1283 -1265 -1280 0
h -1283 1265 0
h -1283 1280 0
h 1284 -1264 -1282 -1269 0
h -1284 1264 0
h -1284 1282 0
h -1284 1269 0
h -142 1285 1279 1281 1283 1284 0
h 142 -1285 0
h 142 -1279 0
h 142 -1281 0
h 142 -1283 0
h 142 -1284 0
h 1286 -1287 -1280 0
h -1286 1287 0
h -1286 1280 0
h 1288 -1289 -1280 0
h -1288 1289 0
h -1288 1280 0
h 1290 -1289 -1282 0
h -1290 1289 0
h -1290 1282 0
h 1291 -1287 -1282 -1269 0
h -1291 1287 0
h -1291 1282 0
h -1291 1269 0
h -145 1292 1286 1288 1290 1291 0
h 145 -1292 0
h 145 -1286 0
h 145 -1288 0
h 145 -1290 0
h 145 -1291 0
h 1293 -1276 -1289 0
h -1293 1276 0
h -1293 1289 0
h 1294 -1273 -1287 0
h -1294 1273 0
h -1294 1287 0
h 1295 -1273 -1289 0
h -1295 1273 0
h -1295 1289 0
h 1296 -1276 -1287 -1269 0
h -1296 1276 0
h -1296 1287 0
h -1296 1269 0
h -143 1297 1293 1294 1295 1296 0
h 143 -1297 0
h 143 -1293 0
h 143 -1294 0
h 143 -1295 0
h 143 -1296 0
h 1298 -1276 -1273 0
h -1298 1276 0
h -1298 1273 0
h 1299 -1273 -1273 0
h -1299 1273 0
h -1299 1273 0
h 1300 -1273 -1276 0
h -1300 1273 0
h -1300 1276 0
h 1301 -1276 -1276 -1269 0
h -1301 1276 0
h -1301 1276 0
h -1301 1269 0
h -1302 1303 1298 1299 1300 1301 0
h 1302 -1303 0
h 1302 -1298 0
h 1302 -1299 0
h 1302 -1300 0
h 1302 -1301 0
h 1304 -1305 -1306 0
h -1304 1305 0
h -1304 1306 0
h 1307 -1306 -1306 0
h -1307 1306 0
h -1307 1306 0
h 1308 -1306 -1305 0
h -1308 1306 0
h -1308 1305 0
h 1309 -1305 -1305 -1310 0
h -1309 1305 0
h -1309 1305 0
h -1309 1310 0
h -1311 1312 1304 1307 1308 1309 0
h 1311 -1312 0
h 1311 -1304 0
h 1311 -1307 0
h 1311 -1308 0
h 1311 -1309 0
h 1313 -1305 -1314 0
h -1313 1305 0
h -1313 1314 0
h 1315 -1306 -1314 0
h -1315 1306 0
h -1315 1314 0
h 1316 -1306 -1317 0
h -1316 1306 0
h -1316 1317 0
h 1318 -1305 -1317 -1310 0
h -1318 1305 0
h -1318 1317 0
h -1318 1310 0
h -244 1319 1313 1315 1316 1318 0
h 244 -1319 0
h 244 -1313 0
h 244 -1315 0
h 244 -1316 0
h 244 -1318 0
h 1320 -1305 -1321 0
h -1320 1305 0
h -1320 1321 0
h 1322 -1306 -1323 0
h -1322 1306 0
h -1322 1323 0
h 1324 -1306 -1321 0
h -1324 1306 0
h -1324 1321 0
h 1325 -1305 -1323 -1310 0
h -1325 1305 0
h -1325 1323 0
h -1325 1310 0
h -242 1326 1320 1322 1324 1325 0
h 242 -1326 0
h 242 -1320 0
h 242 -1322 0
h 242 -1324 0
h 242 -1325 0
h 1327 -1328 -1321 0
h -1327 1328 0
h -1327 1321 0
h 1329 -1330 -1321 0
h -1329 1330 0
h -1329 1321 0
h 1331 -1330 -1323 0
h -1331 1330 0
h -1331 1323 0
h 1332 -1328 -1323 -1310 0
h -1332 1328 0
h -1332 1323 0
h -1332 1310 0
h -245 1333 1327 1329 1331 1332 0
h 245 -1333 0
h 245 -1327 0
h 245 -1329 0
h 245 -1331 0
h 245 -1332 0
h 1334 -1317 -1330 0
h -1334 1317 0
h -1334 1330 0
h 1335 -1314 -1328 0
h -1335 1314 0
h -1335 1328 0
h 1336 -1314 -1330 0
h -1336 1314 0
h -1336 1330 0
h 1337 -1317 -1328 -1310 0
h -1337 1317 0
h -1337 1328 0
h -1337 1310 0
h -243 1338 1334 1335 1336 1337 0
h 243 -1338 0
h 243 -1334 0
h 243 -1335 0
h 243 -1336 0
h 243 -1337 0
h 1339 -1317 -1314 0
h -1339 1317 0
h -1339 1314 0
h 1340 -1314 -1314 0
h -1340 1314 0
h -1340 1314 0
h 1341 -1314 -1317 0
h -1341 1314 0
h -1341 1317 0
h 1342 -1317 -1317 -1310 0
h -1342 1317 0
h -1342 1317 0
h -1342 1310 0
h -1343 1344 1339 1340 1341 1342 0
h 1343 -1344 0
h 1343 -1339 0
h 1343 -1340 0
h 1343 -1341 0
h 1343 -1342 0
h 1345 -1346 -1346 0
h -1345 1346 0
h -1345 1346 0
h -1347 1348 1345 0
h 1347 -1348 0
h 1347 -1345 0
h 1349 -1346 -1350 0
h -1349 1346 0
h -1349 1350 0
h -1149 1351 1349 0
h 1149 -1351 0
h 1149 -1349 0
h 1352 -1346 -1353 0
h -1352 1346 0
h -1352 1353 0
h -1147 1354 1352 0
h 1147 -1354 0
h 1147 -1352 0
h 1355 -1356 -1353 0
h -1355 1356 0
h -1355 1353 0
h -1150 1357 1355 0
h 1150 -1357 0
h 1150 -1355 0
h 1358 -1350 -1356 0
h -1358 1350 0
h -1358 1356 0
h -1148 1359 1358 0
h 1148 -1359 0
h 1148 -1358 0
h 1360 -1350 -1350 0
h -1360 1350 0
h -1360 1350 0
h -1361 1362 1360 0
h 1361 -1362 0
h 1361 -1360 0
h 1363 -1364 -1365 0
h -1363 1364 0
h -1363 1365 0
h 1366 -1365 -1365 0
h -1366 1365 0
h -1366 1365 0
h 1367 -1365 -1364 0
h -1367 1365 0
h -1367 1364 0
h 1368 -1364 -1364 -1369 0
h -1368 1364 0
h -1368 1364 0
h -1368 1369 0
h -1370 1371 1363 1366 1367 1368 0
h 1370 -1371 0
h 1370 -1363 0
h 1370 -1366 0
h 1370 -1367 0
h 1370 -1368 0
h 1372 -1364 -1373 0
h -1372 1364 0
h -1372 1373 0
h 1374 -1365 -1373 0
h -1374 1365 0
h -1374 1373 0
h 1375 -1365 -1376 0
h -1375 1365 0
h -1375 1376 0
h 1377 -1364 -1376 -1369 0
h -1377 1364 0
h -1377 1376 0
h -1377 1369 0
h -1124 1378 1372 1374 1375 1377 0
h 1124 -1378 0
h 1124 -1372 0
h 1124 -1374 0
h 1124 -1375 0
h 1124 -1377 0
h 1379 -1364 -1380 0
h -1379 1364 0
h -1379 1380 0
h 1381 -1365 -1382 0
h -1381 1365 0
h -1381 1382 0
h 1383 -1365 -1380 0
h -1383 1365 0
h -1383 1380 0
h 1384 -1364 -1382 -1369 0
h -1384 1364 0
h -1384 1382 0
h -1384 1369 0
h -1122 1385 1379 1381 1383 1384 0
h 1122 -1385 0
h 1122 -1379 0
h 1122 -1381 0
h 1122 -1383 0
h 1122 -1384 0
h 1386 -1387 -1380 0
h -1386 1387 0
h -1386 1380 0
h 1388 -1389 -1380 0
h -1388 1389 0
h -1388 1380 0
h 1390 -1389 -1382 0
h -1390 1389 0
h -1390 1382 0
h 1391 -1387 -1382 -1369 0
h -1391 1387 0
h -1391 1382 0
h -1391 1369 0
h -1125 1392 1386 1388 1390 1391 0
h 1125 -1392 0
h 1125 -1386 0
h 1125 -1388 0
h 1125 -1390 0
h 1125 -1391 0
h 1393 -1376 -1389 0
h -1393 1376 0
h -1393 1389 0
h 1394 -1373 -1387 0
h -1394 1373 0
h -1394 1387 0
h 1395 -1373 -1389 0
h -1395 1373 0
h -1395 1389 0
h 1396 -1376 -1387 -1369 0
h -1396 1376 0
h -1396 1387 0
h -1396 1369 0
h -1123 1397 1393 1394 1395 1396 0
h 1123 -1397 0
h 1123 -1393 0
h 1123 -1394 0
h 1123 -1395 0
h 1123 -1396 0
h 1398 -1376 -1373 0
h -1398 1376 0
h -1398 1373 0
h 1399 -1373 -1373 0
h -1399 1373 0
h -1399 1373 0
h 1400 -1373 -1376 0
h -1400 1373 0
h -1400 1376 0
h 1401 -1376 -1376 -1369 0
h -1401 1376 0
h -1401 1376 0
h -1401 1369 0
h -1402 1403 1398 1399 1400 1401 0
h 1402 -1403 0
h 1402 -1398 0
h 1402 -1399 0
h 1402 -1400 0
h 1402 -1401 0
h 1404 -1405 -1405 0
h -1404 1405 0
h -1404 1405 0
h -1406 1407 1404 0
h 1406 -1407 0
h 1406 -1404 0
h 1408 -1405 -1409 0
h -1408 1405 0
h -1408 1409 0
h -604 1410 1408 0
h 604 -1410 0
h 604 -1408 0
h 1411 -1405 -1412 0
h -1411 1405 0
h -1411 1412 0
h -602 1413 1411 0
h 602 -1413 0
h 602 -1411 0
h 1414 -1415 -1412 0
h -1414 1415 0
h -1414 1412 0
h -605 1416 1414 0
h 605 -1416 0
h 605 -1414 0
h 1417 -1409 -1415 0
h -1417 1409 0
h -1417 1415 0
h -603 1418 1417 0
h 603 -1418 0
h 603 -1417 0
h 1419 -1409 -1409 0
h -1419 1409 0
h -1419 1409 0
h -1420 1421 1419 0
h 1420 -1421 0
h 1420 -1419 0
h 1422 -1423 -1423 0
h -1422 1423 0
h -1422 1423 0
h -1424 1425 1422 0
h 1424 -1425 0
h 1424 -1422 0
h 1426 -1423 -1427 0
h -1426 1423 0
h -1426 1427 0
h -1014 1428 1426 0
h 1014 -1428 0
h 1014 -1426 0
h 1429 -1423 -1430 0
h -1429 1423 0
h -1429 1430 0
h -1012 1431 1429 0
h 1012 -1431 0
h 1012 -1429 0
h 1432 -1433 -1430 0
h -1432 1433 0
h -1432 1430 0
h -1015 1434 1432 0
h 1015 -1434 0
h 1015 -1432 0
h 1435 -1427 -1433 0
h -1435 1427 0
h -1435 1433 0
h -1013 1436 1435 0
h 1013 -1436 0
h 1013 -1435 0
h 1437 -1427 -1427 0
h -1437 1427 0
h -1437 1427 0
h -1438 1439 1437 0
h 1438 -1439 0
h 1438 -1437 0
h 1440 -1441 -1442 0
h -1440 1441 0
h -1440 1442 0
h 1443 -1442 -1442 0
h -1443 1442 0
h -1443 1442 0
h 1444 -1442 -1441 0
h -1444 1442 0
h -1444 1441 0
h 1445 -1441 -1441 -1446 0
h -1445 1441 0
h -1445 1441 0
h -1445 1446 0
h -1447 1448 1440 1443 1444 1445 0
h 1447 -1448 0
h 1447 -1440 0
h 1447 -1443 0
h 1447 -1444 0
h 1447 -1445 0
h 1449 -1441 -1450 0
h -1449 1441 0
h -1449 1450 0
h 1451 -1442 -1450 0
h -1451 1442 0
h -1451 1450 0
h 1452 -1442 -1453 0
h -1452 1442 0
h -1452 1453 0
h 1454 -1441 -1453 -1446 0
h -1454 1441 0
h -1454 1453 0
h -1454 1446 0
h -174 1455 1449 1451 1452 1454 0
h 174 -1455 0
h 174 -1449 0
h 174 -1451 0
h 174 -1452 0
h 174 -1454 0
h 1456 -1441 -1457 0
h -1456 1441 0
h -1456 1457 0
h 1458 -1442 -1459 0
h -1458 1442 0
h -1458 1459 0
h 1460 -1442 -1457 0
h -1460 1442 0
h -1460 1457 0
h 1461 -1441 -1459 -1446 0
h -1461 1441 0
h -1461 1459 0
h -1461 1446 0
h -172 1462 1456 1458 1460 1461 0
h 172 -1462 0
h 172 -1456 0
h 172 -1458 0
h 172 -1460 0
h 172 -1461 0
h 1463 -1464 -1457 0
h -1463 1464 0
h -1463 1457 0
h 1465 -1466 -1457 0
h -1465 1466 0
h -1465 1457 0
h 1467 -1466 -1459 0
h -1467 1466 0
h -1467 1459 0
h 1468 -1464 -1459 -1446 0
h -1468 1464 0
h -1468 1459 0
h -1468 1446 0
h -175 1469 1463 1465 1467 1468 0
h 175 -1469 0
h 175 -1463 0
h 175 -1465 0
h 175 -1467 0
h 175 -1468 0
h 1470 -1453 -1466 0
h -1470 1453 0
h -1470 1466 0
h 1471 -1450 -1464 0
h -1471 1450 0
h -1471 1464 0
h 1472 -1450 -1466 0
h -1472 1450 0
h -1472 1466 0
h 1473 -1453 -1464 -1446 0
h -1473 1453 0
h -1473 1464 0
h -1473 1446 0
h -173 1474 1470 1471 1472 1473 0
h 173 -1474 0
h 173 -1470 0
h 173 -1471 0
h 173 -1472 0
h 173 -1473 0
h 1475 -1453 -1450 0
h -1475 1453 0
h -1475 1450 0
h 1476 -1450 -1450 0
h -1476 1450 0
h -1476 1450 0
h 1477 -1450 -1453 0
h -1477 1450 0
h -1477 1453 0
h 1478 -1453 -1453 -1446 0
h -1478 1453 0
h -1478 1453 0
h -1478 1446 0
h -1479 1480 1475 1476 1477 1478 0
h 1479 -1480 0
h 1479 -1475 0
h 1479 -1476 0
h 1479 -1477 0
h 1479 -1478 0
h 1481 -1482 -1483 0
h -1481 1482 0
h -1481 1483 0
h 1484 -1483 -1483 0
h -1484 1483 0
h -1484 1483 0
h 1485 -1483 -1482 0
h -1485 1483 0
h -1485 1482 0
h 1486 -1482 -1482 -1487 0
h -1486 1482 0
h -1486 1482 0
h -1486 1487 0
h -1488 1489 1481 1484 1485 1486 0
h 1488 -1489 0
h 1488 -1481 0
h 1488 -1484 0
h 1488 -1485 0
h 1488 -1486 0
h 1490 -1482 -1491 0
h -1490 1482 0
h -1490 1491 0
h 1492 -1483 -1491 0
h -1492 1483 0
h -1492 1491 0
h 1493 -1483 -1494 0
h -1493 1483 0
h -1493 1494 0
h 1495 -1482 -1494 -1487 0
h -1495 1482 0
h -1495 1494 0
h -1495 1487 0
h -1104 1496 1490 1492 1493 1495 0
h 1104 -1496 0
h 1104 -1490 0
h 1104 -1492 0
h 1104 -1493 0
h 1104 -1495 0
h 1497 -1482 -1498 0
h -1497 1482 0
h -1497 1498 0
h 1499 -1483 -1500 0
h -1499 1483 0
h -1499 1500 0
h 1501 -1483 -1498 0
h -1501 1483 0
h -1501 1498 0
h 1502 -1482 -1500 -1487 0
h -1502 1482 0
h -1502 1500 0
h -1502 1487 0
h -1102 1503 1497 1499 1501 1502 0
h 1102 -1503 0
h 1102 -1497 0
h 1102 -1499 0
h 1102 -1501 0
h 1102 -1502 0
h 1504 -1505 -1498 0
h -1504 1505 0
h -1504 1498 0
h 1506 -1507 -1498 0
h -1506 1507 0
h -1506 1498 0
h 1508 -1507 -1500 0
h -1508 1507 0
h -1508 1500 0
h 1509 -1505 -1500 -1487 0
h -1509 1505 0
h -1509 1500 0
h -1509 1487 0
h -1105 1510 1504 1506 1508 1509 0
h 1105 -1510 0
h 1105 -1504 0
h 1105 -1506 0
h 1105 -1508 0
h 1105 -1509 0
h 1511 -1494 -1507 0
h -1511 1494 0
h -1511 1507 0
h 1512 -1491 -1505 0
h -1512 1491 0
h -1512 1505 0
h 1513 -1491 -1507 0
h -1513 1491 0
h -1513 1507 0
h 1514 -1494 -1505 -1487 0
h -1514 1494 0
h -1514 1505 0
h -1514 1487 0
h -1103 1515 1511 1512 1513 1514 0
h 1103 -1515 0
h 1103 -1511 0
h 1103 -1512 0
h 1103 -1513 0
h 1103 -1514 0
h 1516 -1494 -1491 0
h -1516 1494 0
h -1516 1491 0
h 1517 -1491 -1491 0
h -1517 1491 0
h -1517 1491 0
h 1518 -1491 -1494 0
h -1518 1491 0
h -1518 1494 0
h 1519 -1494 -1494 -1487 0
h -1519 1494 0
h -1519 1494 0
h -1519 1487 0
h -1520 1521 1516 1517 1518 1519 0
h 1520 -1521 0
h 1520 -1516 0
h 1520 -1517 0
h 1520 -1518 0
h 1520 -1519 0
h 1522 -1523 -1524 0
h -1522 1523 0
h -1522 1524 0
h 1525 -1524 -1524 0
h -1525 1524 0
h -1525 1524 0
h 1526 -1524 -1523 0
h -1526 1524 0
h -1526 1523 0
h 1527 -1523 -1523 -1528 0
h -1527 1523 0
h -1527 1523 0
h -1527 1528 0
h -1529 1530 1522 1525 1526 1527 0
h 1529 -1530 0
h 1529 -1522 0
h 1529 -1525 0
h 1529 -1526 0
h 1529 -1527 0
h 1531 -1523 -1532 0
h -1531 1523 0
h -1531 1532 0
h 1533 -1524 -1532 0
h -1533 1524 0
h -1533 1532 0
h 1534 -1524 -1535 0
h -1534 1524 0
h -1534 1535 0
h 1536 -1523 -1535 -1528 0
h -1536 1523 0
h -1536 1535 0
h -1536 1528 0
h -1024 1537 1531 1533 1534 1536 0
h 1024 -1537 0
h 1024 -1531 0
h 1024 -1533 0
h 1024 -1534 0
h 1024 -1536 0
h 1538 -1523 -1539 0
h -1538 1523 0
h -1538 1539 0
h 1540 -1524 -1541 0
h -1540 1524 0
h -1540 1541 0
h 1542 -1524 -1539 0
h -1542 1524 0
h -1542 1539 0
h 1543 -1523 -1541 -1528 0
h -1543 1523 0
h -1543 1541 0
h -1543 1528 0
h -1022 1544 1538 1540 1542 1543 0
h 1022 -1544 0
h 1022 -1538 0
h 1022 -1540 0
h 1022 -1542 0
h 1022 -1543 0
h 1545 -1546 -1539 0
h -1545 1546 0
h -1545 1539 0
h 1547 -1548 -1539 0
h -1547 1548 0
h -1547 1539 0
h 1549 -1548 -1541 0
h -1549 1548 0
h -1549 1541 0
h 1550 -1546 -1541 -1528 0
h -1550 1546 0
h -1550 1541 0
h -1550 1528 0
h -1025 1551 1545 1547 1549 1550 0
h 1025 -1551 0
h 1025 -1545 0
h 1025 -1547 0
h 1025 -1549 0
h 1025 -1550 0
h 1552 -1535 -1548 0
h -1552 1535 0
h -1552 1548 0
h 1553 -1532 -1546 0
h -1553 1532 0
h -1553 1546 0
h 1554 -1532 -1548 0
h -1554 1532 0
h -1554 1548 0
h 1555 -1535 -1546 -1528 0
h -1555 1535 0
h -1555 1546 0
h -1555 1528 0
h -1023 1556 1552 1553 1554 1555 0
h 1023 -1556 0
h 1023 -1552 0
h 1023 -1553 0
h 1023 -1554 0
h 1023 -1555 0
h 1557 -1535 -1532 0
h -1557 1535 0
h -1557 1532 0
h 1558 -1532 -1532 0
h -1558 1532 0
h -1558 1532 0
h 1559 -1532 -1535 0
h -1559 1532 0
h -1559 1535 0
h 1560 -1535 -1535 -1528 0
h -1560 1535 0
h -1560 1535 0
h -1560 1528 0
h -1561 1562 1557 1558 1559 1560 0
h 1561 -1562 0
h 1561 -1557 0
h 1561 -1558 0
h 1561 -1559 0
h 1561 -1560 0
h 1563 -1564 -1564 0
h -1563 1564 0
h -1563 1564 0
h -1565 1566 1563 0
h 1565 -1566 0
h 1565 -1563 0
h 1567 -1564 -1568 0
h -1567 1564 0
h -1567 1568 0
h -724 1569 1567 0
h 724 -1569 0
h 724 -1567 0
h 1570 -1564 -1571 0
h -1570 1564 0
h -1570 1571 0
h -722 1572 1570 0
h 722 -1572 0
h 722 -1570 0
h 1573 -1574 -1571 0
h -1573 1574 0
h -1573 1571 0
h -725 1575 1573 0
h 725 -1575 0
h 725 -1573 0
h 1576 -1568 -1574 0
h -1576 1568 0
h -1576 1574 0
h -723 1577 1576 0
h 723 -1577 0
h 723 -1576 0
h 1578 -1568 -1568 0
h -1578 1568 0
h -1578 1568 0
h -1579 1580 1578 0
h 1579 -1580 0
h 1579 -1578 0
h 1581 -1582 -1582 0
h -1581 1582 0
h -1581 1582 0
h -1583 1584 1581 0
h 1583 -1584 0
h 1583 -1581 0
h 1585 -1582 -1586 0
h -1585 1582 0
h -1585 1586 0
h -79 1587 1585 0
h 79 -1587 0
h 79 -1585 0
h 1588 -1582 -1589 0
h -1588 1582 0
h -1588 1589 0
h -77 1590 1588 0
h 77 -1590 0
h 77 -1588 0
h 1591 -1592 -1589 0
h -1591 1592 0
h -1591 1589 0
h -80 1593 1591 0
h 80 -1593 0
h 80 -1591 0
h 1594 -1586 -1592 0
h -1594 1586 0
h -1594 1592 0
h -78 1595 1594 0
h 78 -1595 0
h 78 -1594 0
h 1596 -1586 -1586 0
h -1596 1586 0
h -1596 1586 0
h -1597 1598 1596 0
h 1597 -1598 0
h 1597 -1596 0
h 1599 -1600 -1600 0
h -1599 1600 0
h -1599 1600 0
h -1601 1602 1599 0
h 1601 -1602 0
h 1601 -1599 0
h 1603 -1600 -1604 0
h -1603 1600 0
h -1603 1604 0
h -879 1605 1603 0
h 879 -1605 0
h 879 -1603 0
h 1606 -1600 -1607 0
h -1606 1600 0
h -1606 1607 0
h -877 1608 1606 0
h 877 -1608 0
h 877 -1606 0
h 1609 -1610 -1607 0
h -1609 1610 0
h -1609 1607 0
h -880 1611 1609 0
h 880 -1611 0
h 880 -1609 0
h 1612 -1604 -1610 0
h -1612 1604 0
h -1612 1610 0
h -878 1613 1612 0
h 878 -1613 0
h 878 -1612 0
h 1614 -1604 -1604 0
h -1614 1604 0
h -1614 1604 0
h -1615 1616 1614 0
h 1615 -1616 0
h 1615 -1614 0
h 1617 -1618 -1619 0
h -1617 1618 0
h -1617 1619 0
h 1620 -1619 -1619 0
h -1620 1619 0
h -1620 1619 0
h 1621 -1619 -1618 0
h -1621 1619 0
h -1621 1618 0
h 1622 -1618 -1618 -1623 0
h -1622 1618 0
h -1622 1618 0
h -1622 1623 0
h -1624 1625 1617 1620 1621 1622 0
h 1624 -1625 0
h 1624 -1617 0
h 1624 -1620 0
h 1624 -1621 0
h 1624 -1622 0
h 1626 -1618 -1627 0
h -1626 1618 0
h -1626 1627 0
h 1628 -1619 -1627 0
h -1628 1619 0
h -1628 1627 0
h 1629 -1619 -1630 0
h -1629 1619 0
h -1629 1630 0
h 1631 -1618 -1630 -1623 0
h -1631 1618 0
h -1631 1630 0
h -1631 1623 0
h -789 1632 1626 1628 1629 1631 0
h 789 -1632 0
h 789 -1626 0
h 789 -1628 0
h 789 -1629 0
h 789 -1631 0
h 1633 -1618 -1634 0
h -1633 1618 0
h -1633 1634 0
h 1635 -1619 -1636 0
h -1635 1619 0
h -1635 1636 0
h 1637 -1619 -1634 0
h -1637 1619 0
h -1637 1634 0
h 1638 -1618 -1636 -1623 0
h -1638 1618 0
h -1638 1636 0
h -1638 1623 0
h -787 1639 1633 1635 1637 1638 0
h 787 -1639 0
h 787 -1633 0
h 787 -1635 0
h 787 -1637 0
h 787 -1638 0
h 1640 -1641 -1634 0
h -1640 1641 0
h -1640 1634 0
h 1642 -1643 -1634 0
h -1642 1643 0
h -1642 1634 0
h 1644 -1643 -1636 0
h -1644 1643 0
h -1644 1636 0
h 1645 -1641 -1636 -1623 0
h -1645 1641 0
h -1645 1636 0
h -1645 1623 0
h -790 1646 1640 1642 1644 1645 0
h 790 -1646 0
h 790 -1640 0
h 790 -1642 0
h 790 -1644 0
h 790 -1645 0
h 1647 -1630 -1643 0
h -1647 1630 0
h -1647 1643 0
h 1648 -1627 -1641 0
h -1648 1627 0
h -1648 1641 0
h 1649 -1627 -1643 0
h -1649 1627 0
h -1649 1643 0
h 1650 -1630 -1641 -1623 0
h -1650 1630 0
h -1650 1641 0
h -1650 1623 0
h -788 1651 1647 1648 1649 1650 0
h 788 -1651 0
h 788 -1647 0
h 788 -1648 0
h 788 -1649 0
h 788 -1650 0
h 1652 -1630 -1627 0
h -1652 1630 0
h -1652 1627 0
h 1653 -1627 -1627 0
h -1653 1627 0
h -1653 1627 0
h 1654 -1627 -1630 0
h -1654 1627 0
h -1654 1630 0
h 1655 -1630 -1630 -1623 0
h -1655 1630 0
h -1655 1630 0
h -1655 1623 0
h -1656 1657 1652 1653 1654 1655 0
h 1656 -1657 0
h 1656 -1652 0
h 1656 -1653 0
h 1656 -1654 0
h 1656 -1655 0
h 1658 -1659 -1660 0
h -1658 1659 0
h -1658 1660 0
h 1661 -1660 -1660 0
h -1661 1660 0
h -1661 1660 0
h 1662 -1660 -1659 0
h -1662 1660 0
h -1662 1659 0
h 1663 -1659 -1659 -1664 0
h -1663 1659 0
h -1663 1659 0
h -1663 1664 0
h -1665 1666 1658 1661 1662 1663 0
h 1665 -1666 0
h 1665 -1658 0
h 1665 -1661 0
h 1665 -1662 0
h 1665 -1663 0
h 1667 -1659 -1668 0
h -1667 1659 0
h -1667 1668 0
h 1669 -1660 -1668 0
h -1669 1660 0
h -1669 1668 0
h 1670 -1660 -1671 0
h -1670 1660 0
h -1670 1671 0
h 1672 -1659 -1671 -1664 0
h -1672 1659 0
h -1672 1671 0
h -1672 1664 0
h -114 1673 1667 1669 1670 1672 0
h 114 -1673 0
h 114 -1667 0
h 114 -1669 0
h 114 -1670 0
h 114 -1672 0
h 1674 -1659 -1675 0
h -1674 1659 0
h -1674 1675 0
h 1676 -1660 -1677 0
h -1676 1660 0
h -1676 1677 0
h 1678 -1660 -1675 0
h -1678 1660 0
h -1678 1675 0
h 1679 -1659 -1677 -1664 0
h -1679 1659 0
h -1679 1677 0
h -1679 1664 0
h -112 1680 1674 1676 1678 1679 0
h 112 -1680 0
h 112 -1674 0
h 112 -1676 0
h 112 -1678 0
h 112 -1679 0
h 1681 -1682 -1675 0
h -1681 1682 0
h -1681 1675 0
h 1683 -1684 -1675 0
h -1683 1684 0
h -1683 1675 0
h 1685 -1684 -1677 0
h -1685 1684 0
h -1685 1677 0
h 1686 -1682 -1677 -1664 0
h -1686 1682 0
h -1686 1677 0
h -1686 1664 0
h -115 1687 1681 1683 1685 1686 0
h 115 -1687 0
h 115 -1681 0
h 115 -1683 0
h 115 -1685 0
h 115 -1686 0
h 1688 -1671 -1684 0
h -1688 1671 0
h -1688 1684 0
h 1689 -1668 -1682 0
h -1689 1668 0
h -1689 1682 0
h 1690 -1668 -1684 0
h -1690 1668 0
h -1690 1684 0
h 1691 -1671 -1682 -1664 0
h -1691 1671 0
h -1691 1682 0
h -1691 1664 0
h -113 1692 1688 1689 1690 1691 0
h 113 -1692 0
h 113 -1688 0
h 113 -1689 0
h 113 -1690 0
h 113 -1691 0
h 1693 -1671 -1668 0
h -1693 1671 0
h -1693 1668 0
h 1694 -1668 -1668 0
h -1694 1668 0
h -1694 1668 0
h 1695 -1668 -1671 0
h -1695 1668 0
h -1695 1671 0
h 1696 -1671 -1671 -1664 0
h -1696 1671 0
h -1696 1671 0
h -1696 1664 0
h -1697 1698 1693 1694 1695 1696 0
h 1697 -1698 0
h 1697 -1693 0
h 1697 -1694 0
h 1697 -1695 0
h 1697 -1696 0
h 1699 -1700 -1700 0
h -1699 1700 0
h -1699 1700 0
h -1701 1702 1699 0
h 1701 -1702 0
h 1701 -1699 0
h 1703 -1700 -1704 0
h -1703 1700 0
h -1703 1704 0
h -409 1705 1703 0
h 409 -1705 0
h 409 -1703 0
h 1706 -1700 -1707 0
h -1706 1700 0
h -1706 1707 0
h -407 1708 1706 0
h 407 -1708 0
h 407 -1706 0
h 1709 -1710 -1707 0
h -1709 1710 0
h -1709 1707 0
h -410 1711 1709 0
h 410 -1711 0
h 410 -1709 0
h 1712 -1704 -1710 0
h -1712 1704 0
h -1712 1710 0
h -408 1713 1712 0
h 408 -1713 0
h 408 -1712 0
h 1714 -1704 -1704 0
h -1714 1704 0
h -1714 1704 0
h -1715 1716 1714 0
h 1715 -1716 0
h 1715 -1714 0
h 1717 -1718 -1719 0
h -1717 1718 0
h -1717 1719 0
h 1720 -1719 -1719 0
h -1720 1719 0
h -1720 1719 0
h 1721 -1719 -1718 0
h -1721 1719 0
h -1721 1718 0
h 1722 -1718 -1718 -1723 0
h -1722 1718 0
h -1722 1718 0
h -1722 1723 0
h -1724 1725 1717 1720 1721 1722 0
h 1724 -1725 0
h 1724 -1717 0
h 1724 -1720 0
h 1724 -1721 0
h 1724 -1722 0
h 1726 -1718 -1727 0
h -1726 1718 0
h -1726 1727 0
h 1728 -1719 -1727 0
h -1728 1719 0
h -1728 1727 0
h 1729 -1719 -1730 0
h -1729 1719 0
h -1729 1730 0
h 1731 -1718 -1730 -1723 0
h -1731 1718 0
h -1731 1730 0
h -1731 1723 0
h -614 1732 1726 1728 1729 1731 0
h 614 -1732 0
h 614 -1726 0
h 614 -1728 0
h 614 -1729 0
h 614 -1731 0
h 1733 -1718 -1734 0
h -1733 1718 0
h -1733 1734 0
h 1735 -1719 -1736 0
h -1735 1719 0
h -1735 1736 0
h 1737 -1719 -1734 0
h -1737 1719 0
h -1737 1734 0
h 1738 -1718 -1736 -1723 0
h -1738 1718 0
h -1738 1736 0
h -1738 1723 0
h -612 1739 1733 1735 1737 1738 0
h 612 -1739 0
h 612 -1733 0
h 612 -1735 0
h 612 -1737 0
h 612 -1738 0
h 1740 -1741 -1734 0
h -1740 1741 0
h -1740 1734 0
h 1742 -1743 -1734 0
h -1742 1743 0
h -1742 1734 0
h 1744 -1743 -1736 0
h -1744 1743 0
h -1744 1736 0
h 1745 -1741 -1736 -1723 0
h -1745 1741 0
h -1745 1736 0
h -1745 1723 0
h -615 1746 1740 1742 1744 1745 0
h 615 -1746 0
h 615 -1740 0
h 615 -1742 0
h 615 -1744 0
h 615 -1745 0
h 1747 -1730 -1743 0
h -1747 1730 0
h -1747 1743 0
h 1748 -1727 -1741 0
h -1748 1727 0
h -1748 1741 0
h 1749 -1727 -1743 0
h -1749 1727 0
h -1749 1743 0
h 1750 -1730 -1741 -1723 0
h -1750 1730 0
h -1750 1741 0
h -1750 1723 0
h -613 1751 1747 1748 1749 1750 0
h 613 -1751 0
h 613 -1747 0
h 613 -1748 0
h 613 -1749 0
h 613 -1750 0
h 1752 -1730 -1727 0
h -1752 1730 0
h -1752 1727 0
h 1753 -1727 -1727 0
h -1753 1727 0
h -1753 1727 0
h 1754 -1727 -1730 0
h -1754 1727 0
h -1754 1730 0
h 1755 -1730 -1730 -1723 0
h -1755 1730 0
h -1755 1730 0
h -1755 1723 0
h -1756 1757 1752 1753 1754 1755 0
h 1756 -1757 0
h 1756 -1752 0
h 1756 -1753 0
h 1756 -1754 0
h 1756 -1755 0
h 1758 -1405 -1759 0
h -1758 1405 0
h -1758 1759 0
h 1760 -1759 -1759 0
h -1760 1759 0
h -1760 1759 0
h 1761 -1759 -1405 0
h -1761 1759 0
h -1761 1405 0
h 1762 -1405 -1405 -1763 0
h -1762 1405 0
h -1762 1405 0
h -1762 1763 0
h -1764 1407 1758 1760 1761 1762 0
h 1764 -1407 0
h 1764 -1758 0
h 1764 -1760 0
h 1764 -1761 0
h 1764 -1762 0
h 1765 -1405 -1766 0
h -1765 1405 0
h -1765 1766 0
h 1767 -1759 -1766 0
h -1767 1759 0
h -1767 1766 0
h 1768 -1759 -1409 0
h -1768 1759 0
h -1768 1409 0
h 1769 -1405 -1409 -1763 0
h -1769 1405 0
h -1769 1409 0
h -1769 1763 0
h -234 1410 1765 1767 1768 1769 0
h 234 -1410 0
h 234 -1765 0
h 234 -1767 0
h 234 -1768 0
h 234 -1769 0
h 1770 -1405 -1771 0
h -1770 1405 0
h -1770 1771 0
h 1772 -1759 -1412 0
h -1772 1759 0
h -1772 1412 0
h 1773 -1759 -1771 0
h -1773 1759 0
h -1773 1771 0
h 1774 -1405 -1412 -1763 0
h -1774 1405 0
h -1774 1412 0
h -1774 1763 0
h -232 1413 1770 1772 1773 1774 0
h 232 -1413 0
h 232 -1770 0
h 232 -1772 0
h 232 -1773 0
h 232 -1774 0
h 1775 -1415 -1771 0
h -1775 1415 0
h -1775 1771 0
h 1776 -1777 -1771 0
h -1776 1777 0
h -1776 1771 0
h 1778 -1777 -1412 0
h -1778 1777 0
h -1778 1412 0
h 1779 -1415 -1412 -1763 0
h -1779 1415 0
h -1779 1412 0
h -1779 1763 0
h -235 1416 1775 1776 1778 1779 0
h 235 -1416 0
h 235 -1775 0
h 235 -1776 0
h 235 -1778 0
h 235 -1779 0
h 1780 -1409 -1777 0
h -1780 1409 0
h -1780 1777 0
h 1781 -1766 -1415 0
h -1781 1766 0
h -1781 1415 0
h 1782 -1766 -1777 0
h -1782 1766 0
h -1782 1777 0
h 1783 -1409 -1415 -1763 0
h -1783 1409 0
h -1783 1415 0
h -1783 1763 0
h -233 1418 1780 1781 1782 1783 0
h 233 -1418 0
h 233 -1780 0
h 233 -1781 0
h 233 -1782 0
h 233 -1783 0
h 1784 -1409 -1766 0
h -1784 1409 0
h -1784 1766 0
h 1785 -1766 -1766 0
h -1785 1766 0
h -1785 1766 0
h 1786 -1766 -1409 0
h -1786 1766 0
h -1786 1409 0
h 1787 -1409 -1409 -1763 0
h -1787 1409 0
h -1787 1409 0
h -1787 1763 0
h -1788 1421 1784 1785 1786 1787 0
h 1788 -1421 0
h 1788 -1784 0
h 1788 -1785 0
h 1788 -1786 0
h 1788 -1787 0
h 1789 -1743 -1719 0
h -1789 1743 0
h -1789 1719 0
h 1720 -1719 -1719 0
h -1720 1719 0
h -1720 1719 0
h 1790 -1719 -1743 0
h -1790 1719 0
h -1790 1743 0
h 1791 -1743 -1743 -1725 0
h -1791 1743 0
h -1791 1743 0
h -1791 1725 0
h -1792 1723 1789 1720 1790 1791 0
h 1792 -1723 0
h 1792 -1789 0
h 1792 -1720 0
h 1792 -1790 0
h 1792 -1791 0
h 1793 -1743 -1732 0
h -1793 1743 0
h -1793 1732 0
h 1794 -1719 -1732 0
h -1794 1719 0
h -1794 1732 0
h 1795 -1719 -1751 0
h -1795 1719 0
h -1795 1751 0
h 1796 -1743 -1751 -1725 0
h -1796 1743 0
h -1796 1751 0
h -1796 1725 0
h -494 1727 1793 1794 1795 1796 0
h 494 -1727 0
h 494 -1793 0
h 494 -1794 0
h 494 -1795 0
h 494 -1796 0
h 1797 -1743 -1739 0
h -1797 1743 0
h -1797 1739 0
h 1798 -1719 -1746 0
h -1798 1719 0
h -1798 1746 0
h 1799 -1719 -1739 0
h -1799 1719 0
h -1799 1739 0
h 1800 -1743 -1746 -1725 0
h -1800 1743 0
h -1800 1746 0
h -1800 1725 0
h -492 1734 1797 1798 1799 1800 0
h 492 -1734 0
h 492 -1797 0
h 492 -1798 0
h 492 -1799 0
h 492 -1800 0
h 1801 -1741 -1739 0
h -1801 1741 0
h -1801 1739 0
h 1802 -1718 -1739 0
h -1802 1718 0
h -1802 1739 0
h 1803 -1718 -1746 0
h -1803 1718 0
h -1803 1746 0
h 1804 -1741 -1746 -1725 0
h -1804 1741 0
h -1804 1746 0
h -1804 1725 0
h -495 1736 1801 1802 1803 1804 0
h 495 -1736 0
h 495 -1801 0
h 495 -1802 0
h 495 -1803 0
h 495 -1804 0
h 1805 -1751 -1718 0
h -1805 1751 0
h -1805 1718 0
h 1806 -1732 -1741 0
h -1806 1732 0
h -1806 1741 0
h 1807 -1732 -1718 0
h -1807 1732 0
h -1807 1718 0
h 1808 -1751 -1741 -1725 0
h -1808 1751 0
h -1808 1741 0
h -1808 1725 0
h -493 1730 1805 1806 1807 1808 0
h 493 -1730 0
h 493 -1805 0
h 493 -1806 0
h 493 -1807 0
h 493 -1808 0
h 1809 -1751 -1732 0
h -1809 1751 0
h -1809 1732 0
h 1810 -1732 -1732 0
h -1810 1732 0
h -1810 1732 0
h 1811 -1732 -1751 0
h -1811 1732 0
h -1811 1751 0
h 1812 -1751 -1751 -1725 0
h -1812 1751 0
h -1812 1751 0
h -1812 1725 0
h -1813 1757 1809 1810 1811 1812 0
h 1813 -1757 0
h 1813 -1809 0
h 1813 -1810 0
h 1813 -1811 0
h 1813 -1812 0
h 1814 -1815 -1816 0
h -1814 1815 0
h -1814 1816 0
h 1817 -1816 -1816 0
h -1817 1816 0
h -1817 1816 0
h 1818 -1816 -1815 0
h -1818 1816 0
h -1818 1815 0
h 1819 -1815 -1815 -1820 0
h -1819 1815 0
h -1819 1815 0
h -1819 1820 0
h -1821 1822 1814 1817 1818 1819 0
h 1821 -1822 0
h 1821 -1814 0
h 1821 -1817 0
h 1821 -1818 0
h 1821 -1819 0
h 1823 -1815 -1824 0
h -1823 1815 0
h -1823 1824 0
h 1825 -1816 -1824 0
h -1825 1816 0
h -1825 1824 0
h 1826 -1816 -1827 0
h -1826 1816 0
h -1826 1827 0
h 1828 -1815 -1827 -1820 0
h -1828 1815 0
h -1828 1827 0
h -1828 1820 0
h -824 1829 1823 1825 1826 1828 0
h 824 -1829 0
h 824 -1823 0
h 824 -1825 0
h 824 -1826 0
h 824 -1828 0
h 1830 -1815 -1831 0
h -1830 1815 0
h -1830 1831 0
h 1832 -1816 -1833 0
h -1832 1816 0
h -1832 1833 0
h 1834 -1816 -1831 0
h -1834 1816 0
h -1834 1831 0
h 1835 -1815 -1833 -1820 0
h -1835 1815 0
h -1835 1833 0
h -1835 1820 0
h -822 1836 1830 1832 1834 1835 0
h 822 -1836 0
h 822 -1830 0
h 822 -1832 0
h 822 -1834 0
h 822 -1835 0
h 1837 -1838 -1831 0
h -1837 1838 0
h -1837 1831 0
h 1839 -1840 -1831 0
h -1839 1840 0
h -1839 1831 0
h 1841 -1840 -1833 0
h -1841 1840 0
h -1841 1833 0
h 1842 -1838 -1833 -1820 0
h -1842 1838 0
h -1842 1833 0
h -1842 1820 0
h -825 1843 1837 1839 1841 1842 0
h 825 -1843 0
h 825 -1837 0
h 825 -1839 0
h 825 -1841 0
h 825 -1842 0
h 1844 -1827 -1840 0
h -1844 1827 0
h -1844 1840 0
h 1845 -1824 -1838 0
h -1845 1824 0
h -1845 1838 0
h 1846 -1824 -1840 0
h -1846 1824 0
h -1846 1840 0
h 1847 -1827 -1838 -1820 0
h -1847 1827 0
h -1847 1838 0
h -1847 1820 0
h -823 1848 1844 1845 1846 1847 0
h 823 -1848 0
h 823 -1844 0
h 823 -1845 0
h 823 -1846 0
h 823 -1847 0
h 1849 -1827 -1824 0
h -1849 1827 0
h -1849 1824 0
h 1850 -1824 -1824 0
h -1850 1824 0
h -1850 1824 0
h 1851 -1824 -1827 0
h -1851 1824 0
h -1851 1827 0
h 1852 -1827 -1827 -1820 0
h -1852 1827 0
h -1852 1827 0
h -1852 1820 0
h -1853 1854 1849 1850 1851 1852 0
h 1853 -1854 0
h 1853 -1849 0
h 1853 -1850 0
h 1853 -1851 0
h 1853 -1852 0
h 1855 -1856 -1856 0
h -1855 1856 0
h -1855 1856 0
h -1857 1858 1855 0
h 1857 -1858 0
h 1857 -1855 0
h 1859 -1856 -1860 0
h -1859 1856 0
h -1859 1860 0
h -564 1861 1859 0
h 564 -1861 0
h 564 -1859 0
h 1862 -1856 -1863 0
h -1862 1856 0
h -1862 1863 0
h -562 1864 1862 0
h 562 -1864 0
h 562 -1862 0
h 1865 -1866 -1863 0
h -1865 1866 0
h -1865 1863 0
h -565 1867 1865 0
h 565 -1867 0
h 565 -1865 0
h 1868 -1860 -1866 0
h -1868 1860 0
h -1868 1866 0
h -563 1869 1868 0
h 563 -1869 0
h 563 -1868 0
h 1870 -1860 -1860 0
h -1870 1860 0
h -1870 1860 0
h -1871 1872 1870 0
h 1871 -1872 0
h 1871 -1870 0
h 1873 -1684 -1660 0
h -1873 1684 0
h -1873 1660 0
h 1661 -1660 -1660 0
h -1661 1660 0
h -1661 1660 0
h 1874 -1660 -1684 0
h -1874 1660 0
h -1874 1684 0
h 1875 -1684 -1684 -1666 0
h -1875 1684 0
h -1875 1684 0
h -1875 1666 0
h -1876 1664 1873 1661 1874 1875 0
h 1876 -1664 0
h 1876 -1873 0
h 1876 -1661 0
h 1876 -1874 0
h 1876 -1875 0
h 1877 -1684 -1673 0
h -1877 1684 0
h -1877 1673 0
h 1878 -1660 -1673 0
h -1878 1660 0
h -1878 1673 0
h 1879 -1660 -1692 0
h -1879 1660 0
h -1879 1692 0
h 1880 -1684 -1692 -1666 0
h -1880 1684 0
h -1880 1692 0
h -1880 1666 0
h -194 1668 1877 1878 1879 1880 0
h 194 -1668 0
h 194 -1877 0
h 194 -1878 0
h 194 -1879 0
h 194 -1880 0
h 1881 -1684 -1680 0
h -1881 1684 0
h -1881 1680 0
h 1882 -1660 -1687 0
h -1882 1660 0
h -1882 1687 0
h 1883 -1660 -1680 0
h -1883 1660 0
h -1883 1680 0
h 1884 -1684 -1687 -1666 0
h -1884 1684 0
h -1884 1687 0
h -1884 1666 0
h -192 1675 1881 1882 1883 1884 0
h 192 -1675 0
h 192 -1881 0
h 192 -1882 0
h 192 -1883 0
h 192 -1884 0
h 1885 -1682 -1680 0
h -1885 1682 0
h -1885 1680 0
h 1886 -1659 -1680 0
h -1886 1659 0
h -1886 1680 0
h 1887 -1659 -1687 0
h -1887 1659 0
h -1887 1687 0
h 1888 -1682 -1687 -1666 0
h -1888 1682 0
h -1888 1687 0
h -1888 1666 0
h -195 1677 1885 1886 1887 1888 0
h 195 -1677 0
h 195 -1885 0
h 195 -1886 0
h 195 -1887 0
h 195 -1888 0
h 1889 -1692 -1659 0
h -1889 1692 0
h -1889 1659 0
h 1890 -1673 -1682 0
h -1890 1673 0
h -1890 1682 0
h 1891 -1673 -1659 0
h -1891 1673 0
h -1891 1659 0
h 1892 -1692 -1682 -1666 0
h -1892 1692 0
h -1892 1682 0
h -1892 1666 0
h -193 1671 1889 1890 1891 1892 0
h 193 -1671 0
h 193 -1889 0
h 193 -1890 0
h 193 -1891 0
h 193 -1892 0
h 1893 -1692 -1673 0
h -1893 1692 0
h -1893 1673 0
h 1894 -1673 -1673 0
h -1894 1673 0
h -1894 1673 0
h 1895 -1673 -1692 0
h -1895 1673 0
h -1895 1692 0
h 1896 -1692 -1692 -1666 0
h -1896 1692 0
h -1896 1692 0
h -1896 1666 0
h -1897 1698 1893 1894 1895 1896 0
h 1897 -1698 0
h 1897 -1893 0
h 1897 -1894 0
h 1897 -1895 0
h 1897 -1896 0
h 1898 -1899 -1899 0
h -1898 1899 0
h -1898 1899 0
h -1900 1901 1898 0
h 1900 -1901 0
h 1900 -1898 0
h 1902 -1899 -1903 0
h -1902 1899 0
h -1902 1903 0
h -299 1904 1902 0
h 299 -1904 0
h 299 -1902 0
h 1905 -1899 -1906 0
h -1905 1899 0
h -1905 1906 0
h -297 1907 1905 0
h 297 -1907 0
h 297 -1905 0
h 1908 -1909 -1906 0
h -1908 1909 0
h -1908 1906 0
h -300 1910 1908 0
h 300 -1910 0
h 300 -1908 0
h 1911 -1903 -1909 0
h -1911 1903 0
h -1911 1909 0
h -298 1912 1911 0
h 298 -1912 0
h 298 -1911 0
h 1913 -1903 -1903 0
h -1913 1903 0
h -1913 1903 0
h -1914 1915 1913 0
h 1914 -1915 0
h 1914 -1913 0
h 1916 -1917 -1918 0
h -1916 1917 0
h -1916 1918 0
h 1919 -1918 -1918 0
h -1919 1918 0
h -1919 1918 0
h 1920 -1918 -1917 0
h -1920 1918 0
h -1920 1917 0
h 1921 -1917 -1917 -1922 0
h -1921 1917 0
h -1921 1917 0
h -1921 1922 0
h -1923 1924 1916 1919 1920 1921 0
h 1923 -1924 0
h 1923 -1916 0
h 1923 -1919 0
h 1923 -1920 0
h 1923 -1921 0
h 1925 -1917 -1926 0
h -1925 1917 0
h -1925 1926 0
h 1927 -1918 -1926 0
h -1927 1918 0
h -1927 1926 0
h 1928 -1918 -1929 0
h -1928 1918 0
h -1928 1929 0
h 1930 -1917 -1929 -1922 0
h -1930 1917 0
h -1930 1929 0
h -1930 1922 0
h -449 1931 1925 1927 1928 1930 0
h 449 -1931 0
h 449 -1925 0
h 449 -1927 0
h 449 -1928 0
h 449 -1930 0
h 1932 -1917 -1933 0
h -1932 1917 0
h -1932 1933 0
h 1934 -1918 -1935 0
h -1934 1918 0
h -1934 1935 0
h 1936 -1918 -1933 0
h -1936 1918 0
h -1936 1933 0
h 1937 -1917 -1935 -1922 0
h -1937 1917 0
h -1937 1935 0
h -1937 1922 0
h -447 1938 1932 1934 1936 1937 0
h 447 -1938 0
h 447 -1932 0
h 447 -1934 0
h 447 -1936 0
h 447 -1937 0
h 1939 -1940 -1933 0
h -1939 1940 0
h -1939 1933 0
h 1941 -1942 -1933 0
h -1941 1942 0
h -1941 1933 0
h 1943 -1942 -1935 0
h -1943 1942 0
h -1943 1935 0
h 1944 -1940 -1935 -1922 0
h -1944 1940 0
h -1944 1935 0
h -1944 1922 0
h -450 1945 1939 1941 1943 1944 0
h 450 -1945 0
h 450 -1939 0
h 450 -1941 0
h 450 -1943 0
h 450 -1944 0
h 1946 -1929 -1942 0
h -1946 1929 0
h -1946 1942 0
h 1947 -1926 -1940 0
h -1947 1926 0
h -1947 1940 0
h 1948 -1926 -1942 0
h -1948 1926 0
h -1948 1942 0
h 1949 -1929 -1940 -1922 0
h -1949 1929 0
h -1949 1940 0
h -1949 1922 0
h -448 1950 1946 1947 1948 1949 0
h 448 -1950 0
h 448 -1946 0
h 448 -1947 0
h 448 -1948 0
h 448 -1949 0
h 1951 -1929 -1926 0
h -1951 1929 0
h -1951 1926 0
h 1952 -1926 -1926 0
h -1952 1926 0
h -1952 1926 0
h 1953 -1926 -1929 0
h -1953 1926 0
h -1953 1929 0
h 1954 -1929 -1929 -1922 0
h -1954 1929 0
h -1954 1929 0
h -1954 1922 0
h -1955 1956 1951 1952 1953 1954 0
h 1955 -1956 0
h 1955 -1951 0
h 1955 -1952 0
h 1955 -1953 0
h 1955 -1954 0
h 1957 -1958 -1959 0
h -1957 1958 0
h -1957 1959 0
h 1960 -1959 -1959 0
h -1960 1959 0
h -1960 1959 0
h 1961 -1959 -1958 0
h -1961 1959 0
h -1961 1958 0
h 1962 -1958 -1958 -1963 0
h -1962 1958 0
h -1962 1958 0
h -1962 1963 0
h -1964 1965 1957 1960 1961 1962 0
h 1964 -1965 0
h 1964 -1957 0
h 1964 -1960 0
h 1964 -1961 0
h 1964 -1962 0
h 1966 -1958 -1967 0
h -1966 1958 0
h -1966 1967 0
h 1968 -1959 -1967 0
h -1968 1959 0
h -1968 1967 0
h 1969 -1959 -1970 0
h -1969 1959 0
h -1969 1970 0
h 1971 -1958 -1970 -1963 0
h -1971 1958 0
h -1971 1970 0
h -1971 1963 0
h -719 1972 1966 1968 1969 1971 0
h 719 -1972 0
h 719 -1966 0
h 719 -1968 0
h 719 -1969 0
h 719 -1971 0
h 1973 -1958 -1974 0
h -1973 1958 0
h -1973 1974 0
h 1975 -1959 -1976 0
h -1975 1959 0
h -1975 1976 0
h 1977 -1959 -1974 0
h -1977 1959 0
h -1977 1974 0
h 1978 -1958 -1976 -1963 0
h -1978 1958 0
h -1978 1976 0
h -1978 1963 0
h -717 1979 1973 1975 1977 1978 0
h 717 -1979 0
h 717 -1973 0
h 717 -1975 0
h 717 -1977 0
h 717 -1978 0
h 1980 -1981 -1974 0
h -1980 1981 0
h -1980 1974 0
h 1982 -1983 -1974 0
h -1982 1983 0
h -1982 1974 0
h 1984 -1983 -1976 0
h -1984 1983 0
h -1984 1976 0
h 1985 -1981 -1976 -1963 0
h -1985 1981 0
h -1985 1976 0
h -1985 1963 0
h -720 1986 1980 1982 1984 1985 0
h 720 -1986 0
h 720 -1980 0
h 720 -1982 0
h 720 -1984 0
h 720 -1985 0
h 1987 -1970 -1983 0
h -1987 1970 0
h -1987 1983 0
h 1988 -1967 -1981 0
h -1988 1967 0
h -1988 1981 0
h 1989 -1967 -1983 0
h -1989 1967 0
h -1989 1983 0
h 1990 -1970 -1981 -1963 0
h -1990 1970 0
h -1990 1981 0
h -1990 1963 0
h -718 1991 1987 1988 1989 1990 0
h 718 -1991 0
h 718 -1987 0
h 718 -1988 0
h 718 -1989 0
h 718 -1990 0
h 1992 -1970 -1967 0
h -1992 1970 0
h -1992 1967 0
h 1993 -1967 -1967 0
h -1993 1967 0
h -1993 1967 0
h 1994 -1967 -1970 0
h -1994 1967 0
h -1994 1970 0
h 1995 -1970 -1970 -1963 0
h -1995 1970 0
h -1995 1970 0
h -1995 1963 0
h -1996 1997 1992 1993 1994 1995 0
h 1996 -1997 0
h 1996 -1992 0
h 1996 -1993 0
h 1996 -1994 0
h 1996 -1995 0
h 1998 -1999 -1999 0
h -1998 1999 0
h -1998 1999 0
h -2000 2001 1998 0
h 2000 -2001 0
h 2000 -1998 0
h 2002 -1999 -2003 0
h -2002 1999 0
h -2002 2003 0
h -1164 2004 2002 0
h 1164 -2004 0
h 1164 -2002 0
h 2005 -1999 -2006 0
h -2005 1999 0
h -2005 2006 0
h -1162 2007 2005 0
h 1162 -2007 0
h 1162 -2005 0
h 2008 -2009 -2006 0
h -2008 2009 0
h -2008 2006 0
h -1165 2010 2008 0
h 1165 -2010 0
h 1165 -2008 0
h 2011 -2003 -2009 0
h -2011 2003 0
h -2011 2009 0
h -1163 2012 2011 0
h 1163 -2012 0
h 1163 -2011 0
h 2013 -2003 -2003 0
h -2013 2003 0
h -2013 2003 0
h -2014 2015 2013 0
h 2014 -2015 0
h 2014 -2013 0
h 2016 -2017 -2017 0
h -2016 2017 0
h -2016 2017 0
h -2018 2019 2016 0
h 2018 -2019 0
h 2018 -2016 0
h 2020 -2017 -2021 0
h -2020 2017 0
h -2020 2021 0
h -664 2022 2020 0
h 664 -2022 0
h 664 -2020 0
h 2023 -2017 -2024 0
h -2023 2017 0
h -2023 2024 0
h -662 2025 2023 0
h 662 -2025 0
h 662 -2023 0
h 2026 -2027 -2024 0
h -2026 2027 0
h -2026 2024 0
h -665 2028 2026 0
h 665 -2028 0
h 665 -2026 0
h 2029 -2021 -2027 0
h -2029 2021 0
h -2029 2027 0
h -663 2030 2029 0
h 663 -2030 0
h 663 -2029 0
h 2031 -2021 -2021 0
h -2031 2021 0
h -2031 2021 0
h -2032 2033 2031 0
h 2032 -2033 0
h 2032 -2031 0
h 2034 -2035 -2036 0
h -2034 2035 0
h -2034 2036 0
h 2037 -2036 -2036 0
h -2037 2036 0
h -2037 2036 0
h 2038 -2036 -2035 0
h -2038 2036 0
h -2038 2035 0
h 2039 -2035 -2035 -2040 0
h -2039 2035 0
h -2039 2035 0
h -2039 2040 0
h -2041 2042 2034 2037 2038 2039 0
h 2041 -2042 0
h 2041 -2034 0
h 2041 -2037 0
h 2041 -2038 0
h 2041 -2039 0
h 2043 -2035 -2044 0
h -2043 2035 0
h -2043 2044 0
h 2045 -2036 -2044 0
h -2045 2036 0
h -2045 2044 0
h 2046 -2036 -2047 0
h -2046 2036 0
h -2046 2047 0
h 2048 -2035 -2047 -2040 0
h -2048 2035 0
h -2048 2047 0
h -2048 2040 0
h -609 2049 2043 2045 2046 2048 0
h 609 -2049 0
h 609 -2043 0
h 609 -2045 0
h 609 -2046 0
h 609 -2048 0
h 2050 -2035 -2051 0
h -2050 2035 0
h -2050 2051 0
h 2052 -2036 -2053 0
h -2052 2036 0
h -2052 2053 0
h 2054 -2036 -2051 0
h -2054 2036 0
h -2054 2051 0
h 2055 -2035 -2053 -2040 0
h -2055 2035 0
h -2055 2053 0
h -2055 2040 0
h -607 2056 2050 2052 2054 2055 0
h 607 -2056 0
h 607 -2050 0
h 607 -2052 0
h 607 -2054 0
h 607 -2055 0
h 2057 -2058 -2051 0
h -2057 2058 0
h -2057 2051 0
h 2059 -2060 -2051 0
h -2059 2060 0
h -2059 2051 0
h 2061 -2060 -2053 0
h -2061 2060 0
h -2061 2053 0
h 2062 -2058 -2053 -2040 0
h -2062 2058 0
h -2062 2053 0
h -2062 2040 0
h -610 2063 2057 2059 2061 2062 0
h 610 -2063 0
h 610 -2057 0
h 610 -2059 0
h 610 -2061 0
h 610 -2062 0
h 2064 -2047 -2060 0
h -2064 2047 0
h -2064 2060 0
h 2065 -2044 -2058 0
h -2065 2044 0
h -2065 2058 0
h 2066 -2044 -2060 0
h -2066 2044 0
h -2066 2060 0
h 2067 -2047 -2058 -2040 0
h -2067 2047 0
h -2067 2058 0
h -2067 2040 0
h -608 2068 2064 2065 2066 2067 0
h 608 -2068 0
h 608 -2064 0
h 608 -2065 0
h 608 -2066 0
h 608 -2067 0
h 2069 -2047 -2044 0
h -2069 2047 0
h -2069 2044 0
h 2070 -2044 -2044 0
h -2070 2044 0
h -2070 2044 0
h 2071 -2044 -2047 0
h -2071 2044 0
h -2071 2047 0
h 2072 -2047 -2047 -2040 0
h -2072 2047 0
h -2072 2047 0
h -2072 2040 0
h -2073 2074 2069 2070 2071 2072 0
h 2073 -2074 0
h 2073 -2069 0
h 2073 -2070 0
h 2073 -2071 0
h 2073 -2072 0
h 2075 -1523 -1523 0
h -2075 1523 0
h -2075 1523 0
h -2076 1530 2075 0
h 2076 -1530 0
h 2076 -2075 0
h 2077 -1523 -1535 0
h -2077 1523 0
h -2077 1535 0
h -1174 1537 2077 0
h 1174 -1537 0
h 1174 -2077 0
h 2078 -1523 -1541 0
h -2078 1523 0
h -2078 1541 0
h -1172 1544 2078 0
h 1172 -1544 0
h 1172 -2078 0
h 2079 -1546 -1541 0
h -2079 1546 0
h -2079 1541 0
h -1175 1551 2079 0
h 1175 -1551 0
h 1175 -2079 0
h 2080 -1535 -1546 0
h -2080 1535 0
h -2080 1546 0
h -1173 1556 2080 0
h 1173 -1556 0
h 1173 -2080 0
h 2081 -1535 -1535 0
h -2081 1535 0
h -2081 1535 0
h -2082 1562 2081 0
h 2082 -1562 0
h 2082 -2081 0
h 2083 -2084 -2085 0
h -2083 2084 0
h -2083 2085 0
h 2086 -2085 -2085 0
h -2086 2085 0
h -2086 2085 0
h 2087 -2085 -2084 0
h -2087 2085 0
h -2087 2084 0
h 2088 -2084 -2084 -2089 0
h -2088 2084 0
h -2088 2084 0
h -2088 2089 0
h -2090 2091 2083 2086 2087 2088 0
h 2090 -2091 0
h 2090 -2083 0
h 2090 -2086 0
h 2090 -2087 0
h 2090 -2088 0
h 2092 -2084 -2093 0
h -2092 2084 0
h -2092 2093 0
h 2094 -2085 -2093 0
h -2094 2085 0
h -2094 2093 0
h 2095 -2085 -2096 0
h -2095 2085 0
h -2095 2096 0
h 2097 -2084 -2096 -2089 0
h -2097 2084 0
h -2097 2096 0
h -2097 2089 0
h -54 2098 2092 2094 2095 2097 0
h 54 -2098 0
h 54 -2092 0
h 54 -2094 0
h 54 -2095 0
h 54 -2097 0
h 2099 -2084 -2100 0
h -2099 2084 0
h -2099 2100 0
h 2101 -2085 -2102 0
h -2101 2085 0
h -2101 2102 0
h 2103 -2085 -2100 0
h -2103 2085 0
h -2103 2100 0
h 2104 -2084 -2102 -2089 0
h -2104 2084 0
h -2104 2102 0
h -2104 2089 0
h -52 2105 2099 2101 2103 2104 0
h 52 -2105 0
h 52 -2099 0
h 52 -2101 0
h 52 -2103 0
h 52 -2104 0
h 2106 -2107 -2100 0
h -2106 2107 0
h -2106 2100 0
h 2108 -2109 -2100 0
h -2108 2109 0
h -2108 2100 0
h 2110 -2109 -2102 0
h -2110 2109 0
h -2110 2102 0
h 2111 -2107 -2102 -2089 0
h -2111 2107 0
h -2111 2102 0
h -2111 2089 0
h -55 2112 2106 2108 2110 2111 0
h 55 -2112 0
h 55 -2106 0
h 55 -2108 0
h 55 -2110 0
h 55 -2111 0
h 2113 -2096 -2109 0
h -2113 2096 0
h -2113 2109 0
h 2114 -2093 -2107 0
h -2114 2093 0
h -2114 2107 0
h 2115 -2093 -2109 0
h -2115 2093 0
h -2115 2109 0
h 2116 -2096 -2107 -2089 0
h -2116 2096 0
h -2116 2107 0
h -2116 2089 0
h -53 2117 2113 2114 2115 2116 0
h 53 -2117 0
h 53 -2113 0
h 53 -2114 0
h 53 -2115 0
h 53 -2116 0
h 2118 -2096 -2093 0
h -2118 2096 0
h -2118 2093 0
h 2119 -2093 -2093 0
h -2119 2093 0
h -2119 2093 0
h 2120 -2093 -2096 0
h -2120 2093 0
h -2120 2096 0
h 2121 -2096 -2096 -2089 0
h -2121 2096 0
h -2121 2096 0
h -2121 2089 0
h -2122 2123 2118 2119 2120 2121 0
h 2122 -2123 0
h 2122 -2118 0
h 2122 -2119 0
h 2122 -2120 0
h 2122 -2121 0
h 2124 -1917 -1917 0
h -2124 1917 0
h -2124 1917 0
h -2125 1924 2124 0
h 2125 -1924 0
h 2125 -2124 0
h 2126 -1917 -1929 0
h -2126 1917 0
h -2126 1929 0
h -869 1931 2126 0
h 869 -1931 0
h 869 -2126 0
h 2127 -1917 -1935 0
h -2127 1917 0
h -2127 1935 0
h -867 1938 2127 0
h 867 -1938 0
h 867 -2127 0
h 2128 -1940 -1935 0
h -2128 1940 0
h -2128 1935 0
h -870 1945 2128 0
h 870 -1945 0
h 870 -2128 0
h 2129 -1929 -1940 0
h -2129 1929 0
h -2129 1940 0
h -868 1950 2129 0
h 868 -1950 0
h 868 -2129 0
h 2130 -1929 -1929 0
h -2130 1929 0
h -2130 1929 0
h -2131 1956 2130 0
h 2131 -1956 0
h 2131 -2130 0
h 2132 -2133 -2133 0
h -2132 2133 0
h -2132 2133 0
h -2134 2135 2132 0
h 2134 -2135 0
h 2134 -2132 0
h 2136 -2133 -2137 0
h -2136 2133 0
h -2136 2137 0
h -594 2138 2136 0
h 594 -2138 0
h 594 -2136 0
h 2139 -2133 -2140 0
h -2139 2133 0
h -2139 2140 0
h -592 2141 2139 0
h 592 -2141 0
h 592 -2139 0
h 2142 -2143 -2140 0
h -2142 2143 0
h -2142 2140 0
h -595 2144 2142 0
h 595 -2144 0
h 595 -2142 0
h 2145 -2137 -2143 0
h -2145 2137 0
h -2145 2143 0
h -593 2146 2145 0
h 593 -2146 0
h 593 -2145 0
h 2147 -2137 -2137 0
h -2147 2137 0
h -2147 2137 0
h -2148 2149 2147 0
h 2148 -2149 0
h 2148 -2147 0
h 2150 -2151 -2151 0
h -2150 2151 0
h -2150 2151 0
h -2152 2153 2150 0
h 2152 -2153 0
h 2152 -2150 0
h 2154 -2151 -2155 0
h -2154 2151 0
h -2154 2155 0
h -1039 2156 2154 0
h 1039 -2156 0
h 1039 -2154 0
h 2157 -2151 -2158 0
h -2157 2151 0
h -2157 2158 0
h -1037 2159 2157 0
h 1037 -2159 0
h 1037 -2157 0
h 2160 -2161 -2158 0
h -2160 2161 0
h -2160 2158 0
h -1040 2162 2160 0
h 1040 -2162 0
h 1040 -2160 0
h 2163 -2155 -2161 0
h -2163 2155 0
h -2163 2161 0
h -1038 2164 2163 0
h 1038 -2164 0
h 1038 -2163 0
h 2165 -2155 -2155 0
h -2165 2155 0
h -2165 2155 0
h -2166 2167 2165 0
h 2166 -2167 0
h 2166 -2165 0
h 2168 -2169 -2169 0
h -2168 2169 0
h -2168 2169 0
h -2170 2171 2168 0
h 2170 -2171 0
h 2170 -2168 0
h 2172 -2169 -2012 0
h -2172 2169 0
h -2172 2012 0
h -1144 2173 2172 0
h 1144 -2173 0
h 1144 -2172 0
h 2174 -2169 -2010 0
h -2174 2169 0
h -2174 2010 0
h -1142 2175 2174 0
h 1142 -2175 0
h 1142 -2174 0
h 2176 -2009 -2010 0
h -2176 2009 0
h -2176 2010 0
h -1145 2006 2176 0
h 1145 -2006 0
h 1145 -2176 0
h 2177 -2012 -2009 0
h -2177 2012 0
h -2177 2009 0
h -1143 2003 2177 0
h 1143 -2003 0
h 1143 -2177 0
h 2178 -2012 -2012 0
h -2178 2012 0
h -2178 2012 0
h -2179 2015 2178 0
h 2179 -2015 0
h 2179 -2178 0
h 2180 -1684 -1684 0
h -2180 1684 0
h -2180 1684 0
h -2181 1664 2180 0
h 2181 -1664 0
h 2181 -2180 0
h 2182 -1684 -1692 0
h -2182 1684 0
h -2182 1692 0
h -544 1668 2182 0
h 544 -1668 0
h 544 -2182 0
h 2183 -1684 -1687 0
h -2183 1684 0
h -2183 1687 0
h -542 1675 2183 0
h 542 -1675 0
h 542 -2183 0
h 2184 -1682 -1687 0
h -2184 1682 0
h -2184 1687 0
h -545 1677 2184 0
h 545 -1677 0
h 545 -2184 0
h 2185 -1692 -1682 0
h -2185 1692 0
h -2185 1682 0
h -543 1671 2185 0
h 543 -1671 0
h 543 -2185 0
h 2186 -1692 -1692 0
h -2186 1692 0
h -2186 1692 0
h -2187 1698 2186 0
h 2187 -1698 0
h 2187 -2186 0
h 2188 -1942 -1918 0
h -2188 1942 0
h -2188 1918 0
h 1919 -1918 -1918 0
h -1919 1918 0
h -1919 1918 0
h 2189 -1918 -1942 0
h -2189 1918 0
h -2189 1942 0
h 2190 -1942 -1942 -1924 0
h -2190 1942 0
h -2190 1942 0
h -2190 1924 0
h -2191 1922 2188 1919 2189 2190 0
h 2191 -1922 0
h 2191 -2188 0
h 2191 -1919 0
h 2191 -2189 0
h 2191 -2190 0
h 2192 -1942 -1931 0
h -2192 1942 0
h -2192 1931 0
h 2193 -1918 -1931 0
h -2193 1918 0
h -2193 1931 0
h 2194 -1918 -1950 0
h -2194 1918 0
h -2194 1950 0
h 2195 -1942 -1950 -1924 0
h -2195 1942 0
h -2195 1950 0
h -2195 1924 0
h -569 1926 2192 2193 2194 2195 0
h 569 -1926 0
h 569 -2192 0
h 569 -2193 0
h 569 -2194 0
h 569 -2195 0
h 2196 -1942 -1938 0
h -2196 1942 0
h -2196 1938 0
h 2197 -1918 -1945 0
h -2197 1918 0
h -2197 1945 0
h 2198 -1918 -1938 0
h -2198 1918 0
h -2198 1938 0
h 2199 -1942 -1945 -1924 0
h -2199 1942 0
h -2199 1945 0
h -2199 1924 0
h -567 1933 2196 2197 2198 2199 0
h 567 -1933 0
h 567 -2196 0
h 567 -2197 0
h 567 -2198 0
h 567 -2199 0
h 2200 -1940 -1938 0
h -2200 1940 0
h -2200 1938 0
h 2201 -1917 -1938 0
h -2201 1917 0
h -2201 1938 0
h 2202 -1917 -1945 0
h -2202 1917 0
h -2202 1945 0
h 2203 -1940 -1945 -1924 0
h -2203 1940 0
h -2203 1945 0
h -2203 1924 0
h -570 1935 2200 2201 2202 2203 0
h 570 -1935 0
h 570 -2200 0
h 570 -2201 0
h 570 -2202 0
h 570 -2203 0
h 2204 -1950 -1917 0
h -2204 1950 0
h -2204 1917 0
h 2205 -1931 -1940 0
h -2205 1931 0
h -2205 1940 0
h 2206 -1931 -1917 0
h -2206 1931 0
h -2206 1917 0
h 2207 -1950 -1940 -1924 0
h -2207 1950 0
h -2207 1940 0
h -2207 1924 0
h -568 1929 2204 2205 2206 2207 0
h 568 -1929 0
h 568 -2204 0
h 568 -2205 0
h 568 -2206 0
h 568 -2207 0
h 2208 -1950 -1931 0
h -2208 1950 0
h -2208 1931 0
h 2209 -1931 -1931 0
h -2209 1931 0
h -2209 1931 0
h 2210 -1931 -1950 0
h -2210 1931 0
h -2210 1950 0
h 2211 -1950 -1950 -1924 0
h -2211 1950 0
h -2211 1950 0
h -2211 1924 0
h -2212 1956 2208 2209 2210 2211 0
h 2212 -1956 0
h 2212 -2208 0
h 2212 -2209 0
h 2212 -2210 0
h 2212 -2211 0
h 2213 -2214 -2215 0
h -2213 2214 0
h -2213 2215 0
h 2216 -2215 -2215 0
h -2216 2215 0
h -2216 2215 0
h 2217 -2215 -2214 0
h -2217 2215 0
h -2217 2214 0
h 2218 -2214 -2214 -1858 0
h -2218 2214 0
h -2218 2214 0
h -2218 1858 0
h -2219 2220 2213 2216 2217 2218 0
h 2219 -2220 0
h 2219 -2213 0
h 2219 -2216 0
h 2219 -2217 0
h 2219 -2218 0
h 2221 -2214 -1861 0
h -2221 2214 0
h -2221 1861 0
h 2222 -2215 -1861 0
h -2222 2215 0
h -2222 1861 0
h 2223 -2215 -1869 0
h -2223 2215 0
h -2223 1869 0
h 2224 -2214 -1869 -1858 0
h -2224 2214 0
h -2224 1869 0
h -2224 1858 0
h -129 2225 2221 2222 2223 2224 0
h 129 -2225 0
h 129 -2221 0
h 129 -2222 0
h 129 -2223 0
h 129 -2224 0
h 2226 -2214 -1864 0
h -2226 2214 0
h -2226 1864 0
h 2227 -2215 -1867 0
h -2227 2215 0
h -2227 1867 0
h 2228 -2215 -1864 0
h -2228 2215 0
h -2228 1864 0
h 2229 -2214 -1867 -1858 0
h -2229 2214 0
h -2229 1867 0
h -2229 1858 0
h -127 2230 2226 2227 2228 2229 0
h 127 -2230 0
h 127 -2226 0
h 127 -2227 0
h 127 -2228 0
h 127 -2229 0
h 2231 -1866 -1864 0
h -2231 1866 0
h -2231 1864 0
h 2232 -1856 -1864 0
h -2232 1856 0
h -2232 1864 0
h 2233 -1856 -1867 0
h -2233 1856 0
h -2233 1867 0
h 2234 -1866 -1867 -1858 0
h -2234 1866 0
h -2234 1867 0
h -2234 1858 0
h -130 1863 2231 2232 2233 2234 0
h 130 -1863 0
h 130 -2231 0
h 130 -2232 0
h 130 -2233 0
h 130 -2234 0
h 2235 -1869 -1856 0
h -2235 1869 0
h -2235 1856 0
h 2236 -1861 -1866 0
h -2236 1861 0
h -2236 1866 0
h 2237 -1861 -1856 0
h -2237 1861 0
h -2237 1856 0
h 2238 -1869 -1866 -1858 0
h -2238 1869 0
h -2238 1866 0
h -2238 1858 0
h -128 1860 2235 2236 2237 2238 0
h 128 -1860 0
h 128 -2235 0
h 128 -2236 0
h 128 -2237 0
h 128 -2238 0
h 2239 -1869 -1861 0
h -2239 1869 0
h -2239 1861 0
h 2240 -1861 -1861 0
h -2240 1861 0
h -2240 1861 0
h 2241 -1861 -1869 0
h -2241 1861 0
h -2241 1869 0
h 2242 -1869 -1869 -1858 0
h -2242 1869 0
h -2242 1869 0
h -2242 1858 0
h -2243 1872 2239 2240 2241 2242 0
h 2243 -1872 0
h 2243 -2239 0
h 2243 -2240 0
h 2243 -2241 0
h 2243 -2242 0
h 2244 -2245 -2245 0
h -2244 2245 0
h -2244 2245 0
h -2246 2247 2244 0
h 2246 -2247 0
h 2246 -2244 0
h 2248 -2245 -2249 0
h -2248 2245 0
h -2248 2249 0
h -1059 2250 2248 0
h 1059 -2250 0
h 1059 -2248 0
h 2251 -2245 -2252 0
h -2251 2245 0
h -2251 2252 0
h -1057 2253 2251 0
h 1057 -2253 0
h 1057 -2251 0
h 2254 -2255 -2252 0
h -2254 2255 0
h -2254 2252 0
h -1060 2256 2254 0
h 1060 -2256 0
h 1060 -2254 0
h 2257 -2249 -2255 0
h -2257 2249 0
h -2257 2255 0
h -1058 2258 2257 0
h 1058 -2258 0
h 1058 -2257 0
h 2259 -2249 -2249 0
h -2259 2249 0
h -2259 2249 0
h -2260 2261 2259 0
h 2260 -2261 0
h 2260 -2259 0
h 2262 -2151 -2263 0
h -2262 2151 0
h -2262 2263 0
h 2264 -2263 -2263 0
h -2264 2263 0
h -2264 2263 0
h 2265 -2263 -2151 0
h -2265 2263 0
h -2265 2151 0
h 2266 -2151 -2151 -2267 0
h -2266 2151 0
h -2266 2151 0
h -2266 2267 0
h -2268 2153 2262 2264 2265 2266 0
h 2268 -2153 0
h 2268 -2262 0
h 2268 -2264 0
h 2268 -2265 0
h 2268 -2266 0
h 2269 -2151 -2270 0
h -2269 2151 0
h -2269 2270 0
h 2271 -2263 -2270 0
h -2271 2263 0
h -2271 2270 0
h 2272 -2263 -2155 0
h -2272 2263 0
h -2272 2155 0
h 2273 -2151 -2155 -2267 0
h -2273 2151 0
h -2273 2155 0
h -2273 2267 0
h -704 2156 2269 2271 2272 2273 0
h 704 -2156 0
h 704 -2269 0
h 704 -2271 0
h 704 -2272 0
h 704 -2273 0
h 2274 -2151 -2275 0
h -2274 2151 0
h -2274 2275 0
h 2276 -2263 -2158 0
h -2276 2263 0
h -2276 2158 0
h 2277 -2263 -2275 0
h -2277 2263 0
h -2277 2275 0
h 2278 -2151 -2158 -2267 0
h -2278 2151 0
h -2278 2158 0
h -2278 2267 0
h -702 2159 2274 2276 2277 2278 0
h 702 -2159 0
h 702 -2274 0
h 702 -2276 0
h 702 -2277 0
h 702 -2278 0
h 2279 -2161 -2275 0
h -2279 2161 0
h -2279 2275 0
h 2280 -2281 -2275 0
h -2280 2281 0
h -2280 2275 0
h 2282 -2281 -2158 0
h -2282 2281 0
h -2282 2158 0
h 2283 -2161 -2158 -2267 0
h -2283 2161 0
h -2283 2158 0
h -2283 2267 0
h -705 2162 2279 2280 2282 2283 0
h 705 -2162 0
h 705 -2279 0
h 705 -2280 0
h 705 -2282 0
h 705 -2283 0
h 2284 -2155 -2281 0
h -2284 2155 0
h -2284 2281 0
h 2285 -2270 -2161 0
h -2285 2270 0
h -2285 2161 0
h 2286 -2270 -2281 0
h -2286 2270 0
h -2286 2281 0
h 2287 -2155 -2161 -2267 0
h -2287 2155 0
h -2287 2161 0
h -2287 2267 0
h -703 2164 2284 2285 2286 2287 0
h 703 -2164 0
h 703 -2284 0
h 703 -2285 0
h 703 -2286 0
h 703 -2287 0
h 2288 -2155 -2270 0
h -2288 2155 0
h -2288 2270 0
h 2289 -2270 -2270 0
h -2289 2270 0
h -2289 2270 0
h 2290 -2270 -2155 0
h -2290 2270 0
h -2290 2155 0
h 2291 -2155 -2155 -2267 0
h -2291 2155 0
h -2291 2155 0
h -2291 2267 0
h -2292 2167 2288 2289 2290 2291 0
h 2292 -2167 0
h 2292 -2288 0
h 2292 -2289 0
h 2292 -2290 0
h 2292 -2291 0
h 2293 -2294 -2295 0
h -2293 2294 0
h -2293 2295 0
h 2296 -2295 -2295 0
h -2296 2295 0
h -2296 2295 0
h 2297 -2295 -2294 0
h -2297 2295 0
h -2297 2294 0
h 2298 -2294 -2294 -2299 0
h -2298 2294 0
h -2298 2294 0
h -2298 2299 0
h -2300 2301 2293 2296 2297 2298 0
h 2300 -2301 0
h 2300 -2293 0
h 2300 -2296 0
h 2300 -2297 0
h 2300 -2298 0
h 2302 -2294 -2303 0
h -2302 2294 0
h -2302 2303 0
h 2304 -2295 -2303 0
h -2304 2295 0
h -2304 2303 0
h 2305 -2295 -2306 0
h -2305 2295 0
h -2305 2306 0
h 2307 -2294 -2306 -2299 0
h -2307 2294 0
h -2307 2306 0
h -2307 2299 0
h -509 2308 2302 2304 2305 2307 0
h 509 -2308 0
h 509 -2302 0
h 509 -2304 0
h 509 -2305 0
h 509 -2307 0
h 2309 -2294 -2310 0
h -2309 2294 0
h -2309 2310 0
h 2311 -2295 -2312 0
h -2311 2295 0
h -2311 2312 0
h 2313 -2295 -2310 0
h -2313 2295 0
h -2313 2310 0
h 2314 -2294 -2312 -2299 0
h -2314 2294 0
h -2314 2312 0
h -2314 2299 0
h -507 2315 2309 2311 2313 2314 0
h 507 -2315 0
h 507 -2309 0
h 507 -2311 0
h 507 -2313 0
h 507 -2314 0
h 2316 -2317 -2310 0
h -2316 2317 0
h -2316 2310 0
h 2318 -2319 -2310 0
h -2318 2319 0
h -2318 2310 0
h 2320 -2319 -2312 0
h -2320 2319 0
h -2320 2312 0
h 2321 -2317 -2312 -2299 0
h -2321 2317 0
h -2321 2312 0
h -2321 2299 0
h -510 2322 2316 2318 2320 2321 0
h 510 -2322 0
h 510 -2316 0
h 510 -2318 0
h 510 -2320 0
h 510 -2321 0
h 2323 -2306 -2319 0
h -2323 2306 0
h -2323 2319 0
h 2324 -2303 -2317 0
h -2324 2303 0
h -2324 2317 0
h 2325 -2303 -2319 0
h -2325 2303 0
h -2325 2319 0
h 2326 -2306 -2317 -2299 0
h -2326 2306 0
h -2326 2317 0
h -2326 2299 0
h -508 2327 2323 2324 2325 2326 0
h 508 -2327 0
h 508 -2323 0
h 508 -2324 0
h 508 -2325 0
h 508 -2326 0
h 2328 -2306 -2303 0
h -2328 2306 0
h -2328 2303 0
h 2329 -2303 -2303 0
h -2329 2303 0
h -2329 2303 0
h 2330 -2303 -2306 0
h -2330 2303 0
h -2330 2306 0
h 2331 -2306 -2306 -2299 0
h -2331 2306 0
h -2331 2306 0
h -2331 2299 0
h -2332 2333 2328 2329 2330 2331 0
h 2332 -2333 0
h 2332 -2328 0
h 2332 -2329 0
h 2332 -2330 0
h 2332 -2331 0
h 2334 -2335 -2335 0
h -2334 2335 0
h -2334 2335 0
h -2336 2337 2334 0
h 2336 -2337 0
h 2336 -2334 0
h 2338 -2335 -2339 0
h -2338 2335 0
h -2338 2339 0
h -239 2340 2338 0
h 239 -2340 0
h 239 -2338 0
h 2341 -2335 -2342 0
h -2341 2335 0
h -2341 2342 0
h -237 2343 2341 0
h 237 -2343 0
h 237 -2341 0
h 2344 -2345 -2342 0
h -2344 2345 0
h -2344 2342 0
h -240 2346 2344 0
h 240 -2346 0
h 240 -2344 0
h 2347 -2339 -2345 0
h -2347 2339 0
h -2347 2345 0
h -238 2348 2347 0
h 238 -2348 0
h 238 -2347 0
h 2349 -2339 -2339 0
h -2349 2339 0
h -2349 2339 0
h -2350 2351 2349 0
h 2350 -2351 0
h 2350 -2349 0
h 2352 -1899 -2353 0
h -2352 1899 0
h -2352 2353 0
h 2354 -2353 -2353 0
h -2354 2353 0
h -2354 2353 0
h 2355 -2353 -1899 0
h -2355 2353 0
h -2355 1899 0
h 2356 -1899 -1899 -2357 0
h -2356 1899 0
h -2356 1899 0
h -2356 2357 0
h -2358 1901 2352 2354 2355 2356 0
h 2358 -1901 0
h 2358 -2352 0
h 2358 -2354 0
h 2358 -2355 0
h 2358 -2356 0
h 2359 -1899 -2360 0
h -2359 1899 0
h -2359 2360 0
h 2361 -2353 -2360 0
h -2361 2353 0
h -2361 2360 0
h 2362 -2353 -1903 0
h -2362 2353 0
h -2362 1903 0
h 2363 -1899 -1903 -2357 0
h -2363 1899 0
h -2363 1903 0
h -2363 2357 0
h -59 1904 2359 2361 2362 2363 0
h 59 -1904 0
h 59 -2359 0
h 59 -2361 0
h 59 -2362 0
h 59 -2363 0
h 2364 -1899 -2365 0
h -2364 1899 0
h -2364 2365 0
h 2366 -2353 -1906 0
h -2366 2353 0
h -2366 1906 0
h 2367 -2353 -2365 0
h -2367 2353 0
h -2367 2365 0
h 2368 -1899 -1906 -2357 0
h -2368 1899 0
h -2368 1906 0
h -2368 2357 0
h -57 1907 2364 2366 2367 2368 0
h 57 -1907 0
h 57 -2364 0
h 57 -2366 0
h 57 -2367 0
h 57 -2368 0
h 2369 -1909 -2365 0
h -2369 1909 0
h -2369 2365 0
h 2370 -2371 -2365 0
h -2370 2371 0
h -2370 2365 0
h 2372 -2371 -1906 0
h -2372 2371 0
h -2372 1906 0
h 2373 -1909 -1906 -2357 0
h -2373 1909 0
h -2373 1906 0
h -2373 2357 0
h -60 1910 2369 2370 2372 2373 0
h 60 -1910 0
h 60 -2369 0
h 60 -2370 0
h 60 -2372 0
h 60 -2373 0
h 2374 -1903 -2371 0
h -2374 1903 0
h -2374 2371 0
h 2375 -2360 -1909 0
h -2375 2360 0
h -2375 1909 0
h 2376 -2360 -2371 0
h -2376 2360 0
h -2376 2371 0
h 2377 -1903 -1909 -2357 0
h -2377 1903 0
h -2377 1909 0
h -2377 2357 0
h -58 1912 2374 2375 2376 2377 0
h 58 -1912 0
h 58 -2374 0
h 58 -2375 0
h 58 -2376 0
h 58 -2377 0
h 2378 -1903 -2360 0
h -2378 1903 0
h -2378 2360 0
h 2379 -2360 -2360 0
h -2379 2360 0
h -2379 2360 0
h 2380 -2360 -1903 0
h -2380 2360 0
h -2380 1903 0
h 2381 -1903 -1903 -2357 0
h -2381 1903 0
h -2381 1903 0
h -2381 2357 0
h -2382 1915 2378 2379 2380 2381 0
h 2382 -1915 0
h 2382 -2378 0
h 2382 -2379 0
h 2382 -2380 0
h 2382 -2381 0
h 2383 -2384 -2384 0
h -2383 2384 0
h -2383 2384 0
h -2385 2386 2383 0
h 2385 -2386 0
h 2385 -2383 0
h 2387 -2384 -2388 0
h -2387 2384 0
h -2387 2388 0
h -854 2389 2387 0
h 854 -2389 0
h 854 -2387 0
h 2390 -2384 -2391 0
h -2390 2384 0
h -2390 2391 0
h -852 2392 2390 0
h 852 -2392 0
h 852 -2390 0
h 2393 -2394 -2391 0
h -2393 2394 0
h -2393 2391 0
h -855 2395 2393 0
h 855 -2395 0
h 855 -2393 0
h 2396 -2388 -2394 0
h -2396 2388 0
h -2396 2394 0
h -853 2397 2396 0
h 853 -2397 0
h 853 -2396 0
h 2398 -2388 -2388 0
h -2398 2388 0
h -2398 2388 0
h -2399 2400 2398 0
h 2399 -2400 0
h 2399 -2398 0
h 2401 -1289 -1265 0
h -2401 1289 0
h -2401 1265 0
h 1266 -1265 -1265 0
h -1266 1265 0
h -1266 1265 0
h 2402 -1265 -1289 0
h -2402 1265 0
h -2402 1289 0
h 2403 -1289 -1289 -1271 0
h -2403 1289 0
h -2403 1289 0
h -2403 1271 0
h -2404 1269 2401 1266 2402 2403 0
h 2404 -1269 0
h 2404 -2401 0
h 2404 -1266 0
h 2404 -2402 0
h 2404 -2403 0
h 2405 -1289 -1278 0
h -2405 1289 0
h -2405 1278 0
h 2406 -1265 -1278 0
h -2406 1265 0
h -2406 1278 0
h 2407 -1265 -1297 0
h -2407 1265 0
h -2407 1297 0
h 2408 -1289 -1297 -1271 0
h -2408 1289 0
h -2408 1297 0
h -2408 1271 0
h -224 1273 2405 2406 2407 2408 0
h 224 -1273 0
h 224 -2405 0
h 224 -2406 0
h 224 -2407 0
h 224 -2408 0
h 2409 -1289 -1285 0
h -2409 1289 0
h -2409 1285 0
h 2410 -1265 -1292 0
h -2410 1265 0
h -2410 1292 0
h 2411 -1265 -1285 0
h -2411 1265 0
h -2411 1285 0
h 2412 -1289 -1292 -1271 0
h -2412 1289 0
h -2412 1292 0
h -2412 1271 0
h -222 1280 2409 2410 2411 2412 0
h 222 -1280 0
h 222 -2409 0
h 222 -2410 0
h 222 -2411 0
h 222 -2412 0
h 2413 -1287 -1285 0
h -2413 1287 0
h -2413 1285 0
h 2414 -1264 -1285 0
h -2414 1264 0
h -2414 1285 0
h 2415 -1264 -1292 0
h -2415 1264 0
h -2415 1292 0
h 2416 -1287 -1292 -1271 0
h -2416 1287 0
h -2416 1292 0
h -2416 1271 0
h -225 1282 2413 2414 2415 2416 0
h 225 -1282 0
h 225 -2413 0
h 225 -2414 0
h 225 -2415 0
h 225 -2416 0
h 2417 -1297 -1264 0
h -2417 1297 0
h -2417 1264 0
h 2418 -1278 -1287 0
h -2418 1278 0
h -2418 1287 0
h 2419 -1278 -1264 0
h -2419 1278 0
h -2419 1264 0
h 2420 -1297 -1287 -1271 0
h -2420 1297 0
h -2420 1287 0
h -2420 1271 0
h -223 1276 2417 2418 2419 2420 0
h 223 -1276 0
h 223 -2417 0
h 223 -2418 0
h 223 -2419 0
h 223 -2420 0
h 2421 -1297 -1278 0
h -2421 1297 0
h -2421 1278 0
h 2422 -1278 -1278 0
h -2422 1278 0
h -2422 1278 0
h 2423 -1278 -1297 0
h -2423 1278 0
h -2423 1297 0
h 2424 -1297 -1297 -1271 0
h -2424 1297 0
h -2424 1297 0
h -2424 1271 0
h -2425 1303 2421 2422 2423 2424 0
h 2425 -1303 0
h 2425 -2421 0
h 2425 -2422 0
h 2425 -2423 0
h 2425 -2424 0
h 2426 -2427 -2428 0
h -2426 2427 0
h -2426 2428 0
h 2429 -2428 -2428 0
h -2429 2428 0
h -2429 2428 0
h 2430 -2428 -2427 0
h -2430 2428 0
h -2430 2427 0
h 2431 -2427 -2427 -2432 0
h -2431 2427 0
h -2431 2427 0
h -2431 2432 0
h -2433 2434 2426 2429 2430 2431 0
h 2433 -2434 0
h 2433 -2426 0
h 2433 -2429 0
h 2433 -2430 0
h 2433 -2431 0
h 2435 -2427 -2436 0
h -2435 2427 0
h -2435 2436 0
h 2437 -2428 -2436 0
h -2437 2428 0
h -2437 2436 0
h 2438 -2428 -2439 0
h -2438 2428 0
h -2438 2439 0
h 2440 -2427 -2439 -2432 0
h -2440 2427 0
h -2440 2439 0
h -2440 2432 0
h -39 2441 2435 2437 2438 2440 0
h 39 -2441 0
h 39 -2435 0
h 39 -2437 0
h 39 -2438 0
h 39 -2440 0
h 2442 -2427 -2443 0
h -2442 2427 0
h -2442 2443 0
h 2444 -2428 -2445 0
h -2444 2428 0
h -2444 2445 0
h 2446 -2428 -2443 0
h -2446 2428 0
h -2446 2443 0
h 2447 -2427 -2445 -2432 0
h -2447 2427 0
h -2447 2445 0
h -2447 2432 0
h -37 2448 2442 2444 2446 2447 0
h 37 -2448 0
h 37 -2442 0
h 37 -2444 0
h 37 -2446 0
h 37 -2447 0
h 2449 -2450 -2443 0
h -2449 2450 0
h -2449 2443 0
h 2451 -2452 -2443 0
h -2451 2452 0
h -2451 2443 0
h 2453 -2452 -2445 0
h -2453 2452 0
h -2453 2445 0
h 2454 -2450 -2445 -2432 0
h -2454 2450 0
h -2454 2445 0
h -2454 2432 0
h -40 2455 2449 2451 2453 2454 0
h 40 -2455 0
h 40 -2449 0
h 40 -2451 0
h 40 -2453 0
h 40 -2454 0
h 2456 -2439 -2452 0
h -2456 2439 0
h -2456 2452 0
h 2457 -2436 -2450 0
h -2457 2436 0
h -2457 2450 0
h 2458 -2436 -2452 0
h -2458 2436 0
h -2458 2452 0
h 2459 -2439 -2450 -2432 0
h -2459 2439 0
h -2459 2450 0
h -2459 2432 0
h -38 2460 2456 2457 2458 2459 0
h 38 -2460 0
h 38 -2456 0
h 38 -2457 0
h 38 -2458 0
h 38 -2459 0
h 2461 -2439 -2436 0
h -2461 2439 0
h -2461 2436 0
h 2462 -2436 -2436 0
h -2462 2436 0
h -2462 2436 0
h 2463 -2436 -2439 0
h -2463 2436 0
h -2463 2439 0
h 2464 -2439 -2439 -2432 0
h -2464 2439 0
h -2464 2439 0
h -2464 2432 0
h -2465 2466 2461 2462 2463 2464 0
h 2465 -2466 0
h 2465 -2461 0
h 2465 -2462 0
h 2465 -2463 0
h 2465 -2464 0
h 2467 -2335 -2468 0
h -2467 2335 0
h -2467 2468 0
h 2469 -2468 -2468 0
h -2469 2468 0
h -2469 2468 0
h 2470 -2468 -2335 0
h -2470 2468 0
h -2470 2335 0
h 2471 -2335 -2335 -2472 0
h -2471 2335 0
h -2471 2335 0
h -2471 2472 0
h -2473 2337 2467 2469 2470 2471 0
h 2473 -2337 0
h 2473 -2467 0
h 2473 -2469 0
h 2473 -2470 0
h 2473 -2471 0
h 2474 -2335 -2475 0
h -2474 2335 0
h -2474 2475 0
h 2476 -2468 -2475 0
h -2476 2468 0
h -2476 2475 0
h 2477 -2468 -2339 0
h -2477 2468 0
h -2477 2339 0
h 2478 -2335 -2339 -2472 0
h -2478 2335 0
h -2478 2339 0
h -2478 2472 0
h -44 2340 2474 2476 2477 2478 0
h 44 -2340 0
h 44 -2474 0
h 44 -2476 0
h 44 -2477 0
h 44 -2478 0
h 2479 -2335 -2480 0
h -2479 2335 0
h -2479 2480 0
h 2481 -2468 -2342 0
h -2481 2468 0
h -2481 2342 0
h 2482 -2468 -2480 0
h -2482 2468 0
h -2482 2480 0
h 2483 -2335 -2342 -2472 0
h -2483 2335 0
h -2483 2342 0
h -2483 2472 0
h -42 2343 2479 2481 2482 2483 0
h 42 -2343 0
h 42 -2479 0
h 42 -2481 0
h 42 -2482 0
h 42 -2483 0
h 2484 -2345 -2480 0
h -2484 2345 0
h -2484 2480 0
h 2485 -2486 -2480 0
h -2485 2486 0
h -2485 2480 0
h 2487 -2486 -2342 0
h -2487 2486 0
h -2487 2342 0
h 2488 -2345 -2342 -2472 0
h -2488 2345 0
h -2488 2342 0
h -2488 2472 0
h -45 2346 2484 2485 2487 2488 0
h 45 -2346 0
h 45 -2484 0
h 45 -2485 0
h 45 -2487 0
h 45 -2488 0
h 2489 -2339 -2486 0
h -2489 2339 0
h -2489 2486 0
h 2490 -2475 -2345 0
h -2490 2475 0
h -2490 2345 0
h 2491 -2475 -2486 0
h -2491 2475 0
h -2491 2486 0
h 2492 -2339 -2345 -2472 0
h -2492 2339 0
h -2492 2345 0
h -2492 2472 0
h -43 2348 2489 2490 2491 2492 0
h 43 -2348 0
h 43 -2489 0
h 43 -2490 0
h 43 -2491 0
h 43 -2492 0
h 2493 -2339 -2475 0
h -2493 2339 0
h -2493 2475 0
h 2494 -2475 -2475 0
h -2494 2475 0
h -2494 2475 0
h 2495 -2475 -2339 0
h -2495 2475 0
h -2495 2339 0
h 2496 -2339 -2339 -2472 0
h -2496 2339 0
h -2496 2339 0
h -2496 2472 0
h -2497 2351 2493 2494 2495 2496 0
h 2497 -2351 0
h 2497 -2493 0
h 2497 -2494 0
h 2497 -2495 0
h 2497 -2496 0
h 2498 -2499 -2500 0
h -2498 2499 0
h -2498 2500 0
h 2501 -2500 -2500 0
h -2501 2500 0
h -2501 2500 0
h 2502 -2500 -2499 0
h -2502 2500 0
h -2502 2499 0
h 2503 -2499 -2499 -2504 0
h -2503 2499 0
h -2503 2499 0
h -2503 2504 0
h -2505 2506 2498 2501 2502 2503 0
h 2505 -2506 0
h 2505 -2498 0
h 2505 -2501 0
h 2505 -2502 0
h 2505 -2503 0
h 2507 -2499 -2508 0
h -2507 2499 0
h -2507 2508 0
h 2509 -2500 -2508 0
h -2509 2500 0
h -2509 2508 0
h 2510 -2500 -2511 0
h -2510 2500 0
h -2510 2511 0
h 2512 -2499 -2511 -2504 0
h -2512 2499 0
h -2512 2511 0
h -2512 2504 0
h -64 2513 2507 2509 2510 2512 0
h 64 -2513 0
h 64 -2507 0
h 64 -2509 0
h 64 -2510 0
h 64 -2512 0
h 2514 -2499 -2515 0
h -2514 2499 0
h -2514 2515 0
h 2516 -2500 -2517 0
h -2516 2500 0
h -2516 2517 0
h 2518 -2500 -2515 0
h -2518 2500 0
h -2518 2515 0
h 2519 -2499 -2517 -2504 0
h -2519 2499 0
h -2519 2517 0
h -2519 2504 0
h -62 2520 2514 2516 2518 2519 0
h 62 -2520 0
h 62 -2514 0
h 62 -2516 0
h 62 -2518 0
h 62 -2519 0
h 2521 -2522 -2515 0
h -2521 2522 0
h -2521 2515 0
h 2523 -2524 -2515 0
h -2523 2524 0
h -2523 2515 0
h 2525 -2524 -2517 0
h -2525 2524 0
h -2525 2517 0
h 2526 -2522 -2517 -2504 0
h -2526 2522 0
h -2526 2517 0
h -2526 2504 0
h -65 2527 2521 2523 2525 2526 0
h 65 -2527 0
h 65 -2521 0
h 65 -2523 0
h 65 -2525 0
h 65 -2526 0
h 2528 -2511 -2524 0
h -2528 2511 0
h -2528 2524 0
h 2529 -2508 -2522 0
h -2529 2508 0
h -2529 2522 0
h 2530 -2508 -2524 0
h -2530 2508 0
h -2530 2524 0
h 2531 -2511 -2522 -2504 0
h -2531 2511 0
h -2531 2522 0
h -2531 2504 0
h -63 2532 2528 2529 2530 2531 0
h 63 -2532 0
h 63 -2528 0
h 63 -2529 0
h 63 -2530 0
h 63 -2531 0
h 2533 -2511 -2508 0
h -2533 2511 0
h -2533 2508 0
h 2534 -2508 -2508 0
h -2534 2508 0
h -2534 2508 0
h 2535 -2508 -2511 0
h -2535 2508 0
h -2535 2511 0
h 2536 -2511 -2511 -2504 0
h -2536 2511 0
h -2536 2511 0
h -2536 2504 0
h -2537 2538 2533 2534 2535 2536 0
h 2537 -2538 0
h 2537 -2533 0
h 2537 -2534 0
h 2537 -2535 0
h 2537 -2536 0
h 2539 -2540 -2541 0
h -2539 2540 0
h -2539 2541 0
h 2542 -2541 -2541 0
h -2542 2541 0
h -2542 2541 0
h 2543 -2541 -2540 0
h -2543 2541 0
h -2543 2540 0
h 2544 -2540 -2540 -2545 0
h -2544 2540 0
h -2544 2540 0
h -2544 2545 0
h -2546 2547 2539 2542 2543 2544 0
h 2546 -2547 0
h 2546 -2539 0
h 2546 -2542 0
h 2546 -2543 0
h 2546 -2544 0
h 2548 -2540 -2549 0
h -2548 2540 0
h -2548 2549 0
h 2550 -2541 -2549 0
h -2550 2541 0
h -2550 2549 0
h 2551 -2541 -2552 0
h -2551 2541 0
h -2551 2552 0
h 2553 -2540 -2552 -2545 0
h -2553 2540 0
h -2553 2552 0
h -2553 2545 0
h -964 2554 2548 2550 2551 2553 0
h 964 -2554 0
h 964 -2548 0
h 964 -2550 0
h 964 -2551 0
h 964 -2553 0
h 2555 -2540 -2556 0
h -2555 2540 0
h -2555 2556 0
h 2557 -2541 -2558 0
h -2557 2541 0
h -2557 2558 0
h 2559 -2541 -2556 0
h -2559 2541 0
h -2559 2556 0
h 2560 -2540 -2558 -2545 0
h -2560 2540 0
h -2560 2558 0
h -2560 2545 0
h -962 2561 2555 2557 2559 2560 0
h 962 -2561 0
h 962 -2555 0
h 962 -2557 0
h 962 -2559 0
h 962 -2560 0
h 2562 -2563 -2556 0
h -2562 2563 0
h -2562 2556 0
h 2564 -2565 -2556 0
h -2564 2565 0
h -2564 2556 0
h 2566 -2565 -2558 0
h -2566 2565 0
h -2566 2558 0
h 2567 -2563 -2558 -2545 0
h -2567 2563 0
h -2567 2558 0
h -2567 2545 0
h -965 2568 2562 2564 2566 2567 0
h 965 -2568 0
h 965 -2562 0
h 965 -2564 0
h 965 -2566 0
h 965 -2567 0
h 2569 -2552 -2565 0
h -2569 2552 0
h -2569 2565 0
h 2570 -2549 -2563 0
h -2570 2549 0
h -2570 2563 0
h 2571 -2549 -2565 0
h -2571 2549 0
h -2571 2565 0
h 2572 -2552 -2563 -2545 0
h -2572 2552 0
h -2572 2563 0
h -2572 2545 0
h -963 2573 2569 2570 2571 2572 0
h 963 -2573 0
h 963 -2569 0
h 963 -2570 0
h 963 -2571 0
h 963 -2572 0
h 2574 -2552 -2549 0
h -2574 2552 0
h -2574 2549 0
h 2575 -2549 -2549 0
h -2575 2549 0
h -2575 2549 0
h 2576 -2549 -2552 0
h -2576 2549 0
h -2576 2552 0
h 2577 -2552 -2552 -2545 0
h -2577 2552 0
h -2577 2552 0
h -2577 2545 0
h -2578 2579 2574 2575 2576 2577 0
h 2578 -2579 0
h 2578 -2574 0
h 2578 -2575 0
h 2578 -2576 0
h 2578 -2577 0
h 2580 -2581 -2582 0
h -2580 2581 0
h -2580 2582 0
h 2583 -2582 -2582 0
h -2583 2582 0
h -2583 2582 0
h 2584 -2582 -2581 0
h -2584 2582 0
h -2584 2581 0
h 2585 -2581 -2581 -2586 0
h -2585 2581 0
h -2585 2581 0
h -2585 2586 0
h -2587 2588 2580 2583 2584 2585 0
h 2587 -2588 0
h 2587 -2580 0
h 2587 -2583 0
h 2587 -2584 0
h 2587 -2585 0
h 2589 -2581 -2590 0
h -2589 2581 0
h -2589 2590 0
h 2591 -2582 -2590 0
h -2591 2582 0
h -2591 2590 0
h 2592 -2582 -2593 0
h -2592 2582 0
h -2592 2593 0
h 2594 -2581 -2593 -2586 0
h -2594 2581 0
h -2594 2593 0
h -2594 2586 0
h -204 2595 2589 2591 2592 2594 0
h 204 -2595 0
h 204 -2589 0
h 204 -2591 0
h 204 -2592 0
h 204 -2594 0
h 2596 -2581 -2597 0
h -2596 2581 0
h -2596 2597 0
h 2598 -2582 -2599 0
h -2598 2582 0
h -2598 2599 0
h 2600 -2582 -2597 0
h -2600 2582 0
h -2600 2597 0
h 2601 -2581 -2599 -2586 0
h -2601 2581 0
h -2601 2599 0
h -2601 2586 0
h -202 2602 2596 2598 2600 2601 0
h 202 -2602 0
h 202 -2596 0
h 202 -2598 0
h 202 -2600 0
h 202 -2601 0
h 2603 -2604 -2597 0
h -2603 2604 0
h -2603 2597 0
h 2605 -2606 -2597 0
h -2605 2606 0
h -2605 2597 0
h 2607 -2606 -2599 0
h -2607 2606 0
h -2607 2599 0
h 2608 -2604 -2599 -2586 0
h -2608 2604 0
h -2608 2599 0
h -2608 2586 0
h -205 2609 2603 2605 2607 2608 0
h 205 -2609 0
h 205 -2603 0
h 205 -2605 0
h 205 -2607 0
h 205 -2608 0
h 2610 -2593 -2606 0
h -2610 2593 0
h -2610 2606 0
h 2611 -2590 -2604 0
h -2611 2590 0
h -2611 2604 0
h 2612 -2590 -2606 0
h -2612 2590 0
h -2612 2606 0
h 2613 -2593 -2604 -2586 0
h -2613 2593 0
h -2613 2604 0
h -2613 2586 0
h -203 2614 2610 2611 2612 2613 0
h 203 -2614 0
h 203 -2610 0
h 203 -2611 0
h 203 -2612 0
h 203 -2613 0
h 2615 -2593 -2590 0
h -2615 2593 0
h -2615 2590 0
h 2616 -2590 -2590 0
h -2616 2590 0
h -2616 2590 0
h 2617 -2590 -2593 0
h -2617 2590 0
h -2617 2593 0
h 2618 -2593 -2593 -2586 0
h -2618 2593 0
h -2618 2593 0
h -2618 2586 0
h -2619 2620 2615 2616 2617 2618 0
h 2619 -2620 0
h 2619 -2615 0
h 2619 -2616 0
h 2619 -2617 0
h 2619 -2618 0
h 2621 -2622 -2622 0
h -2621 2622 0
h -2621 2622 0
h -2623 2624 2621 0
h 2623 -2624 0
h 2623 -2621 0
h 2625 -2622 -2626 0
h -2625 2622 0
h -2625 2626 0
h -1134 2627 2625 0
h 1134 -2627 0
h 1134 -2625 0
h 2628 -2622 -2629 0
h -2628 2622 0
h -2628 2629 0
h -1132 2630 2628 0
h 1132 -2630 0
h 1132 -2628 0
h 2631 -2632 -2629 0
h -2631 2632 0
h -2631 2629 0
h -1135 2633 2631 0
h 1135 -2633 0
h 1135 -2631 0
h 2634 -2626 -2632 0
h -2634 2626 0
h -2634 2632 0
h -1133 2635 2634 0
h 1133 -2635 0
h 1133 -2634 0
h 2636 -2626 -2626 0
h -2636 2626 0
h -2636 2626 0
h -2637 2638 2636 0
h 2637 -2638 0
h 2637 -2636 0
h 2639 -2640 -2641 0
h -2639 2640 0
h -2639 2641 0
h 2642 -2641 -2641 0
h -2642 2641 0
h -2642 2641 0
h 2643 -2641 -2640 0
h -2643 2641 0
h -2643 2640 0
h 2644 -2640 -2640 -2645 0
h -2644 2640 0
h -2644 2640 0
h -2644 2645 0
h -2646 2647 2639 2642 2643 2644 0
h 2646 -2647 0
h 2646 -2639 0
h 2646 -2642 0
h 2646 -2643 0
h 2646 -2644 0
h 2648 -2640 -2649 0
h -2648 2640 0
h -2648 2649 0
h 2650 -2641 -2649 0
h -2650 2641 0
h -2650 2649 0
h 2651 -2641 -2652 0
h -2651 2641 0
h -2651 2652 0
h 2653 -2640 -2652 -2645 0
h -2653 2640 0
h -2653 2652 0
h -2653 2645 0
h -169 2654 2648 2650 2651 2653 0
h 169 -2654 0
h 169 -2648 0
h 169 -2650 0
h 169 -2651 0
h 169 -2653 0
h 2655 -2640 -2656 0
h -2655 2640 0
h -2655 2656 0
h 2657 -2641 -2658 0
h -2657 2641 0
h -2657 2658 0
h 2659 -2641 -2656 0
h -2659 2641 0
h -2659 2656 0
h 2660 -2640 -2658 -2645 0
h -2660 2640 0
h -2660 2658 0
h -2660 2645 0
h -167 2661 2655 2657 2659 2660 0
h 167 -2661 0
h 167 -2655 0
h 167 -2657 0
h 167 -2659 0
h 167 -2660 0
h 2662 -2663 -2656 0
h -2662 2663 0
h -2662 2656 0
h 2664 -2665 -2656 0
h -2664 2665 0
h -2664 2656 0
h 2666 -2665 -2658 0
h -2666 2665 0
h -2666 2658 0
h 2667 -2663 -2658 -2645 0
h -2667 2663 0
h -2667 2658 0
h -2667 2645 0
h -170 2668 2662 2664 2666 2667 0
h 170 -2668 0
h 170 -2662 0
h 170 -2664 0
h 170 -2666 0
h 170 -2667 0
h 2669 -2652 -2665 0
h -2669 2652 0
h -2669 2665 0
h 2670 -2649 -2663 0
h -2670 2649 0
h -2670 2663 0
h 2671 -2649 -2665 0
h -2671 2649 0
h -2671 2665 0
h 2672 -2652 -2663 -2645 0
h -2672 2652 0
h -2672 2663 0
h -2672 2645 0
h -168 2673 2669 2670 2671 2672 0
h 168 -2673 0
h 168 -2669 0
h 168 -2670 0
h 168 -2671 0
h 168 -2672 0
h 2674 -2652 -2649 0
h -2674 2652 0
h -2674 2649 0
h 2675 -2649 -2649 0
h -2675 2649 0
h -2675 2649 0
h 2676 -2649 -2652 0
h -2676 2649 0
h -2676 2652 0
h 2677 -2652 -2652 -2645 0
h -2677 2652 0
h -2677 2652 0
h -2677 2645 0
h -2678 2679 2674 2675 2676 2677 0
h 2678 -2679 0
h 2678 -2674 0
h 2678 -2675 0
h 2678 -2676 0
h 2678 -2677 0
h 2680 -2540 -2540 0
h -2680 2540 0
h -2680 2540 0
h -2681 2547 2680 0
h 2681 -2547 0
h 2681 -2680 0
h 2682 -2540 -2552 0
h -2682 2540 0
h -2682 2552 0
h -1159 2554 2682 0
h 1159 -2554 0
h 1159 -2682 0
h 2683 -2540 -2558 0
h -2683 2540 0
h -2683 2558 0
h -1157 2561 2683 0
h 1157 -2561 0
h 1157 -2683 0
h 2684 -2563 -2558 0
h -2684 2563 0
h -2684 2558 0
h -1160 2568 2684 0
h 1160 -2568 0
h 1160 -2684 0
h 2685 -2552 -2563 0
h -2685 2552 0
h -2685 2563 0
h -1158 2573 2685 0
h 1158 -2573 0
h 1158 -2685 0
h 2686 -2552 -2552 0
h -2686 2552 0
h -2686 2552 0
h -2687 2579 2686 0
h 2687 -2579 0
h 2687 -2686 0
h 2688 -2689 -2690 0
h -2688 2689 0
h -2688 2690 0
h 2691 -2690 -2690 0
h -2691 2690 0
h -2691 2690 0
h 2692 -2690 -2689 0
h -2692 2690 0
h -2692 2689 0
h 2693 -2689 -2689 -2694 0
h -2693 2689 0
h -2693 2689 0
h -2693 2694 0
h -2695 2696 2688 2691 2692 2693 0
h 2695 -2696 0
h 2695 -2688 0
h 2695 -2691 0
h 2695 -2692 0
h 2695 -2693 0
h 2697 -2689 -2698 0
h -2697 2689 0
h -2697 2698 0
h 2699 -2690 -2698 0
h -2699 2690 0
h -2699 2698 0
h 2700 -2690 -2701 0
h -2700 2690 0
h -2700 2701 0
h 2702 -2689 -2701 -2694 0
h -2702 2689 0
h -2702 2701 0
h -2702 2694 0
h -374 2703 2697 2699 2700 2702 0
h 374 -2703 0
h 374 -2697 0
h 374 -2699 0
h 374 -2700 0
h 374 -2702 0
h 2704 -2689 -2705 0
h -2704 2689 0
h -2704 2705 0
h 2706 -2690 -2707 0
h -2706 2690 0
h -2706 2707 0
h 2708 -2690 -2705 0
h -2708 2690 0
h -2708 2705 0
h 2709 -2689 -2707 -2694 0
h -2709 2689 0
h -2709 2707 0
h -2709 2694 0
h -372 2710 2704 2706 2708 2709 0
h 372 -2710 0
h 372 -2704 0
h 372 -2706 0
h 372 -2708 0
h 372 -2709 0
h 2711 -2712 -2705 0
h -2711 2712 0
h -2711 2705 0
h 2713 -2714 -2705 0
h -2713 2714 0
h -2713 2705 0
h 2715 -2714 -2707 0
h -2715 2714 0
h -2715 2707 0
h 2716 -2712 -2707 -2694 0
h -2716 2712 0
h -2716 2707 0
h -2716 2694 0
h -375 2717 2711 2713 2715 2716 0
h 375 -2717 0
h 375 -2711 0
h 375 -2713 0
h 375 -2715 0
h 375 -2716 0
h 2718 -2701 -2714 0
h -2718 2701 0
h -2718 2714 0
h 2719 -2698 -2712 0
h -2719 2698 0
h -2719 2712 0
h 2720 -2698 -2714 0
h -2720 2698 0
h -2720 2714 0
h 2721 -2701 -2712 -2694 0
h -2721 2701 0
h -2721 2712 0
h -2721 2694 0
h -373 2722 2718 2719 2720 2721 0
h 373 -2722 0
h 373 -2718 0
h 373 -2719 0
h 373 -2720 0
h 373 -2721 0
h 2723 -2701 -2698 0
h -2723 2701 0
h -2723 2698 0
h 2724 -2698 -2698 0
h -2724 2698 0
h -2724 2698 0
h 2725 -2698 -2701 0
h -2725 2698 0
h -2725 2701 0
h 2726 -2701 -2701 -2694 0
h -2726 2701 0
h -2726 2701 0
h -2726 2694 0
h -2727 2728 2723 2724 2725 2726 0
h 2727 -2728 0
h 2727 -2723 0
h 2727 -2724 0
h 2727 -2725 0
h 2727 -2726 0
h 2729 -1595 -1595 0
h -2729 1595 0
h -2729 1595 0
h -2730 1598 2729 0
h 2730 -1598 0
h 2730 -2729 0
h 2731 -1595 -2732 0
h -2731 1595 0
h -2731 2732 0
h -179 2733 2731 0
h 179 -2733 0
h 179 -2731 0
h 2734 -1595 -1592 0
h -2734 1595 0
h -2734 1592 0
h -177 1586 2734 0
h 177 -1586 0
h 177 -2734 0
h 2735 -1593 -1592 0
h -2735 1593 0
h -2735 1592 0
h -180 1589 2735 0
h 180 -1589 0
h 180 -2735 0
h 2736 -2732 -1593 0
h -2736 2732 0
h -2736 1593 0
h -178 2737 2736 0
h 178 -2737 0
h 178 -2736 0
h 2738 -2732 -2732 0
h -2738 2732 0
h -2738 2732 0
h -2739 2740 2738 0
h 2739 -2740 0
h 2739 -2738 0
h 2741 -2742 -2742 0
h -2741 2742 0
h -2741 2742 0
h -2743 2744 2741 0
h 2743 -2744 0
h 2743 -2741 0
h 2745 -2742 -2746 0
h -2745 2742 0
h -2745 2746 0
h -1029 2747 2745 0
h 1029 -2747 0
h 1029 -2745 0
h 2748 -2742 -2749 0
h -2748 2742 0
h -2748 2749 0
h -1027 2750 2748 0
h 1027 -2750 0
h 1027 -2748 0
h 2751 -2752 -2749 0
h -2751 2752 0
h -2751 2749 0
h -1030 2753 2751 0
h 1030 -2753 0
h 1030 -2751 0
h 2754 -2746 -2752 0
h -2754 2746 0
h -2754 2752 0
h -1028 2755 2754 0
h 1028 -2755 0
h 1028 -2754 0
h 2756 -2746 -2746 0
h -2756 2746 0
h -2756 2746 0
h -2757 2758 2756 0
h 2757 -2758 0
h 2757 -2756 0
h 2759 -1564 -2760 0
h -2759 1564 0
h -2759 2760 0
h 2761 -2760 -2760 0
h -2761 2760 0
h -2761 2760 0
h 2762 -2760 -1564 0
h -2762 2760 0
h -2762 1564 0
h 2763 -1564 -1564 -2764 0
h -2763 1564 0
h -2763 1564 0
h -2763 2764 0
h -2765 1566 2759 2761 2762 2763 0
h 2765 -1566 0
h 2765 -2759 0
h 2765 -2761 0
h 2765 -2762 0
h 2765 -2763 0
h 2766 -1564 -2767 0
h -2766 1564 0
h -2766 2767 0
h 2768 -2760 -2767 0
h -2768 2760 0
h -2768 2767 0
h 2769 -2760 -1568 0
h -2769 2760 0
h -2769 1568 0
h 2770 -1564 -1568 -2764 0
h -2770 1564 0
h -2770 1568 0
h -2770 2764 0
h -314 1569 2766 2768 2769 2770 0
h 314 -1569 0
h 314 -2766 0
h 314 -2768 0
h 314 -2769 0
h 314 -2770 0
h 2771 -1564 -2772 0
h -2771 1564 0
h -2771 2772 0
h 2773 -2760 -1571 0
h -2773 2760 0
h -2773 1571 0
h 2774 -2760 -2772 0
h -2774 2760 0
h -2774 2772 0
h 2775 -1564 -1571 -2764 0
h -2775 1564 0
h -2775 1571 0
h -2775 2764 0
h -312 1572 2771 2773 2774 2775 0
h 312 -1572 0
h 312 -2771 0
h 312 -2773 0
h 312 -2774 0
h 312 -2775 0
h 2776 -1574 -2772 0
h -2776 1574 0
h -2776 2772 0
h 2777 -2778 -2772 0
h -2777 2778 0
h -2777 2772 0
h 2779 -2778 -1571 0
h -2779 2778 0
h -2779 1571 0
h 2780 -1574 -1571 -2764 0
h -2780 1574 0
h -2780 1571 0
h -2780 2764 0
h -315 1575 2776 2777 2779 2780 0
h 315 -1575 0
h 315 -2776 0
h 315 -2777 0
h 315 -2779 0
h 315 -2780 0
h 2781 -1568 -2778 0
h -2781 1568 0
h -2781 2778 0
h 2782 -2767 -1574 0
h -2782 2767 0
h -2782 1574 0
h 2783 -2767 -2778 0
h -2783 2767 0
h -2783 2778 0
h 2784 -1568 -1574 -2764 0
h -2784 1568 0
h -2784 1574 0
h -2784 2764 0
h -313 1577 2781 2782 2783 2784 0
h 313 -1577 0
h 313 -2781 0
h 313 -2782 0
h 313 -2783 0
h 313 -2784 0
h 2785 -1568 -2767 0
h -2785 1568 0
h -2785 2767 0
h 2786 -2767 -2767 0
h -2786 2767 0
h -2786 2767 0
h 2787 -2767 -1568 0
h -2787 2767 0
h -2787 1568 0
h 2788 -1568 -1568 -2764 0
h -2788 1568 0
h -2788 1568 0
h -2788 2764 0
h -2789 1580 2785 2786 2787 2788 0
h 2789 -1580 0
h 2789 -2785 0
h 2789 -2786 0
h 2789 -2787 0
h 2789 -2788 0
h 2790 -2791 -2792 0
h -2790 2791 0
h -2790 2792 0
h 2793 -2792 -2792 0
h -2793 2792 0
h -2793 2792 0
h 2794 -2792 -2791 0
h -2794 2792 0
h -2794 2791 0
h 2795 -2791 -2791 -2796 0
h -2795 2791 0
h -2795 2791 0
h -2795 2796 0
h -2797 2798 2790 2793 2794 2795 0
h 2797 -2798 0
h 2797 -2790 0
h 2797 -2793 0
h 2797 -2794 0
h 2797 -2795 0
h 2799 -2791 -2800 0
h -2799 2791 0
h -2799 2800 0
h 2801 -2792 -2800 0
h -2801 2792 0
h -2801 2800 0
h 2802 -2792 -2803 0
h -2802 2792 0
h -2802 2803 0
h 2804 -2791 -2803 -2796 0
h -2804 2791 0
h -2804 2803 0
h -2804 2796 0
h -539 2805 2799 2801 2802 2804 0
h 539 -2805 0
h 539 -2799 0
h 539 -2801 0
h 539 -2802 0
h 539 -2804 0
h 2806 -2791 -2807 0
h -2806 2791 0
h -2806 2807 0
h 2808 -2792 -2809 0
h -2808 2792 0
h -2808 2809 0
h 2810 -2792 -2807 0
h -2810 2792 0
h -2810 2807 0
h 2811 -2791 -2809 -2796 0
h -2811 2791 0
h -2811 2809 0
h -2811 2796 0
h -537 2812 2806 2808 2810 2811 0
h 537 -2812 0
h 537 -2806 0
h 537 -2808 0
h 537 -2810 0
h 537 -2811 0
h 2813 -2814 -2807 0
h -2813 2814 0
h -2813 2807 0
h 2815 -2816 -2807 0
h -2815 2816 0
h -2815 2807 0
h 2817 -2816 -2809 0
h -2817 2816 0
h -2817 2809 0
h 2818 -2814 -2809 -2796 0
h -2818 2814 0
h -2818 2809 0
h -2818 2796 0
h -540 2819 2813 2815 2817 2818 0
h 540 -2819 0
h 540 -2813 0
h 540 -2815 0
h 540 -2817 0
h 540 -2818 0
h 2820 -2803 -2816 0
h -2820 2803 0
h -2820 2816 0
h 2821 -2800 -2814 0
h -2821 2800 0
h -2821 2814 0
h 2822 -2800 -2816 0
h -2822 2800 0
h -2822 2816 0
h 2823 -2803 -2814 -2796 0
h -2823 2803 0
h -2823 2814 0
h -2823 2796 0
h -538 2824 2820 2821 2822 2823 0
h 538 -2824 0
h 538 -2820 0
h 538 -2821 0
h 538 -2822 0
h 538 -2823 0
h 2825 -2803 -2800 0
h -2825 2803 0
h -2825 2800 0
h 2826 -2800 -2800 0
h -2826 2800 0
h -2826 2800 0
h 2827 -2800 -2803 0
h -2827 2800 0
h -2827 2803 0
h 2828 -2803 -2803 -2796 0
h -2828 2803 0
h -2828 2803 0
h -2828 2796 0
h -2829 2830 2825 2826 2827 2828 0
h 2829 -2830 0
h 2829 -2825 0
h 2829 -2826 0
h 2829 -2827 0
h 2829 -2828 0
h 2831 -2832 -2832 0
h -2831 2832 0
h -2831 2832 0
h -2833 2834 2831 0
h 2833 -2834 0
h 2833 -2831 0
h 2835 -2832 -2836 0
h -2835 2832 0
h -2835 2836 0
h -534 2837 2835 0
h 534 -2837 0
h 534 -2835 0
h 2838 -2832 -2839 0
h -2838 2832 0
h -2838 2839 0
h -532 2840 2838 0
h 532 -2840 0
h 532 -2838 0
h 2841 -2842 -2839 0
h -2841 2842 0
h -2841 2839 0
h -535 2843 2841 0
h 535 -2843 0
h 535 -2841 0
h 2844 -2836 -2842 0
h -2844 2836 0
h -2844 2842 0
h -533 2845 2844 0
h 533 -2845 0
h 533 -2844 0
h 2846 -2836 -2836 0
h -2846 2836 0
h -2846 2836 0
h -2847 2848 2846 0
h 2847 -2848 0
h 2847 -2846 0
h 2849 -2084 -2084 0
h -2849 2084 0
h -2849 2084 0
h -2850 2091 2849 0
h 2850 -2091 0
h 2850 -2849 0
h 2851 -2084 -2096 0
h -2851 2084 0
h -2851 2096 0
h -279 2098 2851 0
h 279 -2098 0
h 279 -2851 0
h 2852 -2084 -2102 0
h -2852 2084 0
h -2852 2102 0
h -277 2105 2852 0
h 277 -2105 0
h 277 -2852 0
h 2853 -2107 -2102 0
h -2853 2107 0
h -2853 2102 0
h -280 2112 2853 0
h 280 -2112 0
h 280 -2853 0
h 2854 -2096 -2107 0
h -2854 2096 0
h -2854 2107 0
h -278 2117 2854 0
h 278 -2117 0
h 278 -2854 0
h 2855 -2096 -2096 0
h -2855 2096 0
h -2855 2096 0
h -2856 2123 2855 0
h 2856 -2123 0
h 2856 -2855 0
h 2857 -2858 -2859 0
h -2857 2858 0
h -2857 2859 0
h 2860 -2859 -2859 0
h -2860 2859 0
h -2860 2859 0
h 2861 -2859 -2858 0
h -2861 2859 0
h -2861 2858 0
h 2862 -2858 -2858 -2863 0
h -2862 2858 0
h -2862 2858 0
h -2862 2863 0
h -2864 2865 2857 2860 2861 2862 0
h 2864 -2865 0
h 2864 -2857 0
h 2864 -2860 0
h 2864 -2861 0
h 2864 -2862 0
h 2866 -2858 -2867 0
h -2866 2858 0
h -2866 2867 0
h 2868 -2859 -2867 0
h -2868 2859 0
h -2868 2867 0
h 2869 -2859 -2870 0
h -2869 2859 0
h -2869 2870 0
h 2871 -2858 -2870 -2863 0
h -2871 2858 0
h -2871 2870 0
h -2871 2863 0
h -74 2872 2866 2868 2869 2871 0
h 74 -2872 0
h 74 -2866 0
h 74 -2868 0
h 74 -2869 0
h 74 -2871 0
h 2873 -2858 -2874 0
h -2873 2858 0
h -2873 2874 0
h 2875 -2859 -2876 0
h -2875 2859 0
h -2875 2876 0
h 2877 -2859 -2874 0
h -2877 2859 0
h -2877 2874 0
h 2878 -2858 -2876 -2863 0
h -2878 2858 0
h -2878 2876 0
h -2878 2863 0
h -72 2879 2873 2875 2877 2878 0
h 72 -2879 0
h 72 -2873 0
h 72 -2875 0
h 72 -2877 0
h 72 -2878 0
h 2880 -2881 -2874 0
h -2880 2881 0
h -2880 2874 0
h 2882 -2883 -2874 0
h -2882 2883 0
h -2882 2874 0
h 2884 -2883 -2876 0
h -2884 2883 0
h -2884 2876 0
h 2885 -2881 -2876 -2863 0
h -2885 2881 0
h -2885 2876 0
h -2885 2863 0
h -75 2886 2880 2882 2884 2885 0
h 75 -2886 0
h 75 -2880 0
h 75 -2882 0
h 75 -2884 0
h 75 -2885 0
h 2887 -2870 -2883 0
h -2887 2870 0
h -2887 2883 0
h 2888 -2867 -2881 0
h -2888 2867 0
h -2888 2881 0
h 2889 -2867 -2883 0
h -2889 2867 0
h -2889 2883 0
h 2890 -2870 -2881 -2863 0
h -2890 2870 0
h -2890 2881 0
h -2890 2863 0
h -73 2891 2887 2888 2889 2890 0
h 73 -2891 0
h 73 -2887 0
h 73 -2888 0
h 73 -2889 0
h 73 -2890 0
h 2892 -2870 -2867 0
h -2892 2870 0
h -2892 2867 0
h 2893 -2867 -2867 0
h -2893 2867 0
h -2893 2867 0
h 2894 -2867 -2870 0
h -2894 2867 0
h -2894 2870 0
h 2895 -2870 -2870 -2863 0
h -2895 2870 0
h -2895 2870 0
h -2895 2863 0
h -2896 2897 2892 2893 2894 2895 0
h 2896 -2897 0
h 2896 -2892 0
h 2896 -2893 0
h 2896 -2894 0
h 2896 -2895 0
h 2898 -2899 -2900 0
h -2898 2899 0
h -2898 2900 0
h 2901 -2900 -2900 0
h -2901 2900 0
h -2901 2900 0
h 2902 -2900 -2899 0
h -2902 2900 0
h -2902 2899 0
h 2903 -2899 -2899 -2904 0
h -2903 2899 0
h -2903 2899 0
h -2903 2904 0
h -2905 2906 2898 2901 2902 2903 0
h 2905 -2906 0
h 2905 -2898 0
h 2905 -2901 0
h 2905 -2902 0
h 2905 -2903 0
h 2907 -2899 -2908 0
h -2907 2899 0
h -2907 2908 0
h 2909 -2900 -2908 0
h -2909 2900 0
h -2909 2908 0
h 2910 -2900 -2911 0
h -2910 2900 0
h -2910 2911 0
h 2912 -2899 -2911 -2904 0
h -2912 2899 0
h -2912 2911 0
h -2912 2904 0
h -369 2913 2907 2909 2910 2912 0
h 369 -2913 0
h 369 -2907 0
h 369 -2909 0
h 369 -2910 0
h 369 -2912 0
h 2914 -2899 -2915 0
h -2914 2899 0
h -2914 2915 0
h 2916 -2900 -2917 0
h -2916 2900 0
h -2916 2917 0
h 2918 -2900 -2915 0
h -2918 2900 0
h -2918 2915 0
h 2919 -2899 -2917 -2904 0
h -2919 2899 0
h -2919 2917 0
h -2919 2904 0
h -367 2920 2914 2916 2918 2919 0
h 367 -2920 0
h 367 -2914 0
h 367 -2916 0
h 367 -2918 0
h 367 -2919 0
h 2921 -2922 -2915 0
h -2921 2922 0
h -2921 2915 0
h 2923 -2924 -2915 0
h -2923 2924 0
h -2923 2915 0
h 2925 -2924 -2917 0
h -2925 2924 0
h -2925 2917 0
h 2926 -2922 -2917 -2904 0
h -2926 2922 0
h -2926 2917 0
h -2926 2904 0
h -370 2927 2921 2923 2925 2926 0
h 370 -2927 0
h 370 -2921 0
h 370 -2923 0
h 370 -2925 0
h 370 -2926 0
h 2928 -2911 -2924 0
h -2928 2911 0
h -2928 2924 0
h 2929 -2908 -2922 0
h -2929 2908 0
h -2929 2922 0
h 2930 -2908 -2924 0
h -2930 2908 0
h -2930 2924 0
h 2931 -2911 -2922 -2904 0
h -2931 2911 0
h -2931 2922 0
h -2931 2904 0
h -368 2932 2928 2929 2930 2931 0
h 368 -2932 0
h 368 -2928 0
h 368 -2929 0
h 368 -2930 0
h 368 -2931 0
h 2933 -2911 -2908 0
h -2933 2911 0
h -2933 2908 0
h 2934 -2908 -2908 0
h -2934 2908 0
h -2934 2908 0
h 2935 -2908 -2911 0
h -2935 2908 0
h -2935 2911 0
h 2936 -2911 -2911 -2904 0
h -2936 2911 0
h -2936 2911 0
h -2936 2904 0
h -2937 2938 2933 2934 2935 2936 0
h 2937 -2938 0
h 2937 -2933 0
h 2937 -2934 0
h 2937 -2935 0
h 2937 -2936 0
h 2939 -2940 -2941 0
h -2939 2940 0
h -2939 2941 0
h 2942 -2941 -2941 0
h -2942 2941 0
h -2942 2941 0
h 2943 -2941 -2940 0
h -2943 2941 0
h -2943 2940 0
h 2944 -2940 -2940 -2945 0
h -2944 2940 0
h -2944 2940 0
h -2944 2945 0
h -2946 2947 2939 2942 2943 2944 0
h 2946 -2947 0
h 2946 -2939 0
h 2946 -2942 0
h 2946 -2943 0
h 2946 -2944 0
h 2948 -2940 -2949 0
h -2948 2940 0
h -2948 2949 0
h 2950 -2941 -2949 0
h -2950 2941 0
h -2950 2949 0
h 2951 -2941 -2952 0
h -2951 2941 0
h -2951 2952 0
h 2953 -2940 -2952 -2945 0
h -2953 2940 0
h -2953 2952 0
h -2953 2945 0
h -134 2954 2948 2950 2951 2953 0
h 134 -2954 0
h 134 -2948 0
h 134 -2950 0
h 134 -2951 0
h 134 -2953 0
h 2955 -2940 -2956 0
h -2955 2940 0
h -2955 2956 0
h 2957 -2941 -2958 0
h -2957 2941 0
h -2957 2958 0
h 2959 -2941 -2956 0
h -2959 2941 0
h -2959 2956 0
h 2960 -2940 -2958 -2945 0
h -2960 2940 0
h -2960 2958 0
h -2960 2945 0
h -132 2961 2955 2957 2959 2960 0
h 132 -2961 0
h 132 -2955 0
h 132 -2957 0
h 132 -2959 0
h 132 -2960 0
h 2962 -2963 -2956 0
h -2962 2963 0
h -2962 2956 0
h 2964 -2965 -2956 0
h -2964 2965 0
h -2964 2956 0
h 2966 -2965 -2958 0
h -2966 2965 0
h -2966 2958 0
h 2967 -2963 -2958 -2945 0
h -2967 2963 0
h -2967 2958 0
h -2967 2945 0
h -135 2968 2962 2964 2966 2967 0
h 135 -2968 0
h 135 -2962 0
h 135 -2964 0
h 135 -2966 0
h 135 -2967 0
h 2969 -2952 -2965 0
h -2969 2952 0
h -2969 2965 0
h 2970 -2949 -2963 0
h -2970 2949 0
h -2970 2963 0
h 2971 -2949 -2965 0
h -2971 2949 0
h -2971 2965 0
h 2972 -2952 -2963 -2945 0
h -2972 2952 0
h -2972 2963 0
h -2972 2945 0
h -133 2973 2969 2970 2971 2972 0
h 133 -2973 0
h 133 -2969 0
h 133 -2970 0
h 133 -2971 0
h 133 -2972 0
h 2974 -2952 -2949 0
h -2974 2952 0
h -2974 2949 0
h 2975 -2949 -2949 0
h -2975 2949 0
h -2975 2949 0
h 2976 -2949 -2952 0
h -2976 2949 0
h -2976 2952 0
h 2977 -2952 -2952 -2945 0
h -2977 2952 0
h -2977 2952 0
h -2977 2945 0
h -2978 2979 2974 2975 2976 2977 0
h 2978 -2979 0
h 2978 -2974 0
h 2978 -2975 0
h 2978 -2976 0
h 2978 -2977 0
h 2980 -1942 -1942 0
h -2980 1942 0
h -2980 1942 0
h -2981 1922 2980 0
h 2981 -1922 0
h 2981 -2980 0
h 2982 -1942 -1950 0
h -2982 1942 0
h -2982 1950 0
h -949 1926 2982 0
h 949 -1926 0
h 949 -2982 0
h 2983 -1942 -1945 0
h -2983 1942 0
h -2983 1945 0
h -947 1933 2983 0
h 947 -1933 0
h 947 -2983 0
h 2984 -1940 -1945 0
h -2984 1940 0
h -2984 1945 0
h -950 1935 2984 0
h 950 -1935 0
h 950 -2984 0
h 2985 -1950 -1940 0
h -2985 1950 0
h -2985 1940 0
h -948 1929 2985 0
h 948 -1929 0
h 948 -2985 0
h 2986 -1950 -1950 0
h -2986 1950 0
h -2986 1950 0
h -2987 1956 2986 0
h 2987 -1956 0
h 2987 -2986 0
h 2988 -1582 -2989 0
h -2988 1582 0
h -2988 2989 0
h 2990 -2989 -2989 0
h -2990 2989 0
h -2990 2989 0
h 2991 -2989 -1582 0
h -2991 2989 0
h -2991 1582 0
h 2992 -1582 -1582 -2740 0
h -2992 1582 0
h -2992 1582 0
h -2992 2740 0
h -2993 1584 2988 2990 2991 2992 0
h 2993 -1584 0
h 2993 -2988 0
h 2993 -2990 0
h 2993 -2991 0
h 2993 -2992 0
h 2994 -1582 -2733 0
h -2994 1582 0
h -2994 2733 0
h 2995 -2989 -2733 0
h -2995 2989 0
h -2995 2733 0
h 2996 -2989 -1586 0
h -2996 2989 0
h -2996 1586 0
h 2997 -1582 -1586 -2740 0
h -2997 1582 0
h -2997 1586 0
h -2997 2740 0
h -4 1587 2994 2995 2996 2997 0
h 4 -1587 0
h 4 -2994 0
h 4 -2995 0
h 4 -2996 0
h 4 -2997 0
h 2998 -1582 -2737 0
h -2998 1582 0
h -2998 2737 0
h 2999 -2989 -1589 0
h -2999 2989 0
h -2999 1589 0
h 3000 -2989 -2737 0
h -3000 2989 0
h -3000 2737 0
h 3001 -1582 -1589 -2740 0
h -3001 1582 0
h -3001 1589 0
h -3001 2740 0
h -2 1590 2998 2999 3000 3001 0
h 2 -1590 0
h 2 -2998 0
h 2 -2999 0
h 2 -3000 0
h 2 -3001 0
h 3002 -1592 -2737 0
h -3002 1592 0
h -3002 2737 0
h 3003 -2732 -2737 0
h -3003 2732 0
h -3003 2737 0
h 3004 -2732 -1589 0
h -3004 2732 0
h -3004 1589 0
h 3005 -1592 -1589 -2740 0
h -3005 1592 0
h -3005 1589 0
h -3005 2740 0
h -5 1593 3002 3003 3004 3005 0
h 5 -1593 0
h 5 -3002 0
h 5 -3003 0
h 5 -3004 0
h 5 -3005 0
h 3006 -1586 -2732 0
h -3006 1586 0
h -3006 2732 0
h 3007 -2733 -1592 0
h -3007 2733 0
h -3007 1592 0
h 3008 -2733 -2732 0
h -3008 2733 0
h -3008 2732 0
h 3009 -1586 -1592 -2740 0
h -3009 1586 0
h -3009 1592 0
h -3009 2740 0
h -3 1595 3006 3007 3008 3009 0
h 3 -1595 0
h 3 -3006 0
h 3 -3007 0
h 3 -3008 0
h 3 -3009 0
h 3010 -1586 -2733 0
h -3010 1586 0
h -3010 2733 0
h 3011 -2733 -2733 0
h -3011 2733 0
h -3011 2733 0
h 3012 -2733 -1586 0
h -3012 2733 0
h -3012 1586 0
h 3013 -1586 -1586 -2740 0
h -3013 1586 0
h -3013 1586 0
h -3013 2740 0
h -3014 1598 3010 3011 3012 3013 0
h 3014 -1598 0
h 3014 -3010 0
h 3014 -3011 0
h 3014 -3012 0
h 3014 -3013 0
h 3015 -3016 -3016 0
h -3015 3016 0
h -3015 3016 0
h -3017 3018 3015 0
h 3017 -3018 0
h 3017 -3015 0
h 3019 -3016 -3020 0
h -3019 3016 0
h -3019 3020 0
h -1074 3021 3019 0
h 1074 -3021 0
h 1074 -3019 0
h 3022 -3016 -3023 0
h -3022 3016 0
h -3022 3023 0
h -1072 3024 3022 0
h 1072 -3024 0
h 1072 -3022 0
h 3025 -3026 -3023 0
h -3025 3026 0
h -3025 3023 0
h -1075 3027 3025 0
h 1075 -3027 0
h 1075 -3025 0
h 3028 -3020 -3026 0
h -3028 3020 0
h -3028 3026 0
h -1073 3029 3028 0
h 1073 -3029 0
h 1073 -3028 0
h 3030 -3020 -3020 0
h -3030 3020 0
h -3030 3020 0
h -3031 3032 3030 0
h 3031 -3032 0
h 3031 -3030 0
h 3033 -2630 -2630 0
h -3033 2630 0
h -3033 2630 0
h -3034 2624 3033 0
h 3034 -2624 0
h 3034 -3033 0
h 3035 -2630 -3036 0
h -3035 2630 0
h -3035 3036 0
h -1129 3037 3035 0
h 1129 -3037 0
h 1129 -3035 0
h 3038 -2630 -2629 0
h -3038 2630 0
h -3038 2629 0
h -1127 2622 3038 0
h 1127 -2622 0
h 1127 -3038 0
h 3039 -2633 -2629 0
h -3039 2633 0
h -3039 2629 0
h -1130 2632 3039 0
h 1130 -2632 0
h 1130 -3039 0
h 3040 -3036 -2633 0
h -3040 3036 0
h -3040 2633 0
h -1128 3041 3040 0
h 1128 -3041 0
h 1128 -3040 0
h 3042 -3036 -3036 0
h -3042 3036 0
h -3042 3036 0
h -3043 3044 3042 0
h 3043 -3044 0
h 3043 -3042 0
h 3045 -3046 -3046 0
h -3045 3046 0
h -3045 3046 0
h -3047 3048 3045 0
h 3047 -3048 0
h 3047 -3045 0
h 3049 -3046 -3050 0
h -3049 3046 0
h -3049 3050 0
h -1109 3051 3049 0
h 1109 -3051 0
h 1109 -3049 0
h 3052 -3046 -3053 0
h -3052 3046 0
h -3052 3053 0
h -1107 3054 3052 0
h 1107 -3054 0
h 1107 -3052 0
h 3055 -3056 -3053 0
h -3055 3056 0
h -3055 3053 0
h -1110 3057 3055 0
h 1110 -3057 0
h 1110 -3055 0
h 3058 -3050 -3056 0
h -3058 3050 0
h -3058 3056 0
h -1108 3059 3058 0
h 1108 -3059 0
h 1108 -3058 0
h 3060 -3050 -3050 0
h -3060 3050 0
h -3060 3050 0
h -3061 3062 3060 0
h 3061 -3062 0
h 3061 -3060 0
h 3063 -1441 -1441 0
h -3063 1441 0
h -3063 1441 0
h -3064 1448 3063 0
h 3064 -1448 0
h 3064 -3063 0
h 3065 -1441 -1453 0
h -3065 1441 0
h -3065 1453 0
h -514 1455 3065 0
h 514 -1455 0
h 514 -3065 0
h 3066 -1441 -1459 0
h -3066 1441 0
h -3066 1459 0
h -512 1462 3066 0
h 512 -1462 0
h 512 -3066 0
h 3067 -1464 -1459 0
h -3067 1464 0
h -3067 1459 0
h -515 1469 3067 0
h 515 -1469 0
h 515 -3067 0
h 3068 -1453 -1464 0
h -3068 1453 0
h -3068 1464 0
h -513 1474 3068 0
h 513 -1474 0
h 513 -3068 0
h 3069 -1453 -1453 0
h -3069 1453 0
h -3069 1453 0
h -3070 1480 3069 0
h 3070 -1480 0
h 3070 -3069 0
h 3071 -3072 -3072 0
h -3071 3072 0
h -3071 3072 0
h -3073 3074 3071 0
h 3073 -3074 0
h 3073 -3071 0
h 3075 -3072 -2840 0
h -3075 3072 0
h -3075 2840 0
h -384 3076 3075 0
h 384 -3076 0
h 384 -3075 0
h 3077 -3072 -2843 0
h -3077 3072 0
h -3077 2843 0
h -382 3078 3077 0
h 382 -3078 0
h 382 -3077 0
h 3079 -2839 -2843 0
h -3079 2839 0
h -3079 2843 0
h -385 2842 3079 0
h 385 -2842 0
h 385 -3079 0
h 3080 -2840 -2839 0
h -3080 2840 0
h -3080 2839 0
h -383 2832 3080 0
h 383 -2832 0
h 383 -3080 0
h 3081 -2840 -2840 0
h -3081 2840 0
h -3081 2840 0
h -3082 2834 3081 0
h 3082 -2834 0
h 3082 -3081 0
h 3083 -3084 -3085 0
h -3083 3084 0
h -3083 3085 0
h 3086 -3085 -3085 0
h -3086 3085 0
h -3086 3085 0
h 3087 -3085 -3084 0
h -3087 3085 0
h -3087 3084 0
h 3088 -3084 -3084 -3089 0
h -3088 3084 0
h -3088 3084 0
h -3088 3089 0
h -3090 3091 3083 3086 3087 3088 0
h 3090 -3091 0
h 3090 -3083 0
h 3090 -3086 0
h 3090 -3087 0
h 3090 -3088 0
h 3092 -3084 -3093 0
h -3092 3084 0
h -3092 3093 0
h 3094 -3085 -3093 0
h -3094 3085 0
h -3094 3093 0
h 3095 -3085 -3096 0
h -3095 3085 0
h -3095 3096 0
h 3097 -3084 -3096 -3089 0
h -3097 3084 0
h -3097 3096 0
h -3097 3089 0
h -599 3098 3092 3094 3095 3097 0
h 599 -3098 0
h 599 -3092 0
h 599 -3094 0
h 599 -3095 0
h 599 -3097 0
h 3099 -3084 -3100 0
h -3099 3084 0
h -3099 3100 0
h 3101 -3085 -3102 0
h -3101 3085 0
h -3101 3102 0
h 3103 -3085 -3100 0
h -3103 3085 0
h -3103 3100 0
h 3104 -3084 -3102 -3089 0
h -3104 3084 0
h -3104 3102 0
h -3104 3089 0
h -597 3105 3099 3101 3103 3104 0
h 597 -3105 0
h 597 -3099 0
h 597 -3101 0
h 597 -3103 0
h 597 -3104 0
h 3106 -3107 -3100 0
h -3106 3107 0
h -3106 3100 0
h 3108 -3109 -3100 0
h -3108 3109 0
h -3108 3100 0
h 3110 -3109 -3102 0
h -3110 3109 0
h -3110 3102 0
h 3111 -3107 -3102 -3089 0
h -3111 3107 0
h -3111 3102 0
h -3111 3089 0
h -600 3112 3106 3108 3110 3111 0
h 600 -3112 0
h 600 -3106 0
h 600 -3108 0
h 600 -3110 0
h 600 -3111 0
h 3113 -3096 -3109 0
h -3113 3096 0
h -3113 3109 0
h 3114 -3093 -3107 0
h -3114 3093 0
h -3114 3107 0
h 3115 -3093 -3109 0
h -3115 3093 0
h -3115 3109 0
h 3116 -3096 -3107 -3089 0
h -3116 3096 0
h -3116 3107 0
h -3116 3089 0
h -598 3117 3113 3114 3115 3116 0
h 598 -3117 0
h 598 -3113 0
h 598 -3114 0
h 598 -3115 0
h 598 -3116 0
h 3118 -3096 -3093 0
h -3118 3096 0
h -3118 3093 0
h 3119 -3093 -3093 0
h -3119 3093 0
h -3119 3093 0
h 3120 -3093 -3096 0
h -3120 3093 0
h -3120 3096 0
h 3121 -3096 -3096 -3089 0
h -3121 3096 0
h -3121 3096 0
h -3121 3089 0
h -3122 3123 3118 3119 3120 3121 0
h 3122 -3123 0
h 3122 -3118 0
h 3122 -3119 0
h 3122 -3120 0
h 3122 -3121 0
h 3124 -3125 -3125 0
h -3124 3125 0
h -3124 3125 0
h -3126 3127 3124 0
h 3126 -3127 0
h 3126 -3124 0
h 3128 -3125 -3129 0
h -3128 3125 0
h -3128 3129 0
h -859 3130 3128 0
h 859 -3130 0
h 859 -3128 0
h 3131 -3125 -3132 0
h -3131 3125 0
h -3131 3132 0
h -857 3133 3131 0
h 857 -3133 0
h 857 -3131 0
h 3134 -3135 -3132 0
h -3134 3135 0
h -3134 3132 0
h -860 3136 3134 0
h 860 -3136 0
h 860 -3134 0
h 3137 -3129 -3135 0
h -3137 3129 0
h -3137 3135 0
h -858 3138 3137 0
h 858 -3138 0
h 858 -3137 0
h 3139 -3129 -3129 0
h -3139 3129 0
h -3139 3129 0
h -3140 3141 3139 0
h 3140 -3141 0
h 3140 -3139 0
h 3142 -1856 -2215 0
h -3142 1856 0
h -3142 2215 0
h 2216 -2215 -2215 0
h -2216 2215 0
h -2216 2215 0
h 3143 -2215 -1856 0
h -3143 2215 0
h -3143 1856 0
h 3144 -1856 -1856 -2220 0
h -3144 1856 0
h -3144 1856 0
h -3144 2220 0
h -3145 1858 3142 2216 3143 3144 0
h 3145 -1858 0
h 3145 -3142 0
h 3145 -2216 0
h 3145 -3143 0
h 3145 -3144 0
h 3146 -1856 -2225 0
h -3146 1856 0
h -3146 2225 0
h 3147 -2215 -2225 0
h -3147 2215 0
h -3147 2225 0
h 3148 -2215 -1860 0
h -3148 2215 0
h -3148 1860 0
h 3149 -1856 -1860 -2220 0
h -3149 1856 0
h -3149 1860 0
h -3149 2220 0
h -209 1861 3146 3147 3148 3149 0
h 209 -1861 0
h 209 -3146 0
h 209 -3147 0
h 209 -3148 0
h 209 -3149 0
h 3150 -1856 -2230 0
h -3150 1856 0
h -3150 2230 0
h 3151 -2215 -1863 0
h -3151 2215 0
h -3151 1863 0
h 3152 -2215 -2230 0
h -3152 2215 0
h -3152 2230 0
h 3153 -1856 -1863 -2220 0
h -3153 1856 0
h -3153 1863 0
h -3153 2220 0
h -207 1864 3150 3151 3152 3153 0
h 207 -1864 0
h 207 -3150 0
h 207 -3151 0
h 207 -3152 0
h 207 -3153 0
h 3154 -1866 -2230 0
h -3154 1866 0
h -3154 2230 0
h 3155 -2214 -2230 0
h -3155 2214 0
h -3155 2230 0
h 3156 -2214 -1863 0
h -3156 2214 0
h -3156 1863 0
h 3157 -1866 -1863 -2220 0
h -3157 1866 0
h -3157 1863 0
h -3157 2220 0
h -210 1867 3154 3155 3156 3157 0
h 210 -1867 0
h 210 -3154 0
h 210 -3155 0
h 210 -3156 0
h 210 -3157 0
h 3158 -1860 -2214 0
h -3158 1860 0
h -3158 2214 0
h 3159 -2225 -1866 0
h -3159 2225 0
h -3159 1866 0
h 3160 -2225 -2214 0
h -3160 2225 0
h -3160 2214 0
h 3161 -1860 -1866 -2220 0
h -3161 1860 0
h -3161 1866 0
h -3161 2220 0
h -208 1869 3158 3159 3160 3161 0
h 208 -1869 0
h 208 -3158 0
h 208 -3159 0
h 208 -3160 0
h 208 -3161 0
h 3162 -1860 -2225 0
h -3162 1860 0
h -3162 2225 0
h 3163 -2225 -2225 0
h -3163 2225 0
h -3163 2225 0
h 3164 -2225 -1860 0
h -3164 2225 0
h -3164 1860 0
h 3165 -1860 -1860 -2220 0
h -3165 1860 0
h -3165 1860 0
h -3165 2220 0
h -3166 1872 3162 3163 3164 3165 0
h 3166 -1872 0
h 3166 -3162 0
h 3166 -3163 0
h 3166 -3164 0
h 3166 -3165 0
h 3167 -2486 -2468 0
h -3167 2486 0
h -3167 2468 0
h 2469 -2468 -2468 0
h -2469 2468 0
h -2469 2468 0
h 3168 -2468 -2486 0
h -3168 2468 0
h -3168 2486 0
h 3169 -2486 -2486 -2337 0
h -3169 2486 0
h -3169 2486 0
h -3169 2337 0
h -3170 2472 3167 2469 3168 3169 0
h 3170 -2472 0
h 3170 -3167 0
h 3170 -2469 0
h 3170 -3168 0
h 3170 -3169 0
h 3171 -2486 -2340 0
h -3171 2486 0
h -3171 2340 0
h 3172 -2468 -2340 0
h -3172 2468 0
h -3172 2340 0
h 3173 -2468 -2348 0
h -3173 2468 0
h -3173 2348 0
h 3174 -2486 -2348 -2337 0
h -3174 2486 0
h -3174 2348 0
h -3174 2337 0
h -24 2475 3171 3172 3173 3174 0
h 24 -2475 0
h 24 -3171 0
h 24 -3172 0
h 24 -3173 0
h 24 -3174 0
h 3175 -2486 -2343 0
h -3175 2486 0
h -3175 2343 0
h 3176 -2468 -2346 0
h -3176 2468 0
h -3176 2346 0
h 3177 -2468 -2343 0
h -3177 2468 0
h -3177 2343 0
h 3178 -2486 -2346 -2337 0
h -3178 2486 0
h -3178 2346 0
h -3178 2337 0
h -22 2480 3175 3176 3177 3178 0
h 22 -2480 0
h 22 -3175 0
h 22 -3176 0
h 22 -3177 0
h 22 -3178 0
h 3179 -2345 -2343 0
h -3179 2345 0
h -3179 2343 0
h 3180 -2335 -2343 0
h -3180 2335 0
h -3180 2343 0
h 3181 -2335 -2346 0
h -3181 2335 0
h -3181 2346 0
h 3182 -2345 -2346 -2337 0
h -3182 2345 0
h -3182 2346 0
h -3182 2337 0
h -25 2342 3179 3180 3181 3182 0
h 25 -2342 0
h 25 -3179 0
h 25 -3180 0
h 25 -3181 0
h 25 -3182 0
h 3183 -2348 -2335 0
h -3183 2348 0
h -3183 2335 0
h 3184 -2340 -2345 0
h -3184 2340 0
h -3184 2345 0
h 3185 -2340 -2335 0
h -3185 2340 0
h -3185 2335 0
h 3186 -2348 -2345 -2337 0
h -3186 2348 0
h -3186 2345 0
h -3186 2337 0
h -23 2339 3183 3184 3185 3186 0
h 23 -2339 0
h 23 -3183 0
h 23 -3184 0
h 23 -3185 0
h 23 -3186 0
h 3187 -2348 -2340 0
h -3187 2348 0
h -3187 2340 0
h 3188 -2340 -2340 0
h -3188 2340 0
h -3188 2340 0
h 3189 -2340 -2348 0
h -3189 2340 0
h -3189 2348 0
h 3190 -2348 -2348 -2337 0
h -3190 2348 0
h -3190 2348 0
h -3190 2337 0
h -3191 2351 3187 3188 3189 3190 0
h 3191 -2351 0
h 3191 -3187 0
h 3191 -3188 0
h 3191 -3189 0
h 3191 -3190 0
h 3192 -2133 -3193 0
h -3192 2133 0
h -3192 3193 0
h 3194 -3193 -3193 0
h -3194 3193 0
h -3194 3193 0
h 3195 -3193 -2133 0
h -3195 3193 0
h -3195 2133 0
h 3196 -2133 -2133 -3197 0
h -3196 2133 0
h -3196 2133 0
h -3196 3197 0
h -3198 2135 3192 3194 3195 3196 0
h 3198 -2135 0
h 3198 -3192 0
h 3198 -3194 0
h 3198 -3195 0
h 3198 -3196 0
h 3199 -2133 -3200 0
h -3199 2133 0
h -3199 3200 0
h 3201 -3193 -3200 0
h -3201 3193 0
h -3201 3200 0
h 3202 -3193 -2137 0
h -3202 3193 0
h -3202 2137 0
h 3203 -2133 -2137 -3197 0
h -3203 2133 0
h -3203 2137 0
h -3203 3197 0
h -229 2138 3199 3201 3202 3203 0
h 229 -2138 0
h 229 -3199 0
h 229 -3201 0
h 229 -3202 0
h 229 -3203 0
h 3204 -2133 -3205 0
h -3204 2133 0
h -3204 3205 0
h 3206 -3193 -2140 0
h -3206 3193 0
h -3206 2140 0
h 3207 -3193 -3205 0
h -3207 3193 0
h -3207 3205 0
h 3208 -2133 -2140 -3197 0
h -3208 2133 0
h -3208 2140 0
h -3208 3197 0
h -227 2141 3204 3206 3207 3208 0
h 227 -2141 0
h 227 -3204 0
h 227 -3206 0
h 227 -3207 0
h 227 -3208 0
h 3209 -2143 -3205 0
h -3209 2143 0
h -3209 3205 0
h 3210 -3211 -3205 0
h -3210 3211 0
h -3210 3205 0
h 3212 -3211 -2140 0
h -3212 3211 0
h -3212 2140 0
h 3213 -2143 -2140 -3197 0
h -3213 2143 0
h -3213 2140 0
h -3213 3197 0
h -230 2144 3209 3210 3212 3213 0
h 230 -2144 0
h 230 -3209 0
h 230 -3210 0
h 230 -3212 0
h 230 -3213 0
h 3214 -2137 -3211 0
h -3214 2137 0
h -3214 3211 0
h 3215 -3200 -2143 0
h -3215 3200 0
h -3215 2143 0
h 3216 -3200 -3211 0
h -3216 3200 0
h -3216 3211 0
h 3217 -2137 -2143 -3197 0
h -3217 2137 0
h -3217 2143 0
h -3217 3197 0
h -228 2146 3214 3215 3216 3217 0
h 228 -2146 0
h 228 -3214 0
h 228 -3215 0
h 228 -3216 0
h 228 -3217 0
h 3218 -2137 -3200 0
h -3218 2137 0
h -3218 3200 0
h 3219 -3200 -3200 0
h -3219 3200 0
h -3219 3200 0
h 3220 -3200 -2137 0
h -3220 3200 0
h -3220 2137 0
h 3221 -2137 -2137 -3197 0
h -3221 2137 0
h -3221 2137 0
h -3221 3197 0
h -3222 2149 3218 3219 3220 3221 0
h 3222 -2149 0
h 3222 -3218 0
h 3222 -3219 0
h 3222 -3220 0
h 3222 -3221 0
h 3223 -1999 -3224 0
h -3223 1999 0
h -3223 3224 0
h 3225 -3224 -3224 0
h -3225 3224 0
h -3225 3224 0
h 3226 -3224 -1999 0
h -3226 3224 0
h -3226 1999 0
h 3227 -1999 -1999 -2171 0
h -3227 1999 0
h -3227 1999 0
h -3227 2171 0
h -3228 2001 3223 3225 3226 3227 0
h 3228 -2001 0
h 3228 -3223 0
h 3228 -3225 0
h 3228 -3226 0
h 3228 -3227 0
h 3229 -1999 -2173 0
h -3229 1999 0
h -3229 2173 0
h 3230 -3224 -2173 0
h -3230 3224 0
h -3230 2173 0
h 3231 -3224 -2003 0
h -3231 3224 0
h -3231 2003 0
h 3232 -1999 -2003 -2171 0
h -3232 1999 0
h -3232 2003 0
h -3232 2171 0
h -984 2004 3229 3230 3231 3232 0
h 984 -2004 0
h 984 -3229 0
h 984 -3230 0
h 984 -3231 0
h 984 -3232 0
h 3233 -1999 -2175 0
h -3233 1999 0
h -3233 2175 0
h 3234 -3224 -2006 0
h -3234 3224 0
h -3234 2006 0
h 3235 -3224 -2175 0
h -3235 3224 0
h -3235 2175 0
h 3236 -1999 -2006 -2171 0
h -3236 1999 0
h -3236 2006 0
h -3236 2171 0
h -982 2007 3233 3234 3235 3236 0
h 982 -2007 0
h 982 -3233 0
h 982 -3234 0
h 982 -3235 0
h 982 -3236 0
h 3237 -2009 -2175 0
h -3237 2009 0
h -3237 2175 0
h 3238 -2169 -2175 0
h -3238 2169 0
h -3238 2175 0
h 3239 -2169 -2006 0
h -3239 2169 0
h -3239 2006 0
h 3240 -2009 -2006 -2171 0
h -3240 2009 0
h -3240 2006 0
h -3240 2171 0
h -985 2010 3237 3238 3239 3240 0
h 985 -2010 0
h 985 -3237 0
h 985 -3238 0
h 985 -3239 0
h 985 -3240 0
h 3241 -2003 -2169 0
h -3241 2003 0
h -3241 2169 0
h 3242 -2173 -2009 0
h -3242 2173 0
h -3242 2009 0
h 3243 -2173 -2169 0
h -3243 2173 0
h -3243 2169 0
h 3244 -2003 -2009 -2171 0
h -3244 2003 0
h -3244 2009 0
h -3244 2171 0
h -983 2012 3241 3242 3243 3244 0
h 983 -2012 0
h 983 -3241 0
h 983 -3242 0
h 983 -3243 0
h 983 -3244 0
h 3245 -2003 -2173 0
h -3245 2003 0
h -3245 2173 0
h 3246 -2173 -2173 0
h -3246 2173 0
h -3246 2173 0
h 3247 -2173 -2003 0
h -3247 2173 0
h -3247 2003 0
h 3248 -2003 -2003 -2171 0
h -3248 2003 0
h -3248 2003 0
h -3248 2171 0
h -3249 2015 3245 3246 3247 3248 0
h 3249 -2015 0
h 3249 -3245 0
h 3249 -3246 0
h 3249 -3247 0
h 3249 -3248 0
h 3250 -3251 -3252 0
h -3250 3251 0
h -3250 3252 0
h 3253 -3252 -3252 0
h -3253 3252 0
h -3253 3252 0
h 3254 -3252 -3251 0
h -3254 3252 0
h -3254 3251 0
h 3255 -3251 -3251 -3256 0
h -3255 3251 0
h -3255 3251 0
h -3255 3256 0
h -3257 3258 3250 3253 3254 3255 0
h 3257 -3258 0
h 3257 -3250 0
h 3257 -3253 0
h 3257 -3254 0
h 3257 -3255 0
h 3259 -3251 -3260 0
h -3259 3251 0
h -3259 3260 0
h 3261 -3252 -3260 0
h -3261 3252 0
h -3261 3260 0
h 3262 -3252 -3263 0
h -3262 3252 0
h -3262 3263 0
h 3264 -3251 -3263 -3256 0
h -3264 3251 0
h -3264 3263 0
h -3264 3256 0
h -69 3265 3259 3261 3262 3264 0
h 69 -3265 0
h 69 -3259 0
h 69 -3261 0
h 69 -3262 0
h 69 -3264 0
h 3266 -3251 -3267 0
h -3266 3251 0
h -3266 3267 0
h 3268 -3252 -3269 0
h -3268 3252 0
h -3268 3269 0
h 3270 -3252 -3267 0
h -3270 3252 0
h -3270 3267 0
h 3271 -3251 -3269 -3256 0
h -3271 3251 0
h -3271 3269 0
h -3271 3256 0
h -67 3272 3266 3268 3270 3271 0
h 67 -3272 0
h 67 -3266 0
h 67 -3268 0
h 67 -3270 0
h 67 -3271 0
h 3273 -3274 -3267 0
h -3273 3274 0
h -3273 3267 0
h 3275 -3276 -3267 0
h -3275 3276 0
h -3275 3267 0
h 3277 -3276 -3269 0
h -3277 3276 0
h -3277 3269 0
h 3278 -3274 -3269 -3256 0
h -3278 3274 0
h -3278 3269 0
h -3278 3256 0
h -70 3279 3273 3275 3277 3278 0
h 70 -3279 0
h 70 -3273 0
h 70 -3275 0
h 70 -3277 0
h 70 -3278 0
h 3280 -3263 -3276 0
h -3280 3263 0
h -3280 3276 0
h 3281 -3260 -3274 0
h -3281 3260 0
h -3281 3274 0
h 3282 -3260 -3276 0
h -3282 3260 0
h -3282 3276 0
h 3283 -3263 -3274 -3256 0
h -3283 3263 0
h -3283 3274 0
h -3283 3256 0
h -68 3284 3280 3281 3282 3283 0
h 68 -3284 0
h 68 -3280 0
h 68 -3281 0
h 68 -3282 0
h 68 -3283 0
h 3285 -3263 -3260 0
h -3285 3263 0
h -3285 3260 0
h 3286 -3260 -3260 0
h -3286 3260 0
h -3286 3260 0
h 3287 -3260 -3263 0
h -3287 3260 0
h -3287 3263 0
h 3288 -3263 -3263 -3256 0
h -3288 3263 0
h -3288 3263 0
h -3288 3256 0
h -3289 3290 3285 3286 3287 3288 0
h 3289 -3290 0
h 3289 -3285 0
h 3289 -3286 0
h 3289 -3287 0
h 3289 -3288 0
h 3291 -3292 -3292 0
h -3291 3292 0
h -3291 3292 0
h -3293 3294 3291 0
h 3293 -3294 0
h 3293 -3291 0
h 3295 -3292 -3296 0
h -3295 3292 0
h -3295 3296 0
h -1099 3297 3295 0
h 1099 -3297 0
h 1099 -3295 0
h 3298 -3292 -3299 0
h -3298 3292 0
h -3298 3299 0
h -1097 3300 3298 0
h 1097 -3300 0
h 1097 -3298 0
h 3301 -3302 -3299 0
h -3301 3302 0
h -3301 3299 0
h -1100 3303 3301 0
h 1100 -3303 0
h 1100 -3301 0
h 3304 -3296 -3302 0
h -3304 3296 0
h -3304 3302 0
h -1098 3305 3304 0
h 1098 -3305 0
h 1098 -3304 0
h 3306 -3296 -3296 0
h -3306 3296 0
h -3306 3296 0
h -3307 3308 3306 0
h 3307 -3308 0
h 3307 -3306 0
h 3309 -2965 -2965 0
h -3309 2965 0
h -3309 2965 0
h -3310 2945 3309 0
h 3310 -2945 0
h 3310 -3309 0
h 3311 -2965 -2973 0
h -3311 2965 0
h -3311 2973 0
h -574 2949 3311 0
h 574 -2949 0
h 574 -3311 0
h 3312 -2965 -2968 0
h -3312 2965 0
h -3312 2968 0
h -572 2956 3312 0
h 572 -2956 0
h 572 -3312 0
h 3313 -2963 -2968 0
h -3313 2963 0
h -3313 2968 0
h -575 2958 3313 0
h 575 -2958 0
h 575 -3313 0
h 3314 -2973 -2963 0
h -3314 2973 0
h -3314 2963 0
h -573 2952 3314 0
h 573 -2952 0
h 573 -3314 0
h 3315 -2973 -2973 0
h -3315 2973 0
h -3315 2973 0
h -3316 2979 3315 0
h 3316 -2979 0
h 3316 -3315 0
h 3317 -3318 -3318 0
h -3317 3318 0
h -3317 3318 0
h -3319 3320 3317 0
h 3319 -3320 0
h 3319 -3317 0
h 3321 -3318 -3322 0
h -3321 3318 0
h -3321 3322 0
h -679 3323 3321 0
h 679 -3323 0
h 679 -3321 0
h 3324 -3318 -3325 0
h -3324 3318 0
h -3324 3325 0
h -677 3326 3324 0
h 677 -3326 0
h 677 -3324 0
h 3327 -3328 -3325 0
h -3327 3328 0
h -3327 3325 0
h -680 3329 3327 0
h 680 -3329 0
h 680 -3327 0
h 3330 -3322 -3328 0
h -3330 3322 0
h -3330 3328 0
h -678 3331 3330 0
h 678 -3331 0
h 678 -3330 0
h 3332 -3322 -3322 0
h -3332 3322 0
h -3332 3322 0
h -3333 3334 3332 0
h 3333 -3334 0
h 3333 -3332 0
h 3335 -3336 -3337 0
h -3335 3336 0
h -3335 3337 0
h 3338 -3337 -3337 0
h -3338 3337 0
h -3338 3337 0
h 3339 -3337 -3336 0
h -3339 3337 0
h -3339 3336 0
h 3340 -3336 -3336 -3341 0
h -3340 3336 0
h -3340 3336 0
h -3340 3341 0
h -3342 3343 3335 3338 3339 3340 0
h 3342 -3343 0
h 3342 -3335 0
h 3342 -3338 0
h 3342 -3339 0
h 3342 -3340 0
h 3344 -3336 -3345 0
h -3344 3336 0
h -3344 3345 0
h 3346 -3337 -3345 0
h -3346 3337 0
h -3346 3345 0
h 3347 -3337 -3348 0
h -3347 3337 0
h -3347 3348 0
h 3349 -3336 -3348 -3341 0
h -3349 3336 0
h -3349 3348 0
h -3349 3341 0
h -699 3350 3344 3346 3347 3349 0
h 699 -3350 0
h 699 -3344 0
h 699 -3346 0
h 699 -3347 0
h 699 -3349 0
h 3351 -3336 -3352 0
h -3351 3336 0
h -3351 3352 0
h 3353 -3337 -3354 0
h -3353 3337 0
h -3353 3354 0
h 3355 -3337 -3352 0
h -3355 3337 0
h -3355 3352 0
h 3356 -3336 -3354 -3341 0
h -3356 3336 0
h -3356 3354 0
h -3356 3341 0
h -697 3357 3351 3353 3355 3356 0
h 697 -3357 0
h 697 -3351 0
h 697 -3353 0
h 697 -3355 0
h 697 -3356 0
h 3358 -3359 -3352 0
h -3358 3359 0
h -3358 3352 0
h 3360 -3361 -3352 0
h -3360 3361 0
h -3360 3352 0
h 3362 -3361 -3354 0
h -3362 3361 0
h -3362 3354 0
h 3363 -3359 -3354 -3341 0
h -3363 3359 0
h -3363 3354 0
h -3363 3341 0
h -700 3364 3358 3360 3362 3363 0
h 700 -3364 0
h 700 -3358 0
h 700 -3360 0
h 700 -3362 0
h 700 -3363 0
h 3365 -3348 -3361 0
h -3365 3348 0
h -3365 3361 0
h 3366 -3345 -3359 0
h -3366 3345 0
h -3366 3359 0
h 3367 -3345 -3361 0
h -3367 3345 0
h -3367 3361 0
h 3368 -3348 -3359 -3341 0
h -3368 3348 0
h -3368 3359 0
h -3368 3341 0
h -698 3369 3365 3366 3367 3368 0
h 698 -3369 0
h 698 -3365 0
h 698 -3366 0
h 698 -3367 0
h 698 -3368 0
h 3370 -3348 -3345 0
h -3370 3348 0
h -3370 3345 0
h 3371 -3345 -3345 0
h -3371 3345 0
h -3371 3345 0
h 3372 -3345 -3348 0
h -3372 3345 0
h -3372 3348 0
h 3373 -3348 -3348 -3341 0
h -3373 3348 0
h -3373 3348 0
h -3373 3341 0
h -3374 3375 3370 3371 3372 3373 0
h 3374 -3375 0
h 3374 -3370 0
h 3374 -3371 0
h 3374 -3372 0
h 3374 -3373 0
h 3376 -2742 -3377 0
h -3376 2742 0
h -3376 3377 0
h 3378 -3377 -3377 0
h -3378 3377 0
h -3378 3377 0
h 3379 -3377 -2742 0
h -3379 3377 0
h -3379 2742 0
h 3380 -2742 -2742 -3381 0
h -3380 2742 0
h -3380 2742 0
h -3380 3381 0
h -3382 2744 3376 3378 3379 3380 0
h 3382 -2744 0
h 3382 -3376 0
h 3382 -3378 0
h 3382 -3379 0
h 3382 -3380 0
h 3383 -2742 -3384 0
h -3383 2742 0
h -3383 3384 0
h 3385 -3377 -3384 0
h -3385 3377 0
h -3385 3384 0
h 3386 -3377 -2746 0
h -3386 3377 0
h -3386 2746 0
h 3387 -2742 -2746 -3381 0
h -3387 2742 0
h -3387 2746 0
h -3387 3381 0
h -689 2747 3383 3385 3386 3387 0
h 689 -2747 0
h 689 -3383 0
h 689 -3385 0
h 689 -3386 0
h 689 -3387 0
h 3388 -2742 -3389 0
h -3388 2742 0
h -3388 3389 0
h 3390 -3377 -2749 0
h -3390 3377 0
h -3390 2749 0
h 3391 -3377 -3389 0
h -3391 3377 0
h -3391 3389 0
h 3392 -2742 -2749 -3381 0
h -3392 2742 0
h -3392 2749 0
h -3392 3381 0
h -687 2750 3388 3390 3391 3392 0
h 687 -2750 0
h 687 -3388 0
h 687 -3390 0
h 687 -3391 0
h 687 -3392 0
h 3393 -2752 -3389 0
h -3393 2752 0
h -3393 3389 0
h 3394 -3395 -3389 0
h -3394 3395 0
h -3394 3389 0
h 3396 -3395 -2749 0
h -3396 3395 0
h -3396 2749 0
h 3397 -2752 -2749 -3381 0
h -3397 2752 0
h -3397 2749 0
h -3397 3381 0
h -690 2753 3393 3394 3396 3397 0
h 690 -2753 0
h 690 -3393 0
h 690 -3394 0
h 690 -3396 0
h 690 -3397 0
h 3398 -2746 -3395 0
h -3398 2746 0
h -3398 3395 0
h 3399 -3384 -2752 0
h -3399 3384 0
h -3399 2752 0
h 3400 -3384 -3395 0
h -3400 3384 0
h -3400 3395 0
h 3401 -2746 -2752 -3381 0
h -3401 2746 0
h -3401 2752 0
h -3401 3381 0
h -688 2755 3398 3399 3400 3401 0
h 688 -2755 0
h 688 -3398 0
h 688 -3399 0
h 688 -3400 0
h 688 -3401 0
h 3402 -2746 -3384 0
h -3402 2746 0
h -3402 3384 0
h 3403 -3384 -3384 0
h -3403 3384 0
h -3403 3384 0
h 3404 -3384 -2746 0
h -3404 3384 0
h -3404 2746 0
h 3405 -2746 -2746 -3381 0
h -3405 2746 0
h -3405 2746 0
h -3405 3381 0
h -3406 2758 3402 3403 3404 3405 0
h 3406 -2758 0
h 3406 -3402 0
h 3406 -3403 0
h 3406 -3404 0
h 3406 -3405 0
h 3407 -3318 -3408 0
h -3407 3318 0
h -3407 3408 0
h 3409 -3408 -3408 0
h -3409 3408 0
h -3409 3408 0
h 3410 -3408 -3318 0
h -3410 3408 0
h -3410 3318 0
h 3411 -3318 -3318 -3412 0
h -3411 3318 0
h -3411 3318 0
h -3411 3412 0
h -3413 3320 3407 3409 3410 3411 0
h 3413 -3320 0
h 3413 -3407 0
h 3413 -3409 0
h 3413 -3410 0
h 3413 -3411 0
h 3414 -3318 -3415 0
h -3414 3318 0
h -3414 3415 0
h 3416 -3408 -3415 0
h -3416 3408 0
h -3416 3415 0
h 3417 -3408 -3322 0
h -3417 3408 0
h -3417 3322 0
h 3418 -3318 -3322 -3412 0
h -3418 3318 0
h -3418 3322 0
h -3418 3412 0
h -284 3323 3414 3416 3417 3418 0
h 284 -3323 0
h 284 -3414 0
h 284 -3416 0
h 284 -3417 0
h 284 -3418 0
h 3419 -3318 -3420 0
h -3419 3318 0
h -3419 3420 0
h 3421 -3408 -3325 0
h -3421 3408 0
h -3421 3325 0
h 3422 -3408 -3420 0
h -3422 3408 0
h -3422 3420 0
h 3423 -3318 -3325 -3412 0
h -3423 3318 0
h -3423 3325 0
h -3423 3412 0
h -282 3326 3419 3421 3422 3423 0
h 282 -3326 0
h 282 -3419 0
h 282 -3421 0
h 282 -3422 0
h 282 -3423 0
h 3424 -3328 -3420 0
h -3424 3328 0
h -3424 3420 0
h 3425 -3426 -3420 0
h -3425 3426 0
h -3425 3420 0
h 3427 -3426 -3325 0
h -3427 3426 0
h -3427 3325 0
h 3428 -3328 -3325 -3412 0
h -3428 3328 0
h -3428 3325 0
h -3428 3412 0
h -285 3329 3424 3425 3427 3428 0
h 285 -3329 0
h 285 -3424 0
h 285 -3425 0
h 285 -3427 0
h 285 -3428 0
h 3429 -3322 -3426 0
h -3429 3322 0
h -3429 3426 0
h 3430 -3415 -3328 0
h -3430 3415 0
h -3430 3328 0
h 3431 -3415 -3426 0
h -3431 3415 0
h -3431 3426 0
h 3432 -3322 -3328 -3412 0
h -3432 3322 0
h -3432 3328 0
h -3432 3412 0
h -283 3331 3429 3430 3431 3432 0
h 283 -3331 0
h 283 -3429 0
h 283 -3430 0
h 283 -3431 0
h 283 -3432 0
h 3433 -3322 -3415 0
h -3433 3322 0
h -3433 3415 0
h 3434 -3415 -3415 0
h -3434 3415 0
h -3434 3415 0
h 3435 -3415 -3322 0
h -3435 3415 0
h -3435 3322 0
h 3436 -3322 -3322 -3412 0
h -3436 3322 0
h -3436 3322 0
h -3436 3412 0
h -3437 3334 3433 3434 3435 3436 0
h 3437 -3334 0
h 3437 -3433 0
h 3437 -3434 0
h 3437 -3435 0
h 3437 -3436 0
h 3438 -3439 -3440 0
h -3438 3439 0
h -3438 3440 0
h 3441 -3440 -3440 0
h -3441 3440 0
h -3441 3440 0
h 3442 -3440 -3439 0
h -3442 3440 0
h -3442 3439 0
h 3443 -3439 -3439 -3444 0
h -3443 3439 0
h -3443 3439 0
h -3443 3444 0
h -3445 3446 3438 3441 3442 3443 0
h 3445 -3446 0
h 3445 -3438 0
h 3445 -3441 0
h 3445 -3442 0
h 3445 -3443 0
h 3447 -3439 -3448 0
h -3447 3439 0
h -3447 3448 0
h 3449 -3440 -3448 0
h -3449 3440 0
h -3449 3448 0
h 3450 -3440 -3451 0
h -3450 3440 0
h -3450 3451 0
h 3452 -3439 -3451 -3444 0
h -3452 3439 0
h -3452 3451 0
h -3452 3444 0
h -334 3453 3447 3449 3450 3452 0
h 334 -3453 0
h 334 -3447 0
h 334 -3449 0
h 334 -3450 0
h 334 -3452 0
h 3454 -3439 -3455 0
h -3454 3439 0
h -3454 3455 0
h 3456 -3440 -3457 0
h -3456 3440 0
h -3456 3457 0
h 3458 -3440 -3455 0
h -3458 3440 0
h -3458 3455 0
h 3459 -3439 -3457 -3444 0
h -3459 3439 0
h -3459 3457 0
h -3459 3444 0
h -332 3460 3454 3456 3458 3459 0
h 332 -3460 0
h 332 -3454 0
h 332 -3456 0
h 332 -3458 0
h 332 -3459 0
h 3461 -3462 -3455 0
h -3461 3462 0
h -3461 3455 0
h 3463 -3464 -3455 0
h -3463 3464 0
h -3463 3455 0
h 3465 -3464 -3457 0
h -3465 3464 0
h -3465 3457 0
h 3466 -3462 -3457 -3444 0
h -3466 3462 0
h -3466 3457 0
h -3466 3444 0
h -335 3467 3461 3463 3465 3466 0
h 335 -3467 0
h 335 -3461 0
h 335 -3463 0
h 335 -3465 0
h 335 -3466 0
h 3468 -3451 -3464 0
h -3468 3451 0
h -3468 3464 0
h 3469 -3448 -3462 0
h -3469 3448 0
h -3469 3462 0
h 3470 -3448 -3464 0
h -3470 3448 0
h -3470 3464 0
h 3471 -3451 -3462 -3444 0
h -3471 3451 0
h -3471 3462 0
h -3471 3444 0
h -333 3472 3468 3469 3470 3471 0
h 333 -3472 0
h 333 -3468 0
h 333 -3469 0
h 333 -3470 0
h 333 -3471 0
h 3473 -3451 -3448 0
h -3473 3451 0
h -3473 3448 0
h 3474 -3448 -3448 0
h -3474 3448 0
h -3474 3448 0
h 3475 -3448 -3451 0
h -3475 3448 0
h -3475 3451 0
h 3476 -3451 -3451 -3444 0
h -3476 3451 0
h -3476 3451 0
h -3476 3444 0
h -3477 3478 3473 3474 3475 3476 0
h 3477 -3478 0
h 3477 -3473 0
h 3477 -3474 0
h 3477 -3475 0
h 3477 -3476 0
h 3479 -3480 -3481 0
h -3479 3480 0
h -3479 3481 0
h 3482 -3481 -3481 0
h -3482 3481 0
h -3482 3481 0
h 3483 -3481 -3480 0
h -3483 3481 0
h -3483 3480 0
h 3484 -3480 -3480 -1702 0
h -3484 3480 0
h -3484 3480 0
h -3484 1702 0
h -3485 3486 3479 3482 3483 3484 0
h 3485 -3486 0
h 3485 -3479 0
h 3485 -3482 0
h 3485 -3483 0
h 3485 -3484 0
h 3487 -3480 -1705 0
h -3487 3480 0
h -3487 1705 0
h 3488 -3481 -1705 0
h -3488 3481 0
h -3488 1705 0
h 3489 -3481 -1713 0
h -3489 3481 0
h -3489 1713 0
h 3490 -3480 -1713 -1702 0
h -3490 3480 0
h -3490 1713 0
h -3490 1702 0
h -184 3491 3487 3488 3489 3490 0
h 184 -3491 0
h 184 -3487 0
h 184 -3488 0
h 184 -3489 0
h 184 -3490 0
h 3492 -3480 -1708 0
h -3492 3480 0
h -3492 1708 0
h 3493 -3481 -1711 0
h -3493 3481 0
h -3493 1711 0
h 3494 -3481 -1708 0
h -3494 3481 0
h -3494 1708 0
h 3495 -3480 -1711 -1702 0
h -3495 3480 0
h -3495 1711 0
h -3495 1702 0
h -182 3496 3492 3493 3494 3495 0
h 182 -3496 0
h 182 -3492 0
h 182 -3493 0
h 182 -3494 0
h 182 -3495 0
h 3497 -1710 -1708 0
h -3497 1710 0
h -3497 1708 0
h 3498 -1700 -1708 0
h -3498 1700 0
h -3498 1708 0
h 3499 -1700 -1711 0
h -3499 1700 0
h -3499 1711 0
h 3500 -1710 -1711 -1702 0
h -3500 1710 0
h -3500 1711 0
h -3500 1702 0
h -185 1707 3497 3498 3499 3500 0
h 185 -1707 0
h 185 -3497 0
h 185 -3498 0
h 185 -3499 0
h 185 -3500 0
h 3501 -1713 -1700 0
h -3501 1713 0
h -3501 1700 0
h 3502 -1705 -1710 0
h -3502 1705 0
h -3502 1710 0
h 3503 -1705 -1700 0
h -3503 1705 0
h -3503 1700 0
h 3504 -1713 -1710 -1702 0
h -3504 1713 0
h -3504 1710 0
h -3504 1702 0
h -183 1704 3501 3502 3503 3504 0
h 183 -1704 0
h 183 -3501 0
h 183 -3502 0
h 183 -3503 0
h 183 -3504 0
h 3505 -1713 -1705 0
h -3505 1713 0
h -3505 1705 0
h 3506 -1705 -1705 0
h -3506 1705 0
h -3506 1705 0
h 3507 -1705 -1713 0
h -3507 1705 0
h -3507 1713 0
h 3508 -1713 -1713 -1702 0
h -3508 1713 0
h -3508 1713 0
h -3508 1702 0
h -3509 1716 3505 3506 3507 3508 0
h 3509 -1716 0
h 3509 -3505 0
h 3509 -3506 0
h 3509 -3507 0
h 3509 -3508 0
h 3510 -3511 -3511 0
h -3510 3511 0
h -3510 3511 0
h -3512 3513 3510 0
h 3512 -3513 0
h 3512 -3510 0
h 3514 -3511 -3138 0
h -3514 3511 0
h -3514 3138 0
h -939 3515 3514 0
h 939 -3515 0
h 939 -3514 0
h 3516 -3511 -3136 0
h -3516 3511 0
h -3516 3136 0
h -937 3517 3516 0
h 937 -3517 0
h 937 -3516 0
h 3518 -3135 -3136 0
h -3518 3135 0
h -3518 3136 0
h -940 3132 3518 0
h 940 -3132 0
h 940 -3518 0
h 3519 -3138 -3135 0
h -3519 3138 0
h -3519 3135 0
h -938 3129 3519 0
h 938 -3129 0
h 938 -3519 0
h 3520 -3138 -3138 0
h -3520 3138 0
h -3520 3138 0
h -3521 3141 3520 0
h 3521 -3141 0
h 3521 -3520 0
h 3522 -3523 -3524 0
h -3522 3523 0
h -3522 3524 0
h 3525 -3524 -3524 0
h -3525 3524 0
h -3525 3524 0
h 3526 -3524 -3523 0
h -3526 3524 0
h -3526 3523 0
h 3527 -3523 -3523 -3528 0
h -3527 3523 0
h -3527 3523 0
h -3527 3528 0
h -3529 3530 3522 3525 3526 3527 0
h 3529 -3530 0
h 3529 -3522 0
h 3529 -3525 0
h 3529 -3526 0
h 3529 -3527 0
h 3531 -3523 -3532 0
h -3531 3523 0
h -3531 3532 0
h 3533 -3524 -3532 0
h -3533 3524 0
h -3533 3532 0
h 3534 -3524 -3535 0
h -3534 3524 0
h -3534 3535 0
h 3536 -3523 -3535 -3528 0
h -3536 3523 0
h -3536 3535 0
h -3536 3528 0
h -294 3537 3531 3533 3534 3536 0
h 294 -3537 0
h 294 -3531 0
h 294 -3533 0
h 294 -3534 0
h 294 -3536 0
h 3538 -3523 -3539 0
h -3538 3523 0
h -3538 3539 0
h 3540 -3524 -3541 0
h -3540 3524 0
h -3540 3541 0
h 3542 -3524 -3539 0
h -3542 3524 0
h -3542 3539 0
h 3543 -3523 -3541 -3528 0
h -3543 3523 0
h -3543 3541 0
h -3543 3528 0
h -292 3544 3538 3540 3542 3543 0
h 292 -3544 0
h 292 -3538 0
h 292 -3540 0
h 292 -3542 0
h 292 -3543 0
h 3545 -3546 -3539 0
h -3545 3546 0
h -3545 3539 0
h 3547 -3548 -3539 0
h -3547 3548 0
h -3547 3539 0
h 3549 -3548 -3541 0
h -3549 3548 0
h -3549 3541 0
h 3550 -3546 -3541 -3528 0
h -3550 3546 0
h -3550 3541 0
h -3550 3528 0
h -295 3551 3545 3547 3549 3550 0
h 295 -3551 0
h 295 -3545 0
h 295 -3547 0
h 295 -3549 0
h 295 -3550 0
h 3552 -3535 -3548 0
h -3552 3535 0
h -3552 3548 0
h 3553 -3532 -3546 0
h -3553 3532 0
h -3553 3546 0
h 3554 -3532 -3548 0
h -3554 3532 0
h -3554 3548 0
h 3555 -3535 -3546 -3528 0
h -3555 3535 0
h -3555 3546 0
h -3555 3528 0
h -293 3556 3552 3553 3554 3555 0
h 293 -3556 0
h 293 -3552 0
h 293 -3553 0
h 293 -3554 0
h 293 -3555 0
h 3557 -3535 -3532 0
h -3557 3535 0
h -3557 3532 0
h 3558 -3532 -3532 0
h -3558 3532 0
h -3558 3532 0
h 3559 -3532 -3535 0
h -3559 3532 0
h -3559 3535 0
h 3560 -3535 -3535 -3528 0
h -3560 3535 0
h -3560 3535 0
h -3560 3528 0
h -3561 3562 3557 3558 3559 3560 0
h 3561 -3562 0
h 3561 -3557 0
h 3561 -3558 0
h 3561 -3559 0
h 3561 -3560 0
h 3563 -1223 -1223 0
h -3563 1223 0
h -3563 1223 0
h -3564 1230 3563 0
h 3564 -1230 0
h 3564 -3563 0
h 3565 -1223 -1235 0
h -3565 1223 0
h -3565 1235 0
h -259 1237 3565 0
h 259 -1237 0
h 259 -3565 0
h 3566 -1223 -1241 0
h -3566 1223 0
h -3566 1241 0
h -257 1244 3566 0
h 257 -1244 0
h 257 -3566 0
h 3567 -1246 -1241 0
h -3567 1246 0
h -3567 1241 0
h -260 1251 3567 0
h 260 -1251 0
h 260 -3567 0
h 3568 -1235 -1246 0
h -3568 1235 0
h -3568 1246 0
h -258 1256 3568 0
h 258 -1256 0
h 258 -3568 0
h 3569 -1235 -1235 0
h -3569 1235 0
h -3569 1235 0
h -3570 1262 3569 0
h 3570 -1262 0
h 3570 -3569 0
h 3571 -2565 -2541 0
h -3571 2565 0
h -3571 2541 0
h 2542 -2541 -2541 0
h -2542 2541 0
h -2542 2541 0
h 3572 -2541 -2565 0
h -3572 2541 0
h -3572 2565 0
h 3573 -2565 -2565 -2547 0
h -3573 2565 0
h -3573 2565 0
h -3573 2547 0
h -3574 2545 3571 2542 3572 3573 0
h 3574 -2545 0
h 3574 -3571 0
h 3574 -2542 0
h 3574 -3572 0
h 3574 -3573 0
h 3575 -2565 -2554 0
h -3575 2565 0
h -3575 2554 0
h 3576 -2541 -2554 0
h -3576 2541 0
h -3576 2554 0
h 3577 -2541 -2573 0
h -3577 2541 0
h -3577 2573 0
h 3578 -2565 -2573 -2547 0
h -3578 2565 0
h -3578 2573 0
h -3578 2547 0
h -884 2549 3575 3576 3577 3578 0
h 884 -2549 0
h 884 -3575 0
h 884 -3576 0
h 884 -3577 0
h 884 -3578 0
h 3579 -2565 -2561 0
h -3579 2565 0
h -3579 2561 0
h 3580 -2541 -2568 0
h -3580 2541 0
h -3580 2568 0
h 3581 -2541 -2561 0
h -3581 2541 0
h -3581 2561 0
h 3582 -2565 -2568 -2547 0
h -3582 2565 0
h -3582 2568 0
h -3582 2547 0
h -882 2556 3579 3580 3581 3582 0
h 882 -2556 0
h 882 -3579 0
h 882 -3580 0
h 882 -3581 0
h 882 -3582 0
h 3583 -2563 -2561 0
h -3583 2563 0
h -3583 2561 0
h 3584 -2540 -2561 0
h -3584 2540 0
h -3584 2561 0
h 3585 -2540 -2568 0
h -3585 2540 0
h -3585 2568 0
h 3586 -2563 -2568 -2547 0
h -3586 2563 0
h -3586 2568 0
h -3586 2547 0
h -885 2558 3583 3584 3585 3586 0
h 885 -2558 0
h 885 -3583 0
h 885 -3584 0
h 885 -3585 0
h 885 -3586 0
h 3587 -2573 -2540 0
h -3587 2573 0
h -3587 2540 0
h 3588 -2554 -2563 0
h -3588 2554 0
h -3588 2563 0
h 3589 -2554 -2540 0
h -3589 2554 0
h -3589 2540 0
h 3590 -2573 -2563 -2547 0
h -3590 2573 0
h -3590 2563 0
h -3590 2547 0
h -883 2552 3587 3588 3589 3590 0
h 883 -2552 0
h 883 -3587 0
h 883 -3588 0
h 883 -3589 0
h 883 -3590 0
h 3591 -2573 -2554 0
h -3591 2573 0
h -3591 2554 0
h 3592 -2554 -2554 0
h -3592 2554 0
h -3592 2554 0
h 3593 -2554 -2573 0
h -3593 2554 0
h -3593 2573 0
h 3594 -2573 -2573 -2547 0
h -3594 2573 0
h -3594 2573 0
h -3594 2547 0
h -3595 2579 3591 3592 3593 3594 0
h 3595 -2579 0
h 3595 -3591 0
h 3595 -3592 0
h 3595 -3593 0
h 3595 -3594 0
h 3596 -2427 -2427 0
h -3596 2427 0
h -3596 2427 0
h -3597 2434 3596 0
h 3597 -2434 0
h 3597 -3596 0
h 3598 -2427 -2439 0
h -3598 2427 0
h -3598 2439 0
h -219 2441 3598 0
h 219 -2441 0
h 219 -3598 0
h 3599 -2427 -2445 0
h -3599 2427 0
h -3599 2445 0
h -217 2448 3599 0
h 217 -2448 0
h 217 -3599 0
h 3600 -2450 -2445 0
h -3600 2450 0
h -3600 2445 0
h -220 2455 3600 0
h 220 -2455 0
h 220 -3600 0
h 3601 -2439 -2450 0
h -3601 2439 0
h -3601 2450 0
h -218 2460 3601 0
h 218 -2460 0
h 218 -3601 0
h 3602 -2439 -2439 0
h -3602 2439 0
h -3602 2439 0
h -3603 2466 3602 0
h 3603 -2466 0
h 3603 -3602 0
h 3604 -1958 -1958 0
h -3604 1958 0
h -3604 1958 0
h -3605 1965 3604 0
h 3605 -1965 0
h 3605 -3604 0
h 3606 -1958 -1970 0
h -3606 1958 0
h -3606 1970 0
h -1049 1972 3606 0
h 1049 -1972 0
h 1049 -3606 0
h 3607 -1958 -1976 0
h -3607 1958 0
h -3607 1976 0
h -1047 1979 3607 0
h 1047 -1979 0
h 1047 -3607 0
h 3608 -1981 -1976 0
h -3608 1981 0
h -3608 1976 0
h -1050 1986 3608 0
h 1050 -1986 0
h 1050 -3608 0
h 3609 -1970 -1981 0
h -3609 1970 0
h -3609 1981 0
h -1048 1991 3609 0
h 1048 -1991 0
h 1048 -3609 0
h 3610 -1970 -1970 0
h -3610 1970 0
h -3610 1970 0
h -3611 1997 3610 0
h 3611 -1997 0
h 3611 -3610 0
h 3612 -3613 -3614 0
h -3612 3613 0
h -3612 3614 0
h 3615 -3614 -3614 0
h -3615 3614 0
h -3615 3614 0
h 3616 -3614 -3613 0
h -3616 3614 0
h -3616 3613 0
h 3617 -3613 -3613 -3618 0
h -3617 3613 0
h -3617 3613 0
h -3617 3618 0
h -3619 3620 3612 3615 3616 3617 0
h 3619 -3620 0
h 3619 -3612 0
h 3619 -3615 0
h 3619 -3616 0
h 3619 -3617 0
h 3621 -3613 -3622 0
h -3621 3613 0
h -3621 3622 0
h 3623 -3614 -3622 0
h -3623 3614 0
h -3623 3622 0
h 3624 -3614 -3625 0
h -3624 3614 0
h -3624 3625 0
h 3626 -3613 -3625 -3618 0
h -3626 3613 0
h -3626 3625 0
h -3626 3618 0
h -344 3627 3621 3623 3624 3626 0
h 344 -3627 0
h 344 -3621 0
h 344 -3623 0
h 344 -3624 0
h 344 -3626 0
h 3628 -3613 -3629 0
h -3628 3613 0
h -3628 3629 0
h 3630 -3614 -3631 0
h -3630 3614 0
h -3630 3631 0
h 3632 -3614 -3629 0
h -3632 3614 0
h -3632 3629 0
h 3633 -3613 -3631 -3618 0
h -3633 3613 0
h -3633 3631 0
h -3633 3618 0
h -342 3634 3628 3630 3632 3633 0
h 342 -3634 0
h 342 -3628 0
h 342 -3630 0
h 342 -3632 0
h 342 -3633 0
h 3635 -3636 -3629 0
h -3635 3636 0
h -3635 3629 0
h 3637 -3638 -3629 0
h -3637 3638 0
h -3637 3629 0
h 3639 -3638 -3631 0
h -3639 3638 0
h -3639 3631 0
h 3640 -3636 -3631 -3618 0
h -3640 3636 0
h -3640 3631 0
h -3640 3618 0
h -345 3641 3635 3637 3639 3640 0
h 345 -3641 0
h 345 -3635 0
h 345 -3637 0
h 345 -3639 0
h 345 -3640 0
h 3642 -3625 -3638 0
h -3642 3625 0
h -3642 3638 0
h 3643 -3622 -3636 0
h -3643 3622 0
h -3643 3636 0
h 3644 -3622 -3638 0
h -3644 3622 0
h -3644 3638 0
h 3645 -3625 -3636 -3618 0
h -3645 3625 0
h -3645 3636 0
h -3645 3618 0
h -343 3646 3642 3643 3644 3645 0
h 343 -3646 0
h 343 -3642 0
h 343 -3643 0
h 343 -3644 0
h 343 -3645 0
h 3647 -3625 -3622 0
h -3647 3625 0
h -3647 3622 0
h 3648 -3622 -3622 0
h -3648 3622 0
h -3648 3622 0
h 3649 -3622 -3625 0
h -3649 3622 0
h -3649 3625 0
h 3650 -3625 -3625 -3618 0
h -3650 3625 0
h -3650 3625 0
h -3650 3618 0
h -3651 3652 3647 3648 3649 3650 0
h 3651 -3652 0
h 3651 -3647 0
h 3651 -3648 0
h 3651 -3649 0
h 3651 -3650 0
h 3653 -3654 -3655 0
h -3653 3654 0
h -3653 3655 0
h 3656 -3655 -3655 0
h -3656 3655 0
h -3656 3655 0
h 3657 -3655 -3654 0
h -3657 3655 0
h -3657 3654 0
h 3658 -3654 -3654 -3659 0
h -3658 3654 0
h -3658 3654 0
h -3658 3659 0
h -3660 3661 3653 3656 3657 3658 0
h 3660 -3661 0
h 3660 -3653 0
h 3660 -3656 0
h 3660 -3657 0
h 3660 -3658 0
h 3662 -3654 -3663 0
h -3662 3654 0
h -3662 3663 0
h 3664 -3655 -3663 0
h -3664 3655 0
h -3664 3663 0
h 3665 -3655 -3666 0
h -3665 3655 0
h -3665 3666 0
h 3667 -3654 -3666 -3659 0
h -3667 3654 0
h -3667 3666 0
h -3667 3659 0
h -329 3668 3662 3664 3665 3667 0
h 329 -3668 0
h 329 -3662 0
h 329 -3664 0
h 329 -3665 0
h 329 -3667 0
h 3669 -3654 -3670 0
h -3669 3654 0
h -3669 3670 0
h 3671 -3655 -3672 0
h -3671 3655 0
h -3671 3672 0
h 3673 -3655 -3670 0
h -3673 3655 0
h -3673 3670 0
h 3674 -3654 -3672 -3659 0
h -3674 3654 0
h -3674 3672 0
h -3674 3659 0
h -327 3675 3669 3671 3673 3674 0
h 327 -3675 0
h 327 -3669 0
h 327 -3671 0
h 327 -3673 0
h 327 -3674 0
h 3676 -3677 -3670 0
h -3676 3677 0
h -3676 3670 0
h 3678 -3679 -3670 0
h -3678 3679 0
h -3678 3670 0
h 3680 -3679 -3672 0
h -3680 3679 0
h -3680 3672 0
h 3681 -3677 -3672 -3659 0
h -3681 3677 0
h -3681 3672 0
h -3681 3659 0
h -330 3682 3676 3678 3680 3681 0
h 330 -3682 0
h 330 -3676 0
h 330 -3678 0
h 330 -3680 0
h 330 -3681 0
h 3683 -3666 -3679 0
h -3683 3666 0
h -3683 3679 0
h 3684 -3663 -3677 0
h -3684 3663 0
h -3684 3677 0
h 3685 -3663 -3679 0
h -3685 3663 0
h -3685 3679 0
h 3686 -3666 -3677 -3659 0
h -3686 3666 0
h -3686 3677 0
h -3686 3659 0
h -328 3687 3683 3684 3685 3686 0
h 328 -3687 0
h 328 -3683 0
h 328 -3684 0
h 328 -3685 0
h 328 -3686 0
h 3688 -3666 -3663 0
h -3688 3666 0
h -3688 3663 0
h 3689 -3663 -3663 0
h -3689 3663 0
h -3689 3663 0
h 3690 -3663 -3666 0
h -3690 3663 0
h -3690 3666 0
h 3691 -3666 -3666 -3659 0
h -3691 3666 0
h -3691 3666 0
h -3691 3659 0
h -3692 3693 3688 3689 3690 3691 0
h 3692 -3693 0
h 3692 -3688 0
h 3692 -3689 0
h 3692 -3690 0
h 3692 -3691 0
h 3694 -2486 -2486 0
h -3694 2486 0
h -3694 2486 0
h -3695 2472 3694 0
h 3695 -2472 0
h 3695 -3694 0
h 3696 -2486 -2348 0
h -3696 2486 0
h -3696 2348 0
h -159 2475 3696 0
h 159 -2475 0
h 159 -3696 0
h 3697 -2486 -2346 0
h -3697 2486 0
h -3697 2346 0
h -157 2480 3697 0
h 157 -2480 0
h 157 -3697 0
h 3698 -2345 -2346 0
h -3698 2345 0
h -3698 2346 0
h -160 2342 3698 0
h 160 -2342 0
h 160 -3698 0
h 3699 -2348 -2345 0
h -3699 2348 0
h -3699 2345 0
h -158 2339 3699 0
h 158 -2339 0
h 158 -3699 0
h 3700 -2348 -2348 0
h -3700 2348 0
h -3700 2348 0
h -3701 2351 3700 0
h 3701 -2351 0
h 3701 -3700 0
h 3702 -3703 -3703 0
h -3702 3703 0
h -3702 3703 0
h -3704 3705 3702 0
h 3704 -3705 0
h 3704 -3702 0
h 3706 -3703 -3707 0
h -3706 3703 0
h -3706 3707 0
h -914 3708 3706 0
h 914 -3708 0
h 914 -3706 0
h 3709 -3703 -3710 0
h -3709 3703 0
h -3709 3710 0
h -912 3711 3709 0
h 912 -3711 0
h 912 -3709 0
h 3712 -3713 -3710 0
h -3712 3713 0
h -3712 3710 0
h -915 3714 3712 0
h 915 -3714 0
h 915 -3712 0
h 3715 -3707 -3713 0
h -3715 3707 0
h -3715 3713 0
h -913 3716 3715 0
h 913 -3716 0
h 913 -3715 0
h 3717 -3707 -3707 0
h -3717 3707 0
h -3717 3707 0
h -3718 3719 3717 0
h 3718 -3719 0
h 3718 -3717 0
h 3720 -3721 -3721 0
h -3720 3721 0
h -3720 3721 0
h -3722 3723 3720 0
h 3722 -3723 0
h 3722 -3720 0
h 3724 -3721 -3725 0
h -3724 3721 0
h -3724 3725 0
h -684 3726 3724 0
h 684 -3726 0
h 684 -3724 0
h 3727 -3721 -3728 0
h -3727 3721 0
h -3727 3728 0
h -682 3729 3727 0
h 682 -3729 0
h 682 -3727 0
h 3730 -3731 -3728 0
h -3730 3731 0
h -3730 3728 0
h -685 3732 3730 0
h 685 -3732 0
h 685 -3730 0
h 3733 -3725 -3731 0
h -3733 3725 0
h -3733 3731 0
h -683 3734 3733 0
h 683 -3734 0
h 683 -3733 0
h 3735 -3725 -3725 0
h -3735 3725 0
h -3735 3725 0
h -3736 3737 3735 0
h 3736 -3737 0
h 3736 -3735 0
h 3738 -3739 -3740 0
h -3738 3739 0
h -3738 3740 0
h 3741 -3740 -3740 0
h -3741 3740 0
h -3741 3740 0
h 3742 -3740 -3739 0
h -3742 3740 0
h -3742 3739 0
h 3743 -3739 -3739 -3744 0
h -3743 3739 0
h -3743 3739 0
h -3743 3744 0
h -3745 3746 3738 3741 3742 3743 0
h 3745 -3746 0
h 3745 -3738 0
h 3745 -3741 0
h 3745 -3742 0
h 3745 -3743 0
h 3747 -3739 -3748 0
h -3747 3739 0
h -3747 3748 0
h 3749 -3740 -3748 0
h -3749 3740 0
h -3749 3748 0
h 3750 -3740 -3751 0
h -3750 3740 0
h -3750 3751 0
h 3752 -3739 -3751 -3744 0
h -3752 3739 0
h -3752 3751 0
h -3752 3744 0
h -819 3753 3747 3749 3750 3752 0
h 819 -3753 0
h 819 -3747 0
h 819 -3749 0
h 819 -3750 0
h 819 -3752 0
h 3754 -3739 -3755 0
h -3754 3739 0
h -3754 3755 0
h 3756 -3740 -3757 0
h -3756 3740 0
h -3756 3757 0
h 3758 -3740 -3755 0
h -3758 3740 0
h -3758 3755 0
h 3759 -3739 -3757 -3744 0
h -3759 3739 0
h -3759 3757 0
h -3759 3744 0
h -817 3760 3754 3756 3758 3759 0
h 817 -3760 0
h 817 -3754 0
h 817 -3756 0
h 817 -3758 0
h 817 -3759 0
h 3761 -3762 -3755 0
h -3761 3762 0
h -3761 3755 0
h 3763 -3764 -3755 0
h -3763 3764 0
h -3763 3755 0
h 3765 -3764 -3757 0
h -3765 3764 0
h -3765 3757 0
h 3766 -3762 -3757 -3744 0
h -3766 3762 0
h -3766 3757 0
h -3766 3744 0
h -820 3767 3761 3763 3765 3766 0
h 820 -3767 0
h 820 -3761 0
h 820 -3763 0
h 820 -3765 0
h 820 -3766 0
h 3768 -3751 -3764 0
h -3768 3751 0
h -3768 3764 0
h 3769 -3748 -3762 0
h -3769 3748 0
h -3769 3762 0
h 3770 -3748 -3764 0
h -3770 3748 0
h -3770 3764 0
h 3771 -3751 -3762 -3744 0
h -3771 3751 0
h -3771 3762 0
h -3771 3744 0
h -818 3772 3768 3769 3770 3771 0
h 818 -3772 0
h 818 -3768 0
h 818 -3769 0
h 818 -3770 0
h 818 -3771 0
h 3773 -3751 -3748 0
h -3773 3751 0
h -3773 3748 0
h 3774 -3748 -3748 0
h -3774 3748 0
h -3774 3748 0
h 3775 -3748 -3751 0
h -3775 3748 0
h -3775 3751 0
h 3776 -3751 -3751 -3744 0
h -3776 3751 0
h -3776 3751 0
h -3776 3744 0
h -3777 3778 3773 3774 3775 3776 0
h 3777 -3778 0
h 3777 -3773 0
h 3777 -3774 0
h 3777 -3775 0
h 3777 -3776 0
h 3779 -1466 -1466 0
h -3779 1466 0
h -3779 1466 0
h -3780 1446 3779 0
h 3780 -1446 0
h 3780 -3779 0
h 3781 -1466 -1474 0
h -3781 1466 0
h -3781 1474 0
h -634 1450 3781 0
h 634 -1450 0
h 634 -3781 0
h 3782 -1466 -1469 0
h -3782 1466 0
h -3782 1469 0
h -632 1457 3782 0
h 632 -1457 0
h 632 -3782 0
h 3783 -1464 -1469 0
h -3783 1464 0
h -3783 1469 0
h -635 1459 3783 0
h 635 -1459 0
h 635 -3783 0
h 3784 -1474 -1464 0
h -3784 1474 0
h -3784 1464 0
h -633 1453 3784 0
h 633 -1453 0
h 633 -3784 0
h 3785 -1474 -1474 0
h -3785 1474 0
h -3785 1474 0
h -3786 1480 3785 0
h 3786 -1480 0
h 3786 -3785 0
h 3787 -3480 -3480 0
h -3787 3480 0
h -3787 3480 0
h -3788 3486 3787 0
h 3788 -3486 0
h 3788 -3787 0
h 3789 -3480 -1713 0
h -3789 3480 0
h -3789 1713 0
h -529 3491 3789 0
h 529 -3491 0
h 529 -3789 0
h 3790 -3480 -1711 0
h -3790 3480 0
h -3790 1711 0
h -527 3496 3790 0
h 527 -3496 0
h 527 -3790 0
h 3791 -1710 -1711 0
h -3791 1710 0
h -3791 1711 0
h -530 1707 3791 0
h 530 -1707 0
h 530 -3791 0
h 3792 -1713 -1710 0
h -3792 1713 0
h -3792 1710 0
h -528 1704 3792 0
h 528 -1704 0
h 528 -3792 0
h 3793 -1713 -1713 0
h -3793 1713 0
h -3793 1713 0
h -3794 1716 3793 0
h 3794 -1716 0
h 3794 -3793 0
h 3795 -3796 -3797 0
h -3795 3796 0
h -3795 3797 0
h 3798 -3797 -3797 0
h -3798 3797 0
h -3798 3797 0
h 3799 -3797 -3796 0
h -3799 3797 0
h -3799 3796 0
h 3800 -3796 -3796 -3801 0
h -3800 3796 0
h -3800 3796 0
h -3800 3801 0
h -3802 3803 3795 3798 3799 3800 0
h 3802 -3803 0
h 3802 -3795 0
h 3802 -3798 0
h 3802 -3799 0
h 3802 -3800 0
h 3804 -3796 -3805 0
h -3804 3796 0
h -3804 3805 0
h 3806 -3797 -3805 0
h -3806 3797 0
h -3806 3805 0
h 3807 -3797 -3808 0
h -3807 3797 0
h -3807 3808 0
h 3809 -3796 -3808 -3801 0
h -3809 3796 0
h -3809 3808 0
h -3809 3801 0
h -579 3810 3804 3806 3807 3809 0
h 579 -3810 0
h 579 -3804 0
h 579 -3806 0
h 579 -3807 0
h 579 -3809 0
h 3811 -3796 -3812 0
h -3811 3796 0
h -3811 3812 0
h 3813 -3797 -3814 0
h -3813 3797 0
h -3813 3814 0
h 3815 -3797 -3812 0
h -3815 3797 0
h -3815 3812 0
h 3816 -3796 -3814 -3801 0
h -3816 3796 0
h -3816 3814 0
h -3816 3801 0
h -577 3817 3811 3813 3815 3816 0
h 577 -3817 0
h 577 -3811 0
h 577 -3813 0
h 577 -3815 0
h 577 -3816 0
h 3818 -3819 -3812 0
h -3818 3819 0
h -3818 3812 0
h 3820 -3821 -3812 0
h -3820 3821 0
h -3820 3812 0
h 3822 -3821 -3814 0
h -3822 3821 0
h -3822 3814 0
h 3823 -3819 -3814 -3801 0
h -3823 3819 0
h -3823 3814 0
h -3823 3801 0
h -580 3824 3818 3820 3822 3823 0
h 580 -3824 0
h 580 -3818 0
h 580 -3820 0
h 580 -3822 0
h 580 -3823 0
h 3825 -3808 -3821 0
h -3825 3808 0
h -3825 3821 0
h 3826 -3805 -3819 0
h -3826 3805 0
h -3826 3819 0
h 3827 -3805 -3821 0
h -3827 3805 0
h -3827 3821 0
h 3828 -3808 -3819 -3801 0
h -3828 3808 0
h -3828 3819 0
h -3828 3801 0
h -578 3829 3825 3826 3827 3828 0
h 578 -3829 0
h 578 -3825 0
h 578 -3826 0
h 578 -3827 0
h 578 -3828 0
h 3830 -3808 -3805 0
h -3830 3808 0
h -3830 3805 0
h 3831 -3805 -3805 0
h -3831 3805 0
h -3831 3805 0
h 3832 -3805 -3808 0
h -3832 3805 0
h -3832 3808 0
h 3833 -3808 -3808 -3801 0
h -3833 3808 0
h -3833 3808 0
h -3833 3801 0
h -3834 3835 3830 3831 3832 3833 0
h 3834 -3835 0
h 3834 -3830 0
h 3834 -3831 0
h 3834 -3832 0
h 3834 -3833 0
h 3836 -3046 -3837 0
h -3836 3046 0
h -3836 3837 0
h 3838 -3837 -3837 0
h -3838 3837 0
h -3838 3837 0
h 3839 -3837 -3046 0
h -3839 3837 0
h -3839 3046 0
h 3840 -3046 -3046 -3841 0
h -3840 3046 0
h -3840 3046 0
h -3840 3841 0
h -3842 3048 3836 3838 3839 3840 0
h 3842 -3048 0
h 3842 -3836 0
h 3842 -3838 0
h 3842 -3839 0
h 3842 -3840 0
h 3843 -3046 -3844 0
h -3843 3046 0
h -3843 3844 0
h 3845 -3837 -3844 0
h -3845 3837 0
h -3845 3844 0
h 3846 -3837 -3050 0
h -3846 3837 0
h -3846 3050 0
h 3847 -3046 -3050 -3841 0
h -3847 3046 0
h -3847 3050 0
h -3847 3841 0
h -809 3051 3843 3845 3846 3847 0
h 809 -3051 0
h 809 -3843 0
h 809 -3845 0
h 809 -3846 0
h 809 -3847 0
h 3848 -3046 -3849 0
h -3848 3046 0
h -3848 3849 0
h 3850 -3837 -3053 0
h -3850 3837 0
h -3850 3053 0
h 3851 -3837 -3849 0
h -3851 3837 0
h -3851 3849 0
h 3852 -3046 -3053 -3841 0
h -3852 3046 0
h -3852 3053 0
h -3852 3841 0
h -807 3054 3848 3850 3851 3852 0
h 807 -3054 0
h 807 -3848 0
h 807 -3850 0
h 807 -3851 0
h 807 -3852 0
h 3853 -3056 -3849 0
h -3853 3056 0
h -3853 3849 0
h 3854 -3855 -3849 0
h -3854 3855 0
h -3854 3849 0
h 3856 -3855 -3053 0
h -3856 3855 0
h -3856 3053 0
h 3857 -3056 -3053 -3841 0
h -3857 3056 0
h -3857 3053 0
h -3857 3841 0
h -810 3057 3853 3854 3856 3857 0
h 810 -3057 0
h 810 -3853 0
h 810 -3854 0
h 810 -3856 0
h 810 -3857 0
h 3858 -3050 -3855 0
h -3858 3050 0
h -3858 3855 0
h 3859 -3844 -3056 0
h -3859 3844 0
h -3859 3056 0
h 3860 -3844 -3855 0
h -3860 3844 0
h -3860 3855 0
h 3861 -3050 -3056 -3841 0
h -3861 3050 0
h -3861 3056 0
h -3861 3841 0
h -808 3059 3858 3859 3860 3861 0
h 808 -3059 0
h 808 -3858 0
h 808 -3859 0
h 808 -3860 0
h 808 -3861 0
h 3862 -3050 -3844 0
h -3862 3050 0
h -3862 3844 0
h 3863 -3844 -3844 0
h -3863 3844 0
h -3863 3844 0
h 3864 -3844 -3050 0
h -3864 3844 0
h -3864 3050 0
h 3865 -3050 -3050 -3841 0
h -3865 3050 0
h -3865 3050 0
h -3865 3841 0
h -3866 3062 3862 3863 3864 3865 0
h 3866 -3062 0
h 3866 -3862 0
h 3866 -3863 0
h 3866 -3864 0
h 3866 -3865 0
h 3867 -3041 -3041 0
h -3867 3041 0
h -3867 3041 0
h -3868 3044 3867 0
h 3868 -3044 0
h 3868 -3867 0
h 3869 -3041 -2635 0
h -3869 3041 0
h -3869 2635 0
h -1154 3870 3869 0
h 1154 -3870 0
h 1154 -3869 0
h 3871 -3041 -2633 0
h -3871 3041 0
h -3871 2633 0
h -1152 3036 3871 0
h 1152 -3036 0
h 1152 -3871 0
h 3872 -2632 -2633 0
h -3872 2632 0
h -3872 2633 0
h -1155 2629 3872 0
h 1155 -2629 0
h 1155 -3872 0
h 3873 -2635 -2632 0
h -3873 2635 0
h -3873 2632 0
h -1153 2626 3873 0
h 1153 -2626 0
h 1153 -3873 0
h 3874 -2635 -2635 0
h -3874 2635 0
h -3874 2635 0
h -3875 2638 3874 0
h 3875 -2638 0
h 3875 -3874 0
h 3876 -3877 -3878 0
h -3876 3877 0
h -3876 3878 0
h 3879 -3878 -3878 0
h -3879 3878 0
h -3879 3878 0
h 3880 -3878 -3877 0
h -3880 3878 0
h -3880 3877 0
h 3881 -3877 -3877 -3705 0
h -3881 3877 0
h -3881 3877 0
h -3881 3705 0
h -3882 3883 3876 3879 3880 3881 0
h 3882 -3883 0
h 3882 -3876 0
h 3882 -3879 0
h 3882 -3880 0
h 3882 -3881 0
h 3884 -3877 -3708 0
h -3884 3877 0
h -3884 3708 0
h 3885 -3878 -3708 0
h -3885 3878 0
h -3885 3708 0
h 3886 -3878 -3716 0
h -3886 3878 0
h -3886 3716 0
h 3887 -3877 -3716 -3705 0
h -3887 3877 0
h -3887 3716 0
h -3887 3705 0
h -639 3888 3884 3885 3886 3887 0
h 639 -3888 0
h 639 -3884 0
h 639 -3885 0
h 639 -3886 0
h 639 -3887 0
h 3889 -3877 -3711 0
h -3889 3877 0
h -3889 3711 0
h 3890 -3878 -3714 0
h -3890 3878 0
h -3890 3714 0
h 3891 -3878 -3711 0
h -3891 3878 0
h -3891 3711 0
h 3892 -3877 -3714 -3705 0
h -3892 3877 0
h -3892 3714 0
h -3892 3705 0
h -637 3893 3889 3890 3891 3892 0
h 637 -3893 0
h 637 -3889 0
h 637 -3890 0
h 637 -3891 0
h 637 -3892 0
h 3894 -3713 -3711 0
h -3894 3713 0
h -3894 3711 0
h 3895 -3703 -3711 0
h -3895 3703 0
h -3895 3711 0
h 3896 -3703 -3714 0
h -3896 3703 0
h -3896 3714 0
h 3897 -3713 -3714 -3705 0
h -3897 3713 0
h -3897 3714 0
h -3897 3705 0
h -640 3710 3894 3895 3896 3897 0
h 640 -3710 0
h 640 -3894 0
h 640 -3895 0
h 640 -3896 0
h 640 -3897 0
h 3898 -3716 -3703 0
h -3898 3716 0
h -3898 3703 0
h 3899 -3708 -3713 0
h -3899 3708 0
h -3899 3713 0
h 3900 -3708 -3703 0
h -3900 3708 0
h -3900 3703 0
h 3901 -3716 -3713 -3705 0
h -3901 3716 0
h -3901 3713 0
h -3901 3705 0
h -638 3707 3898 3899 3900 3901 0
h 638 -3707 0
h 638 -3898 0
h 638 -3899 0
h 638 -3900 0
h 638 -3901 0
h 3902 -3716 -3708 0
h -3902 3716 0
h -3902 3708 0
h 3903 -3708 -3708 0
h -3903 3708 0
h -3903 3708 0
h 3904 -3708 -3716 0
h -3904 3708 0
h -3904 3716 0
h 3905 -3716 -3716 -3705 0
h -3905 3716 0
h -3905 3716 0
h -3905 3705 0
h -3906 3719 3902 3903 3904 3905 0
h 3906 -3719 0
h 3906 -3902 0
h 3906 -3903 0
h 3906 -3904 0
h 3906 -3905 0
h 3907 -1618 -1618 0
h -3907 1618 0
h -3907 1618 0
h -3908 1625 3907 0
h 3908 -1625 0
h 3908 -3907 0
h 3909 -1618 -1630 0
h -3909 1618 0
h -3909 1630 0
h -1094 1632 3909 0
h 1094 -1632 0
h 1094 -3909 0
h 3910 -1618 -1636 0
h -3910 1618 0
h -3910 1636 0
h -1092 1639 3910 0
h 1092 -1639 0
h 1092 -3910 0
h 3911 -1641 -1636 0
h -3911 1641 0
h -3911 1636 0
h -1095 1646 3911 0
h 1095 -1646 0
h 1095 -3911 0
h 3912 -1630 -1641 0
h -3912 1630 0
h -3912 1641 0
h -1093 1651 3912 0
h 1093 -1651 0
h 1093 -3912 0
h 3913 -1630 -1630 0
h -3913 1630 0
h -3913 1630 0
h -3914 1657 3913 0
h 3914 -1657 0
h 3914 -3913 0
h 3915 -3916 -3917 0
h -3915 3916 0
h -3915 3917 0
h 3918 -3917 -3917 0
h -3918 3917 0
h -3918 3917 0
h 3919 -3917 -3916 0
h -3919 3917 0
h -3919 3916 0
h 3920 -3916 -3916 -3921 0
h -3920 3916 0
h -3920 3916 0
h -3920 3921 0
h -3922 3923 3915 3918 3919 3920 0
h 3922 -3923 0
h 3922 -3915 0
h 3922 -3918 0
h 3922 -3919 0
h 3922 -3920 0
h 3924 -3916 -3925 0
h -3924 3916 0
h -3924 3925 0
h 3926 -3917 -3925 0
h -3926 3917 0
h -3926 3925 0
h 3927 -3917 -3928 0
h -3927 3917 0
h -3927 3928 0
h 3929 -3916 -3928 -3921 0
h -3929 3916 0
h -3929 3928 0
h -3929 3921 0
h -354 3930 3924 3926 3927 3929 0
h 354 -3930 0
h 354 -3924 0
h 354 -3926 0
h 354 -3927 0
h 354 -3929 0
h 3931 -3916 -3932 0
h -3931 3916 0
h -3931 3932 0
h 3933 -3917 -3934 0
h -3933 3917 0
h -3933 3934 0
h 3935 -3917 -3932 0
h -3935 3917 0
h -3935 3932 0
h 3936 -3916 -3934 -3921 0
h -3936 3916 0
h -3936 3934 0
h -3936 3921 0
h -352 3937 3931 3933 3935 3936 0
h 352 -3937 0
h 352 -3931 0
h 352 -3933 0
h 352 -3935 0
h 352 -3936 0
h 3938 -3939 -3932 0
h -3938 3939 0
h -3938 3932 0
h 3940 -3941 -3932 0
h -3940 3941 0
h -3940 3932 0
h 3942 -3941 -3934 0
h -3942 3941 0
h -3942 3934 0
h 3943 -3939 -3934 -3921 0
h -3943 3939 0
h -3943 3934 0
h -3943 3921 0
h -355 3944 3938 3940 3942 3943 0
h 355 -3944 0
h 355 -3938 0
h 355 -3940 0
h 355 -3942 0
h 355 -3943 0
h 3945 -3928 -3941 0
h -3945 3928 0
h -3945 3941 0
h 3946 -3925 -3939 0
h -3946 3925 0
h -3946 3939 0
h 3947 -3925 -3941 0
h -3947 3925 0
h -3947 3941 0
h 3948 -3928 -3939 -3921 0
h -3948 3928 0
h -3948 3939 0
h -3948 3921 0
h -353 3949 3945 3946 3947 3948 0
h 353 -3949 0
h 353 -3945 0
h 353 -3946 0
h 353 -3947 0
h 353 -3948 0
h 3950 -3928 -3925 0
h -3950 3928 0
h -3950 3925 0
h 3951 -3925 -3925 0
h -3951 3925 0
h -3951 3925 0
h 3952 -3925 -3928 0
h -3952 3925 0
h -3952 3928 0
h 3953 -3928 -3928 -3921 0
h -3953 3928 0
h -3953 3928 0
h -3953 3921 0
h -3954 3955 3950 3951 3952 3953 0
h 3954 -3955 0
h 3954 -3950 0
h 3954 -3951 0
h 3954 -3952 0
h 3954 -3953 0
h 3956 -3957 -3957 0
h -3956 3957 0
h -3956 3957 0
h -3958 3959 3956 0
h 3958 -3959 0
h 3958 -3956 0
h 3960 -3957 -2397 0
h -3960 3957 0
h -3960 2397 0
h -934 3961 3960 0
h 934 -3961 0
h 934 -3960 0
h 3962 -3957 -2395 0
h -3962 3957 0
h -3962 2395 0
h -932 3963 3962 0
h 932 -3963 0
h 932 -3962 0
h 3964 -2394 -2395 0
h -3964 2394 0
h -3964 2395 0
h -935 2391 3964 0
h 935 -2391 0
h 935 -3964 0
h 3965 -2397 -2394 0
h -3965 2397 0
h -3965 2394 0
h -933 2388 3965 0
h 933 -2388 0
h 933 -3965 0
h 3966 -2397 -2397 0
h -3966 2397 0
h -3966 2397 0
h -3967 2400 3966 0
h 3967 -2400 0
h 3967 -3966 0
h 3968 -3969 -3970 0
h -3968 3969 0
h -3968 3970 0
h 3971 -3970 -3970 0
h -3971 3970 0
h -3971 3970 0
h 3972 -3970 -3969 0
h -3972 3970 0
h -3972 3969 0
h 3973 -3969 -3969 -3974 0
h -3973 3969 0
h -3973 3969 0
h -3973 3974 0
h -3975 3976 3968 3971 3972 3973 0
h 3975 -3976 0
h 3975 -3968 0
h 3975 -3971 0
h 3975 -3972 0
h 3975 -3973 0
h 3977 -3969 -3978 0
h -3977 3969 0
h -3977 3978 0
h 3979 -3970 -3978 0
h -3979 3970 0
h -3979 3978 0
h 3980 -3970 -3981 0
h -3980 3970 0
h -3980 3981 0
h 3982 -3969 -3981 -3974 0
h -3982 3969 0
h -3982 3981 0
h -3982 3974 0
h -524 3983 3977 3979 3980 3982 0
h 524 -3983 0
h 524 -3977 0
h 524 -3979 0
h 524 -3980 0
h 524 -3982 0
h 3984 -3969 -3985 0
h -3984 3969 0
h -3984 3985 0
h 3986 -3970 -3987 0
h -3986 3970 0
h -3986 3987 0
h 3988 -3970 -3985 0
h -3988 3970 0
h -3988 3985 0
h 3989 -3969 -3987 -3974 0
h -3989 3969 0
h -3989 3987 0
h -3989 3974 0
h -522 3990 3984 3986 3988 3989 0
h 522 -3990 0
h 522 -3984 0
h 522 -3986 0
h 522 -3988 0
h 522 -3989 0
h 3991 -3992 -3985 0
h -3991 3992 0
h -3991 3985 0
h 3993 -3994 -3985 0
h -3993 3994 0
h -3993 3985 0
h 3995 -3994 -3987 0
h -3995 3994 0
h -3995 3987 0
h 3996 -3992 -3987 -3974 0
h -3996 3992 0
h -3996 3987 0
h -3996 3974 0
h -525 3997 3991 3993 3995 3996 0
h 525 -3997 0
h 525 -3991 0
h 525 -3993 0
h 525 -3995 0
h 525 -3996 0
h 3998 -3981 -3994 0
h -3998 3981 0
h -3998 3994 0
h 3999 -3978 -3992 0
h -3999 3978 0
h -3999 3992 0
h 4000 -3978 -3994 0
h -4000 3978 0
h -4000 3994 0
h 4001 -3981 -3992 -3974 0
h -4001 3981 0
h -4001 3992 0
h -4001 3974 0
h -523 4002 3998 3999 4000 4001 0
h 523 -4002 0
h 523 -3998 0
h 523 -3999 0
h 523 -4000 0
h 523 -4001 0
h 4003 -3981 -3978 0
h -4003 3981 0
h -4003 3978 0
h 4004 -3978 -3978 0
h -4004 3978 0
h -4004 3978 0
h 4005 -3978 -3981 0
h -4005 3978 0
h -4005 3981 0
h 4006 -3981 -3981 -3974 0
h -4006 3981 0
h -4006 3981 0
h -4006 3974 0
h -4007 4008 4003 4004 4005 4006 0
h 4007 -4008 0
h 4007 -4003 0
h 4007 -4004 0
h 4007 -4005 0
h 4007 -4006 0
h 4009 -3969 -3969 0
h -4009 3969 0
h -4009 3969 0
h -4010 3976 4009 0
h 4010 -3976 0
h 4010 -4009 0
h 4011 -3969 -3981 0
h -4011 3969 0
h -4011 3981 0
h -919 3983 4011 0
h 919 -3983 0
h 919 -4011 0
h 4012 -3969 -3987 0
h -4012 3969 0
h -4012 3987 0
h -917 3990 4012 0
h 917 -3990 0
h 917 -4012 0
h 4013 -3992 -3987 0
h -4013 3992 0
h -4013 3987 0
h -920 3997 4013 0
h 920 -3997 0
h 920 -4013 0
h 4014 -3981 -3992 0
h -4014 3981 0
h -4014 3992 0
h -918 4002 4014 0
h 918 -4002 0
h 918 -4014 0
h 4015 -3981 -3981 0
h -4015 3981 0
h -4015 3981 0
h -4016 4008 4015 0
h 4016 -4008 0
h 4016 -4015 0
h 4017 -2640 -2640 0
h -4017 2640 0
h -4017 2640 0
h -4018 2647 4017 0
h 4018 -2647 0
h 4018 -4017 0
h 4019 -2640 -2652 0
h -4019 2640 0
h -4019 2652 0
h -504 2654 4019 0
h 504 -2654 0
h 504 -4019 0
h 4020 -2640 -2658 0
h -4020 2640 0
h -4020 2658 0
h -502 2661 4020 0
h 502 -2661 0
h 502 -4020 0
h 4021 -2663 -2658 0
h -4021 2663 0
h -4021 2658 0
h -505 2668 4021 0
h 505 -2668 0
h 505 -4021 0
h 4022 -2652 -2663 0
h -4022 2652 0
h -4022 2663 0
h -503 2673 4022 0
h 503 -2673 0
h 503 -4022 0
h 4023 -2652 -2652 0
h -4023 2652 0
h -4023 2652 0
h -4024 2679 4023 0
h 4024 -2679 0
h 4024 -4023 0
h 4025 -3916 -3916 0
h -4025 3916 0
h -4025 3916 0
h -4026 3923 4025 0
h 4026 -3923 0
h 4026 -4025 0
h 4027 -3916 -3928 0
h -4027 3916 0
h -4027 3928 0
h -784 3930 4027 0
h 784 -3930 0
h 784 -4027 0
h 4028 -3916 -3934 0
h -4028 3916 0
h -4028 3934 0
h -782 3937 4028 0
h 782 -3937 0
h 782 -4028 0
h 4029 -3939 -3934 0
h -4029 3939 0
h -4029 3934 0
h -785 3944 4029 0
h 785 -3944 0
h 785 -4029 0
h 4030 -3928 -3939 0
h -4030 3928 0
h -4030 3939 0
h -783 3949 4030 0
h 783 -3949 0
h 783 -4030 0
h 4031 -3928 -3928 0
h -4031 3928 0
h -4031 3928 0
h -4032 3955 4031 0
h 4032 -3955 0
h 4032 -4031 0
h 4033 -4034 -4034 0
h -4033 4034 0
h -4033 4034 0
h -4035 4036 4033 0
h 4035 -4036 0
h 4035 -4033 0
h 4037 -4034 -4038 0
h -4037 4034 0
h -4037 4038 0
h -199 4039 4037 0
h 199 -4039 0
h 199 -4037 0
h 4040 -4034 -4041 0
h -4040 4034 0
h -4040 4041 0
h -197 4042 4040 0
h 197 -4042 0
h 197 -4040 0
h 4043 -4044 -4041 0
h -4043 4044 0
h -4043 4041 0
h -200 4045 4043 0
h 200 -4045 0
h 200 -4043 0
h 4046 -4038 -4044 0
h -4046 4038 0
h -4046 4044 0
h -198 4047 4046 0
h 198 -4047 0
h 198 -4046 0
h 4048 -4038 -4038 0
h -4048 4038 0
h -4048 4038 0
h -4049 4050 4048 0
h 4049 -4050 0
h 4049 -4048 0
h 4051 -4052 -4052 0
h -4051 4052 0
h -4051 4052 0
h -4053 4054 4051 0
h 4053 -4054 0
h 4053 -4051 0
h 4055 -4052 -4056 0
h -4055 4052 0
h -4055 4056 0
h -1089 4057 4055 0
h 1089 -4057 0
h 1089 -4055 0
h 4058 -4052 -4059 0
h -4058 4052 0
h -4058 4059 0
h -1087 4060 4058 0
h 1087 -4060 0
h 1087 -4058 0
h 4061 -4062 -4059 0
h -4061 4062 0
h -4061 4059 0
h -1090 4063 4061 0
h 1090 -4063 0
h 1090 -4061 0
h 4064 -4056 -4062 0
h -4064 4056 0
h -4064 4062 0
h -1088 4065 4064 0
h 1088 -4065 0
h 1088 -4064 0
h 4066 -4056 -4056 0
h -4066 4056 0
h -4066 4056 0
h -4067 4068 4066 0
h 4067 -4068 0
h 4067 -4066 0
h 4069 -4070 -4071 0
h -4069 4070 0
h -4069 4071 0
h 4072 -4071 -4071 0
h -4072 4071 0
h -4072 4071 0
h 4073 -4071 -4070 0
h -4073 4071 0
h -4073 4070 0
h 4074 -4070 -4070 -4075 0
h -4074 4070 0
h -4074 4070 0
h -4074 4075 0
h -4076 4077 4069 4072 4073 4074 0
h 4076 -4077 0
h 4076 -4069 0
h 4076 -4072 0
h 4076 -4073 0
h 4076 -4074 0
h 4078 -4070 -4079 0
h -4078 4070 0
h -4078 4079 0
h 4080 -4071 -4079 0
h -4080 4071 0
h -4080 4079 0
h 4081 -4071 -4082 0
h -4081 4071 0
h -4081 4082 0
h 4083 -4070 -4082 -4075 0
h -4083 4070 0
h -4083 4082 0
h -4083 4075 0
h -349 4084 4078 4080 4081 4083 0
h 349 -4084 0
h 349 -4078 0
h 349 -4080 0
h 349 -4081 0
h 349 -4083 0
h 4085 -4070 -4086 0
h -4085 4070 0
h -4085 4086 0
h 4087 -4071 -4088 0
h -4087 4071 0
h -4087 4088 0
h 4089 -4071 -4086 0
h -4089 4071 0
h -4089 4086 0
h 4090 -4070 -4088 -4075 0
h -4090 4070 0
h -4090 4088 0
h -4090 4075 0
h -347 4091 4085 4087 4089 4090 0
h 347 -4091 0
h 347 -4085 0
h 347 -4087 0
h 347 -4089 0
h 347 -4090 0
h 4092 -4093 -4086 0
h -4092 4093 0
h -4092 4086 0
h 4094 -4095 -4086 0
h -4094 4095 0
h -4094 4086 0
h 4096 -4095 -4088 0
h -4096 4095 0
h -4096 4088 0
h 4097 -4093 -4088 -4075 0
h -4097 4093 0
h -4097 4088 0
h -4097 4075 0
h -350 4098 4092 4094 4096 4097 0
h 350 -4098 0
h 350 -4092 0
h 350 -4094 0
h 350 -4096 0
h 350 -4097 0
h 4099 -4082 -4095 0
h -4099 4082 0
h -4099 4095 0
h 4100 -4079 -4093 0
h -4100 4079 0
h -4100 4093 0
h 4101 -4079 -4095 0
h -4101 4079 0
h -4101 4095 0
h 4102 -4082 -4093 -4075 0
h -4102 4082 0
h -4102 4093 0
h -4102 4075 0
h -348 4103 4099 4100 4101 4102 0
h 348 -4103 0
h 348 -4099 0
h 348 -4100 0
h 348 -4101 0
h 348 -4102 0
h 4104 -4082 -4079 0
h -4104 4082 0
h -4104 4079 0
h 4105 -4079 -4079 0
h -4105 4079 0
h -4105 4079 0
h 4106 -4079 -4082 0
h -4106 4079 0
h -4106 4082 0
h 4107 -4082 -4082 -4075 0
h -4107 4082 0
h -4107 4082 0
h -4107 4075 0
h -4108 4109 4104 4105 4106 4107 0
h 4108 -4109 0
h 4108 -4104 0
h 4108 -4105 0
h 4108 -4106 0
h 4108 -4107 0
h 4110 -4111 -4111 0
h -4110 4111 0
h -4110 4111 0
h -4112 4113 4110 0
h 4112 -4113 0
h 4112 -4110 0
h 4114 -4111 -4115 0
h -4114 4111 0
h -4114 4115 0
h -1189 4116 4114 0
h 1189 -4116 0
h 1189 -4114 0
h 4117 -4111 -4118 0
h -4117 4111 0
h -4117 4118 0
h -1187 4119 4117 0
h 1187 -4119 0
h 1187 -4117 0
h 4120 -4121 -4118 0
h -4120 4121 0
h -4120 4118 0
h -1190 4122 4120 0
h 1190 -4122 0
h 1190 -4120 0
h 4123 -4115 -4121 0
h -4123 4115 0
h -4123 4121 0
h -1188 4124 4123 0
h 1188 -4124 0
h 1188 -4123 0
h 4125 -4115 -4115 0
h -4125 4115 0
h -4125 4115 0
h -4126 4127 4125 0
h 4126 -4127 0
h 4126 -4125 0
h 4128 -2630 -2627 0
h -4128 2630 0
h -4128 2627 0
h 4129 -2627 -2627 0
h -4129 2627 0
h -4129 2627 0
h 4130 -2627 -2630 0
h -4130 2627 0
h -4130 2630 0
h 4131 -2630 -2630 -2638 0
h -4131 2630 0
h -4131 2630 0
h -4131 2638 0
h -4132 2624 4128 4129 4130 4131 0
h 4132 -2624 0
h 4132 -4128 0
h 4132 -4129 0
h 4132 -4130 0
h 4132 -4131 0
h 4133 -2630 -3870 0
h -4133 2630 0
h -4133 3870 0
h 4134 -2627 -3870 0
h -4134 2627 0
h -4134 3870 0
h 4135 -2627 -3036 0
h -4135 2627 0
h -4135 3036 0
h 4136 -2630 -3036 -2638 0
h -4136 2630 0
h -4136 3036 0
h -4136 2638 0
h -844 3037 4133 4134 4135 4136 0
h 844 -3037 0
h 844 -4133 0
h 844 -4134 0
h 844 -4135 0
h 844 -4136 0
h 4137 -2630 -2626 0
h -4137 2630 0
h -4137 2626 0
h 4138 -2627 -2629 0
h -4138 2627 0
h -4138 2629 0
h 4139 -2627 -2626 0
h -4139 2627 0
h -4139 2626 0
h 4140 -2630 -2629 -2638 0
h -4140 2630 0
h -4140 2629 0
h -4140 2638 0
h -842 2622 4137 4138 4139 4140 0
h 842 -2622 0
h 842 -4137 0
h 842 -4138 0
h 842 -4139 0
h 842 -4140 0
h 4141 -2633 -2626 0
h -4141 2633 0
h -4141 2626 0
h 4142 -2635 -2626 0
h -4142 2635 0
h -4142 2626 0
h 4143 -2635 -2629 0
h -4143 2635 0
h -4143 2629 0
h 4144 -2633 -2629 -2638 0
h -4144 2633 0
h -4144 2629 0
h -4144 2638 0
h -845 2632 4141 4142 4143 4144 0
h 845 -2632 0
h 845 -4141 0
h 845 -4142 0
h 845 -4143 0
h 845 -4144 0
h 4145 -3036 -2635 0
h -4145 3036 0
h -4145 2635 0
h 4146 -3870 -2633 0
h -4146 3870 0
h -4146 2633 0
h 4147 -3870 -2635 0
h -4147 3870 0
h -4147 2635 0
h 4148 -3036 -2633 -2638 0
h -4148 3036 0
h -4148 2633 0
h -4148 2638 0
h -843 3041 4145 4146 4147 4148 0
h 843 -3041 0
h 843 -4145 0
h 843 -4146 0
h 843 -4147 0
h 843 -4148 0
h 4149 -3036 -3870 0
h -4149 3036 0
h -4149 3870 0
h 4150 -3870 -3870 0
h -4150 3870 0
h -4150 3870 0
h 4151 -3870 -3036 0
h -4151 3870 0
h -4151 3036 0
h 4152 -3036 -3036 -2638 0
h -4152 3036 0
h -4152 3036 0
h -4152 2638 0
h -4153 3044 4149 4150 4151 4152 0
h 4153 -3044 0
h 4153 -4149 0
h 4153 -4150 0
h 4153 -4151 0
h 4153 -4152 0
h 4154 -2452 -2452 0
h -4154 2452 0
h -4154 2452 0
h -4155 2432 4154 0
h 4155 -2432 0
h 4155 -4154 0
h 4156 -2452 -2460 0
h -4156 2452 0
h -4156 2460 0
h -139 2436 4156 0
h 139 -2436 0
h 139 -4156 0
h 4157 -2452 -2455 0
h -4157 2452 0
h -4157 2455 0
h -137 2443 4157 0
h 137 -2443 0
h 137 -4157 0
h 4158 -2450 -2455 0
h -4158 2450 0
h -4158 2455 0
h -140 2445 4158 0
h 140 -2445 0
h 140 -4158 0
h 4159 -2460 -2450 0
h -4159 2460 0
h -4159 2450 0
h -138 2439 4159 0
h 138 -2439 0
h 138 -4159 0
h 4160 -2460 -2460 0
h -4160 2460 0
h -4160 2460 0
h -4161 2466 4160 0
h 4161 -2466 0
h 4161 -4160 0
h 4162 -4163 -4163 0
h -4162 4163 0
h -4162 4163 0
h -4164 4165 4162 0
h 4164 -4165 0
h 4164 -4162 0
h 4166 -4163 -4167 0
h -4166 4163 0
h -4166 4167 0
h -1079 4168 4166 0
h 1079 -4168 0
h 1079 -4166 0
h 4169 -4163 -4170 0
h -4169 4163 0
h -4169 4170 0
h -1077 4171 4169 0
h 1077 -4171 0
h 1077 -4169 0
h 4172 -4173 -4170 0
h -4172 4173 0
h -4172 4170 0
h -1080 4174 4172 0
h 1080 -4174 0
h 1080 -4172 0
h 4175 -4167 -4173 0
h -4175 4167 0
h -4175 4173 0
h -1078 4176 4175 0
h 1078 -4176 0
h 1078 -4175 0
h 4177 -4167 -4167 0
h -4177 4167 0
h -4177 4167 0
h -4178 4179 4177 0
h 4178 -4179 0
h 4178 -4177 0
h 4180 -2858 -2858 0
h -4180 2858 0
h -4180 2858 0
h -4181 2865 4180 0
h 4181 -2865 0
h 4181 -4180 0
h 4182 -2858 -2870 0
h -4182 2858 0
h -4182 2870 0
h -359 2872 4182 0
h 359 -2872 0
h 359 -4182 0
h 4183 -2858 -2876 0
h -4183 2858 0
h -4183 2876 0
h -357 2879 4183 0
h 357 -2879 0
h 357 -4183 0
h 4184 -2881 -2876 0
h -4184 2881 0
h -4184 2876 0
h -360 2886 4184 0
h 360 -2886 0
h 360 -4184 0
h 4185 -2870 -2881 0
h -4185 2870 0
h -4185 2881 0
h -358 2891 4185 0
h 358 -2891 0
h 358 -4185 0
h 4186 -2870 -2870 0
h -4186 2870 0
h -4186 2870 0
h -4187 2897 4186 0
h 4187 -2897 0
h 4187 -4186 0
h 4188 -2665 -2665 0
h -4188 2665 0
h -4188 2665 0
h -4189 2645 4188 0
h 4189 -2645 0
h 4189 -4188 0
h 4190 -2665 -2673 0
h -4190 2665 0
h -4190 2673 0
h -624 2649 4190 0
h 624 -2649 0
h 624 -4190 0
h 4191 -2665 -2668 0
h -4191 2665 0
h -4191 2668 0
h -622 2656 4191 0
h 622 -2656 0
h 622 -4191 0
h 4192 -2663 -2668 0
h -4192 2663 0
h -4192 2668 0
h -625 2658 4192 0
h 625 -2658 0
h 625 -4192 0
h 4193 -2673 -2663 0
h -4193 2673 0
h -4193 2663 0
h -623 2652 4193 0
h 623 -2652 0
h 623 -4193 0
h 4194 -2673 -2673 0
h -4194 2673 0
h -4194 2673 0
h -4195 2679 4194 0
h 4195 -2679 0
h 4195 -4194 0
h 4196 -3654 -3654 0
h -4196 3654 0
h -4196 3654 0
h -4197 3661 4196 0
h 4197 -3661 0
h 4197 -4196 0
h 4198 -3654 -3666 0
h -4198 3654 0
h -4198 3666 0
h -744 3668 4198 0
h 744 -3668 0
h 744 -4198 0
h 4199 -3654 -3672 0
h -4199 3654 0
h -4199 3672 0
h -742 3675 4199 0
h 742 -3675 0
h 742 -4199 0
h 4200 -3677 -3672 0
h -4200 3677 0
h -4200 3672 0
h -745 3682 4200 0
h 745 -3682 0
h 745 -4200 0
h 4201 -3666 -3677 0
h -4201 3666 0
h -4201 3677 0
h -743 3687 4201 0
h 743 -3687 0
h 743 -4201 0
h 4202 -3666 -3666 0
h -4202 3666 0
h -4202 3666 0
h -4203 3693 4202 0
h 4203 -3693 0
h 4203 -4202 0
h 4204 -4205 -4205 0
h -4204 4205 0
h -4204 4205 0
h -4206 4207 4204 0
h 4206 -4207 0
h 4206 -4204 0
h 4208 -4205 -4209 0
h -4208 4205 0
h -4208 4209 0
h -799 4210 4208 0
h 799 -4210 0
h 799 -4208 0
h 4211 -4205 -4212 0
h -4211 4205 0
h -4211 4212 0
h -797 4213 4211 0
h 797 -4213 0
h 797 -4211 0
h 4214 -4215 -4212 0
h -4214 4215 0
h -4214 4212 0
h -800 4216 4214 0
h 800 -4216 0
h 800 -4214 0
h 4217 -4209 -4215 0
h -4217 4209 0
h -4217 4215 0
h -798 4218 4217 0
h 798 -4218 0
h 798 -4217 0
h 4219 -4209 -4209 0
h -4219 4209 0
h -4219 4209 0
h -4220 4221 4219 0
h 4220 -4221 0
h 4220 -4219 0
h 4222 -2832 -3076 0
h -4222 2832 0
h -4222 3076 0
h 4223 -3076 -3076 0
h -4223 3076 0
h -4223 3076 0
h 4224 -3076 -2832 0
h -4224 3076 0
h -4224 2832 0
h 4225 -2832 -2832 -3074 0
h -4225 2832 0
h -4225 2832 0
h -4225 3074 0
h -4226 2834 4222 4223 4224 4225 0
h 4226 -2834 0
h 4226 -4222 0
h 4226 -4223 0
h 4226 -4224 0
h 4226 -4225 0
h 4227 -2832 -4228 0
h -4227 2832 0
h -4227 4228 0
h 4229 -3076 -4228 0
h -4229 3076 0
h -4229 4228 0
h 4230 -3076 -2836 0
h -4230 3076 0
h -4230 2836 0
h 4231 -2832 -2836 -3074 0
h -4231 2832 0
h -4231 2836 0
h -4231 3074 0
h -189 2837 4227 4229 4230 4231 0
h 189 -2837 0
h 189 -4227 0
h 189 -4229 0
h 189 -4230 0
h 189 -4231 0
h 4232 -2832 -3072 0
h -4232 2832 0
h -4232 3072 0
h 4233 -3076 -2839 0
h -4233 3076 0
h -4233 2839 0
h 4234 -3076 -3072 0
h -4234 3076 0
h -4234 3072 0
h 4235 -2832 -2839 -3074 0
h -4235 2832 0
h -4235 2839 0
h -4235 3074 0
h -187 2840 4232 4233 4234 4235 0
h 187 -2840 0
h 187 -4232 0
h 187 -4233 0
h 187 -4234 0
h 187 -4235 0
h 4236 -2842 -3072 0
h -4236 2842 0
h -4236 3072 0
h 4237 -3078 -3072 0
h -4237 3078 0
h -4237 3072 0
h 4238 -3078 -2839 0
h -4238 3078 0
h -4238 2839 0
h 4239 -2842 -2839 -3074 0
h -4239 2842 0
h -4239 2839 0
h -4239 3074 0
h -190 2843 4236 4237 4238 4239 0
h 190 -2843 0
h 190 -4236 0
h 190 -4237 0
h 190 -4238 0
h 190 -4239 0
h 4240 -2836 -3078 0
h -4240 2836 0
h -4240 3078 0
h 4241 -4228 -2842 0
h -4241 4228 0
h -4241 2842 0
h 4242 -4228 -3078 0
h -4242 4228 0
h -4242 3078 0
h 4243 -2836 -2842 -3074 0
h -4243 2836 0
h -4243 2842 0
h -4243 3074 0
h -188 2845 4240 4241 4242 4243 0
h 188 -2845 0
h 188 -4240 0
h 188 -4241 0
h 188 -4242 0
h 188 -4243 0
h 4244 -2836 -4228 0
h -4244 2836 0
h -4244 4228 0
h 4245 -4228 -4228 0
h -4245 4228 0
h -4245 4228 0
h 4246 -4228 -2836 0
h -4246 4228 0
h -4246 2836 0
h 4247 -2836 -2836 -3074 0
h -4247 2836 0
h -4247 2836 0
h -4247 3074 0
h -4248 2848 4244 4245 4246 4247 0
h 4248 -2848 0
h 4248 -4244 0
h 4248 -4245 0
h 4248 -4246 0
h 4248 -4247 0
h 4249 -3957 -4250 0
h -4249 3957 0
h -4249 4250 0
h 4251 -4250 -4250 0
h -4251 4250 0
h -4251 4250 0
h 4252 -4250 -3957 0
h -4252 4250 0
h -4252 3957 0
h 4253 -3957 -3957 -2386 0
h -4253 3957 0
h -4253 3957 0
h -4253 2386 0
h -4254 3959 4249 4251 4252 4253 0
h 4254 -3959 0
h 4254 -4249 0
h 4254 -4251 0
h 4254 -4252 0
h 4254 -4253 0
h 4255 -3957 -2389 0
h -4255 3957 0
h -4255 2389 0
h 4256 -4250 -2389 0
h -4256 4250 0
h -4256 2389 0
h 4257 -4250 -2397 0
h -4257 4250 0
h -4257 2397 0
h 4258 -3957 -2397 -2386 0
h -4258 3957 0
h -4258 2397 0
h -4258 2386 0
h -549 3961 4255 4256 4257 4258 0
h 549 -3961 0
h 549 -4255 0
h 549 -4256 0
h 549 -4257 0
h 549 -4258 0
h 4259 -3957 -2392 0
h -4259 3957 0
h -4259 2392 0
h 4260 -4250 -2395 0
h -4260 4250 0
h -4260 2395 0
h 4261 -4250 -2392 0
h -4261 4250 0
h -4261 2392 0
h 4262 -3957 -2395 -2386 0
h -4262 3957 0
h -4262 2395 0
h -4262 2386 0
h -547 3963 4259 4260 4261 4262 0
h 547 -3963 0
h 547 -4259 0
h 547 -4260 0
h 547 -4261 0
h 547 -4262 0
h 4263 -2394 -2392 0
h -4263 2394 0
h -4263 2392 0
h 4264 -2384 -2392 0
h -4264 2384 0
h -4264 2392 0
h 4265 -2384 -2395 0
h -4265 2384 0
h -4265 2395 0
h 4266 -2394 -2395 -2386 0
h -4266 2394 0
h -4266 2395 0
h -4266 2386 0
h -550 2391 4263 4264 4265 4266 0
h 550 -2391 0
h 550 -4263 0
h 550 -4264 0
h 550 -4265 0
h 550 -4266 0
h 4267 -2397 -2384 0
h -4267 2397 0
h -4267 2384 0
h 4268 -2389 -2394 0
h -4268 2389 0
h -4268 2394 0
h 4269 -2389 -2384 0
h -4269 2389 0
h -4269 2384 0
h 4270 -2397 -2394 -2386 0
h -4270 2397 0
h -4270 2394 0
h -4270 2386 0
h -548 2388 4267 4268 4269 4270 0
h 548 -2388 0
h 548 -4267 0
h 548 -4268 0
h 548 -4269 0
h 548 -4270 0
h 4271 -2397 -2389 0
h -4271 2397 0
h -4271 2389 0
h 4272 -2389 -2389 0
h -4272 2389 0
h -4272 2389 0
h 4273 -2389 -2397 0
h -4273 2389 0
h -4273 2397 0
h 4274 -2397 -2397 -2386 0
h -4274 2397 0
h -4274 2397 0
h -4274 2386 0
h -4275 2400 4271 4272 4273 4274 0
h 4275 -2400 0
h 4275 -4271 0
h 4275 -4272 0
h 4275 -4273 0
h 4275 -4274 0
h 4276 -4277 -4278 0
h -4276 4277 0
h -4276 4278 0
h 4279 -4278 -4278 0
h -4279 4278 0
h -4279 4278 0
h 4280 -4278 -4277 0
h -4280 4278 0
h -4280 4277 0
h 4281 -4277 -4277 -4036 0
h -4281 4277 0
h -4281 4277 0
h -4281 4036 0
h -4282 4283 4276 4279 4280 4281 0
h 4282 -4283 0
h 4282 -4276 0
h 4282 -4279 0
h 4282 -4280 0
h 4282 -4281 0
h 4284 -4277 -4039 0
h -4284 4277 0
h -4284 4039 0
h 4285 -4278 -4039 0
h -4285 4278 0
h -4285 4039 0
h 4286 -4278 -4047 0
h -4286 4278 0
h -4286 4047 0
h 4287 -4277 -4047 -4036 0
h -4287 4277 0
h -4287 4047 0
h -4287 4036 0
h -14 4288 4284 4285 4286 4287 0
h 14 -4288 0
h 14 -4284 0
h 14 -4285 0
h 14 -4286 0
h 14 -4287 0
h 4289 -4277 -4042 0
h -4289 4277 0
h -4289 4042 0
h 4290 -4278 -4045 0
h -4290 4278 0
h -4290 4045 0
h 4291 -4278 -4042 0
h -4291 4278 0
h -4291 4042 0
h 4292 -4277 -4045 -4036 0
h -4292 4277 0
h -4292 4045 0
h -4292 4036 0
h -12 4293 4289 4290 4291 4292 0
h 12 -4293 0
h 12 -4289 0
h 12 -4290 0
h 12 -4291 0
h 12 -4292 0
h 4294 -4044 -4042 0
h -4294 4044 0
h -4294 4042 0
h 4295 -4034 -4042 0
h -4295 4034 0
h -4295 4042 0
h 4296 -4034 -4045 0
h -4296 4034 0
h -4296 4045 0
h 4297 -4044 -4045 -4036 0
h -4297 4044 0
h -4297 4045 0
h -4297 4036 0
h -15 4041 4294 4295 4296 4297 0
h 15 -4041 0
h 15 -4294 0
h 15 -4295 0
h 15 -4296 0
h 15 -4297 0
h 4298 -4047 -4034 0
h -4298 4047 0
h -4298 4034 0
h 4299 -4039 -4044 0
h -4299 4039 0
h -4299 4044 0
h 4300 -4039 -4034 0
h -4300 4039 0
h -4300 4034 0
h 4301 -4047 -4044 -4036 0
h -4301 4047 0
h -4301 4044 0
h -4301 4036 0
h -13 4038 4298 4299 4300 4301 0
h 13 -4038 0
h 13 -4298 0
h 13 -4299 0
h 13 -4300 0
h 13 -4301 0
h 4302 -4047 -4039 0
h -4302 4047 0
h -4302 4039 0
h 4303 -4039 -4039 0
h -4303 4039 0
h -4303 4039 0
h 4304 -4039 -4047 0
h -4304 4039 0
h -4304 4047 0
h 4305 -4047 -4047 -4036 0
h -4305 4047 0
h -4305 4047 0
h -4305 4036 0
h -4306 4050 4302 4303 4304 4305 0
h 4306 -4050 0
h 4306 -4302 0
h 4306 -4303 0
h 4306 -4304 0
h 4306 -4305 0
h 4307 -2017 -4308 0
h -4307 2017 0
h -4307 4308 0
h 4309 -4308 -4308 0
h -4309 4308 0
h -4309 4308 0
h 4310 -4308 -2017 0
h -4310 4308 0
h -4310 2017 0
h 4311 -2017 -2017 -4312 0
h -4311 2017 0
h -4311 2017 0
h -4311 4312 0
h -4313 2019 4307 4309 4310 4311 0
h 4313 -2019 0
h 4313 -4307 0
h 4313 -4309 0
h 4313 -4310 0
h 4313 -4311 0
h 4314 -2017 -4315 0
h -4314 2017 0
h -4314 4315 0
h 4316 -4308 -4315 0
h -4316 4308 0
h -4316 4315 0
h 4317 -4308 -2021 0
h -4317 4308 0
h -4317 2021 0
h 4318 -2017 -2021 -4312 0
h -4318 2017 0
h -4318 2021 0
h -4318 4312 0
h -274 2022 4314 4316 4317 4318 0
h 274 -2022 0
h 274 -4314 0
h 274 -4316 0
h 274 -4317 0
h 274 -4318 0
h 4319 -2017 -4320 0
h -4319 2017 0
h -4319 4320 0
h 4321 -4308 -2024 0
h -4321 4308 0
h -4321 2024 0
h 4322 -4308 -4320 0
h -4322 4308 0
h -4322 4320 0
h 4323 -2017 -2024 -4312 0
h -4323 2017 0
h -4323 2024 0
h -4323 4312 0
h -272 2025 4319 4321 4322 4323 0
h 272 -2025 0
h 272 -4319 0
h 272 -4321 0
h 272 -4322 0
h 272 -4323 0
h 4324 -2027 -4320 0
h -4324 2027 0
h -4324 4320 0
h 4325 -4326 -4320 0
h -4325 4326 0
h -4325 4320 0
h 4327 -4326 -2024 0
h -4327 4326 0
h -4327 2024 0
h 4328 -2027 -2024 -4312 0
h -4328 2027 0
h -4328 2024 0
h -4328 4312 0
h -275 2028 4324 4325 4327 4328 0
h 275 -2028 0
h 275 -4324 0
h 275 -4325 0
h 275 -4327 0
h 275 -4328 0
h 4329 -2021 -4326 0
h -4329 2021 0
h -4329 4326 0
h 4330 -4315 -2027 0
h -4330 4315 0
h -4330 2027 0
h 4331 -4315 -4326 0
h -4331 4315 0
h -4331 4326 0
h 4332 -2021 -2027 -4312 0
h -4332 2021 0
h -4332 2027 0
h -4332 4312 0
h -273 2030 4329 4330 4331 4332 0
h 273 -2030 0
h 273 -4329 0
h 273 -4330 0
h 273 -4331 0
h 273 -4332 0
h 4333 -2021 -4315 0
h -4333 2021 0
h -4333 4315 0
h 4334 -4315 -4315 0
h -4334 4315 0
h -4334 4315 0
h 4335 -4315 -2021 0
h -4335 4315 0
h -4335 2021 0
h 4336 -2021 -2021 -4312 0
h -4336 2021 0
h -4336 2021 0
h -4336 4312 0
h -4337 2033 4333 4334 4335 4336 0
h 4337 -2033 0
h 4337 -4333 0
h 4337 -4334 0
h 4337 -4335 0
h 4337 -4336 0
h 4338 -4339 -4340 0
h -4338 4339 0
h -4338 4340 0
h 4341 -4340 -4340 0
h -4341 4340 0
h -4341 4340 0
h 4342 -4340 -4339 0
h -4342 4340 0
h -4342 4339 0
h 4343 -4339 -4339 -4344 0
h -4343 4339 0
h -4343 4339 0
h -4343 4344 0
h -4345 4346 4338 4341 4342 4343 0
h 4345 -4346 0
h 4345 -4338 0
h 4345 -4341 0
h 4345 -4342 0
h 4345 -4343 0
h 4347 -4339 -4348 0
h -4347 4339 0
h -4347 4348 0
h 4349 -4340 -4348 0
h -4349 4340 0
h -4349 4348 0
h 4350 -4340 -4351 0
h -4350 4340 0
h -4350 4351 0
h 4352 -4339 -4351 -4344 0
h -4352 4339 0
h -4352 4351 0
h -4352 4344 0
h -1064 4353 4347 4349 4350 4352 0
h 1064 -4353 0
h 1064 -4347 0
h 1064 -4349 0
h 1064 -4350 0
h 1064 -4352 0
h 4354 -4339 -4355 0
h -4354 4339 0
h -4354 4355 0
h 4356 -4340 -4357 0
h -4356 4340 0
h -4356 4357 0
h 4358 -4340 -4355 0
h -4358 4340 0
h -4358 4355 0
h 4359 -4339 -4357 -4344 0
h -4359 4339 0
h -4359 4357 0
h -4359 4344 0
h -1062 4360 4354 4356 4358 4359 0
h 1062 -4360 0
h 1062 -4354 0
h 1062 -4356 0
h 1062 -4358 0
h 1062 -4359 0
h 4361 -4362 -4355 0
h -4361 4362 0
h -4361 4355 0
h 4363 -4364 -4355 0
h -4363 4364 0
h -4363 4355 0
h 4365 -4364 -4357 0
h -4365 4364 0
h -4365 4357 0
h 4366 -4362 -4357 -4344 0
h -4366 4362 0
h -4366 4357 0
h -4366 4344 0
h -1065 4367 4361 4363 4365 4366 0
h 1065 -4367 0
h 1065 -4361 0
h 1065 -4363 0
h 1065 -4365 0
h 1065 -4366 0
h 4368 -4351 -4364 0
h -4368 4351 0
h -4368 4364 0
h 4369 -4348 -4362 0
h -4369 4348 0
h -4369 4362 0
h 4370 -4348 -4364 0
h -4370 4348 0
h -4370 4364 0
h 4371 -4351 -4362 -4344 0
h -4371 4351 0
h -4371 4362 0
h -4371 4344 0
h -1063 4372 4368 4369 4370 4371 0
h 1063 -4372 0
h 1063 -4368 0
h 1063 -4369 0
h 1063 -4370 0
h 1063 -4371 0
h 4373 -4351 -4348 0
h -4373 4351 0
h -4373 4348 0
h 4374 -4348 -4348 0
h -4374 4348 0
h -4374 4348 0
h 4375 -4348 -4351 0
h -4375 4348 0
h -4375 4351 0
h 4376 -4351 -4351 -4344 0
h -4376 4351 0
h -4376 4351 0
h -4376 4344 0
h -4377 4378 4373 4374 4375 4376 0
h 4377 -4378 0
h 4377 -4373 0
h 4377 -4374 0
h 4377 -4375 0
h 4377 -4376 0
h 4379 -4380 -4380 0
h -4379 4380 0
h -4379 4380 0
h -4381 4382 4379 0
h 4381 -4382 0
h 4381 -4379 0
h 4383 -4380 -4384 0
h -4383 4380 0
h -4383 4384 0
h -739 4385 4383 0
h 739 -4385 0
h 739 -4383 0
h 4386 -4380 -4387 0
h -4386 4380 0
h -4386 4387 0
h -737 4388 4386 0
h 737 -4388 0
h 737 -4386 0
h 4389 -4390 -4387 0
h -4389 4390 0
h -4389 4387 0
h -740 4391 4389 0
h 740 -4391 0
h 740 -4389 0
h 4392 -4384 -4390 0
h -4392 4384 0
h -4392 4390 0
h -738 4393 4392 0
h 738 -4393 0
h 738 -4392 0
h 4394 -4384 -4384 0
h -4394 4384 0
h -4394 4384 0
h -4395 4396 4394 0
h 4395 -4396 0
h 4395 -4394 0
h 4397 -1466 -1442 0
h -4397 1466 0
h -4397 1442 0
h 1443 -1442 -1442 0
h -1443 1442 0
h -1443 1442 0
h 4398 -1442 -1466 0
h -4398 1442 0
h -4398 1466 0
h 4399 -1466 -1466 -1448 0
h -4399 1466 0
h -4399 1466 0
h -4399 1448 0
h -4400 1446 4397 1443 4398 4399 0
h 4400 -1446 0
h 4400 -4397 0
h 4400 -1443 0
h 4400 -4398 0
h 4400 -4399 0
h 4401 -1466 -1455 0
h -4401 1466 0
h -4401 1455 0
h 4402 -1442 -1455 0
h -4402 1442 0
h -4402 1455 0
h 4403 -1442 -1474 0
h -4403 1442 0
h -4403 1474 0
h 4404 -1466 -1474 -1448 0
h -4404 1466 0
h -4404 1474 0
h -4404 1448 0
h -254 1450 4401 4402 4403 4404 0
h 254 -1450 0
h 254 -4401 0
h 254 -4402 0
h 254 -4403 0
h 254 -4404 0
h 4405 -1466 -1462 0
h -4405 1466 0
h -4405 1462 0
h 4406 -1442 -1469 0
h -4406 1442 0
h -4406 1469 0
h 4407 -1442 -1462 0
h -4407 1442 0
h -4407 1462 0
h 4408 -1466 -1469 -1448 0
h -4408 1466 0
h -4408 1469 0
h -4408 1448 0
h -252 1457 4405 4406 4407 4408 0
h 252 -1457 0
h 252 -4405 0
h 252 -4406 0
h 252 -4407 0
h 252 -4408 0
h 4409 -1464 -1462 0
h -4409 1464 0
h -4409 1462 0
h 4410 -1441 -1462 0
h -4410 1441 0
h -4410 1462 0
h 4411 -1441 -1469 0
h -4411 1441 0
h -4411 1469 0
h 4412 -1464 -1469 -1448 0
h -4412 1464 0
h -4412 1469 0
h -4412 1448 0
h -255 1459 4409 4410 4411 4412 0
h 255 -1459 0
h 255 -4409 0
h 255 -4410 0
h 255 -4411 0
h 255 -4412 0
h 4413 -1474 -1441 0
h -4413 1474 0
h -4413 1441 0
h 4414 -1455 -1464 0
h -4414 1455 0
h -4414 1464 0
h 4415 -1455 -1441 0
h -4415 1455 0
h -4415 1441 0
h 4416 -1474 -1464 -1448 0
h -4416 1474 0
h -4416 1464 0
h -4416 1448 0
h -253 1453 4413 4414 4415 4416 0
h 253 -1453 0
h 253 -4413 0
h 253 -4414 0
h 253 -4415 0
h 253 -4416 0
h 4417 -1474 -1455 0
h -4417 1474 0
h -4417 1455 0
h 4418 -1455 -1455 0
h -4418 1455 0
h -4418 1455 0
h 4419 -1455 -1474 0
h -4419 1455 0
h -4419 1474 0
h 4420 -1474 -1474 -1448 0
h -4420 1474 0
h -4420 1474 0
h -4420 1448 0
h -4421 1480 4417 4418 4419 4420 0
h 4421 -1480 0
h 4421 -4417 0
h 4421 -4418 0
h 4421 -4419 0
h 4421 -4420 0
h 4422 -2816 -2816 0
h -4422 2816 0
h -4422 2816 0
h -4423 2796 4422 0
h 4423 -2796 0
h 4423 -4422 0
h 4424 -2816 -2824 0
h -4424 2816 0
h -4424 2824 0
h -849 2800 4424 0
h 849 -2800 0
h 849 -4424 0
h 4425 -2816 -2819 0
h -4425 2816 0
h -4425 2819 0
h -847 2807 4425 0
h 847 -2807 0
h 847 -4425 0
h 4426 -2814 -2819 0
h -4426 2814 0
h -4426 2819 0
h -850 2809 4426 0
h 850 -2809 0
h 850 -4426 0
h 4427 -2824 -2814 0
h -4427 2824 0
h -4427 2814 0
h -848 2803 4427 0
h 848 -2803 0
h 848 -4427 0
h 4428 -2824 -2824 0
h -4428 2824 0
h -4428 2824 0
h -4429 2830 4428 0
h 4429 -2830 0
h 4429 -4428 0
h 4430 -4431 -4432 0
h -4430 4431 0
h -4430 4432 0
h 4433 -4432 -4432 0
h -4433 4432 0
h -4433 4432 0
h 4434 -4432 -4431 0
h -4434 4432 0
h -4434 4431 0
h 4435 -4431 -4431 -1348 0
h -4435 4431 0
h -4435 4431 0
h -4435 1348 0
h -4436 4437 4430 4433 4434 4435 0
h 4436 -4437 0
h 4436 -4430 0
h 4436 -4433 0
h 4436 -4434 0
h 4436 -4435 0
h 4438 -4431 -1351 0
h -4438 4431 0
h -4438 1351 0
h 4439 -4432 -1351 0
h -4439 4432 0
h -4439 1351 0
h 4440 -4432 -1359 0
h -4440 4432 0
h -4440 1359 0
h 4441 -4431 -1359 -1348 0
h -4441 4431 0
h -4441 1359 0
h -4441 1348 0
h -1004 4442 4438 4439 4440 4441 0
h 1004 -4442 0
h 1004 -4438 0
h 1004 -4439 0
h 1004 -4440 0
h 1004 -4441 0
h 4443 -4431 -1354 0
h -4443 4431 0
h -4443 1354 0
h 4444 -4432 -1357 0
h -4444 4432 0
h -4444 1357 0
h 4445 -4432 -1354 0
h -4445 4432 0
h -4445 1354 0
h 4446 -4431 -1357 -1348 0
h -4446 4431 0
h -4446 1357 0
h -4446 1348 0
h -1002 4447 4443 4444 4445 4446 0
h 1002 -4447 0
h 1002 -4443 0
h 1002 -4444 0
h 1002 -4445 0
h 1002 -4446 0
h 4448 -1356 -1354 0
h -4448 1356 0
h -4448 1354 0
h 4449 -1346 -1354 0
h -4449 1346 0
h -4449 1354 0
h 4450 -1346 -1357 0
h -4450 1346 0
h -4450 1357 0
h 4451 -1356 -1357 -1348 0
h -4451 1356 0
h -4451 1357 0
h -4451 1348 0
h -1005 1353 4448 4449 4450 4451 0
h 1005 -1353 0
h 1005 -4448 0
h 1005 -4449 0
h 1005 -4450 0
h 1005 -4451 0
h 4452 -1359 -1346 0
h -4452 1359 0
h -4452 1346 0
h 4453 -1351 -1356 0
h -4453 1351 0
h -4453 1356 0
h 4454 -1351 -1346 0
h -4454 1351 0
h -4454 1346 0
h 4455 -1359 -1356 -1348 0
h -4455 1359 0
h -4455 1356 0
h -4455 1348 0
h -1003 1350 4452 4453 4454 4455 0
h 1003 -1350 0
h 1003 -4452 0
h 1003 -4453 0
h 1003 -4454 0
h 1003 -4455 0
h 4456 -1359 -1351 0
h -4456 1359 0
h -4456 1351 0
h 4457 -1351 -1351 0
h -4457 1351 0
h -4457 1351 0
h 4458 -1351 -1359 0
h -4458 1351 0
h -4458 1359 0
h 4459 -1359 -1359 -1348 0
h -4459 1359 0
h -4459 1359 0
h -4459 1348 0
h -4460 1362 4456 4457 4458 4459 0
h 4460 -1362 0
h 4460 -4456 0
h 4460 -4457 0
h 4460 -4458 0
h 4460 -4459 0
h 4461 -3109 -3085 0
h -4461 3109 0
h -4461 3085 0
h 3086 -3085 -3085 0
h -3086 3085 0
h -3086 3085 0
h 4462 -3085 -3109 0
h -4462 3085 0
h -4462 3109 0
h 4463 -3109 -3109 -3091 0
h -4463 3109 0
h -4463 3109 0
h -4463 3091 0
h -4464 3089 4461 3086 4462 4463 0
h 4464 -3089 0
h 4464 -4461 0
h 4464 -3086 0
h 4464 -4462 0
h 4464 -4463 0
h 4465 -3109 -3098 0
h -4465 3109 0
h -4465 3098 0
h 4466 -3085 -3098 0
h -4466 3085 0
h -4466 3098 0
h 4467 -3085 -3117 0
h -4467 3085 0
h -4467 3117 0
h 4468 -3109 -3117 -3091 0
h -4468 3109 0
h -4468 3117 0
h -4468 3091 0
h -479 3093 4465 4466 4467 4468 0
h 479 -3093 0
h 479 -4465 0
h 479 -4466 0
h 479 -4467 0
h 479 -4468 0
h 4469 -3109 -3105 0
h -4469 3109 0
h -4469 3105 0
h 4470 -3085 -3112 0
h -4470 3085 0
h -4470 3112 0
h 4471 -3085 -3105 0
h -4471 3085 0
h -4471 3105 0
h 4472 -3109 -3112 -3091 0
h -4472 3109 0
h -4472 3112 0
h -4472 3091 0
h -477 3100 4469 4470 4471 4472 0
h 477 -3100 0
h 477 -4469 0
h 477 -4470 0
h 477 -4471 0
h 477 -4472 0
h 4473 -3107 -3105 0
h -4473 3107 0
h -4473 3105 0
h 4474 -3084 -3105 0
h -4474 3084 0
h -4474 3105 0
h 4475 -3084 -3112 0
h -4475 3084 0
h -4475 3112 0
h 4476 -3107 -3112 -3091 0
h -4476 3107 0
h -4476 3112 0
h -4476 3091 0
h -480 3102 4473 4474 4475 4476 0
h 480 -3102 0
h 480 -4473 0
h 480 -4474 0
h 480 -4475 0
h 480 -4476 0
h 4477 -3117 -3084 0
h -4477 3117 0
h -4477 3084 0
h 4478 -3098 -3107 0
h -4478 3098 0
h -4478 3107 0
h 4479 -3098 -3084 0
h -4479 3098 0
h -4479 3084 0
h 4480 -3117 -3107 -3091 0
h -4480 3117 0
h -4480 3107 0
h -4480 3091 0
h -478 3096 4477 4478 4479 4480 0
h 478 -3096 0
h 478 -4477 0
h 478 -4478 0
h 478 -4479 0
h 478 -4480 0
h 4481 -3117 -3098 0
h -4481 3117 0
h -4481 3098 0
h 4482 -3098 -3098 0
h -4482 3098 0
h -4482 3098 0
h 4483 -3098 -3117 0
h -4483 3098 0
h -4483 3117 0
h 4484 -3117 -3117 -3091 0
h -4484 3117 0
h -4484 3117 0
h -4484 3091 0
h -4485 3123 4481 4482 4483 4484 0
h 4485 -3123 0
h 4485 -4481 0
h 4485 -4482 0
h 4485 -4483 0
h 4485 -4484 0
h 4486 -3251 -3251 0
h -4486 3251 0
h -4486 3251 0
h -4487 3258 4486 0
h 4487 -3258 0
h 4487 -4486 0
h 4488 -3251 -3263 0
h -4488 3251 0
h -4488 3263 0
h -339 3265 4488 0
h 339 -3265 0
h 339 -4488 0
h 4489 -3251 -3269 0
h -4489 3251 0
h -4489 3269 0
h -337 3272 4489 0
h 337 -3272 0
h 337 -4489 0
h 4490 -3274 -3269 0
h -4490 3274 0
h -4490 3269 0
h -340 3279 4490 0
h 340 -3279 0
h 340 -4490 0
h 4491 -3263 -3274 0
h -4491 3263 0
h -4491 3274 0
h -338 3284 4491 0
h 338 -3284 0
h 338 -4491 0
h 4492 -3263 -3263 0
h -4492 3263 0
h -4492 3263 0
h -4493 3290 4492 0
h 4493 -3290 0
h 4493 -4492 0
h 4494 -1777 -1759 0
h -4494 1777 0
h -4494 1759 0
h 1760 -1759 -1759 0
h -1760 1759 0
h -1760 1759 0
h 4495 -1759 -1777 0
h -4495 1759 0
h -4495 1777 0
h 4496 -1777 -1777 -1407 0
h -4496 1777 0
h -4496 1777 0
h -4496 1407 0
h -4497 1763 4494 1760 4495 4496 0
h 4497 -1763 0
h 4497 -4494 0
h 4497 -1760 0
h 4497 -4495 0
h 4497 -4496 0
h 4498 -1777 -1410 0
h -4498 1777 0
h -4498 1410 0
h 4499 -1759 -1410 0
h -4499 1759 0
h -4499 1410 0
h 4500 -1759 -1418 0
h -4500 1759 0
h -4500 1418 0
h 4501 -1777 -1418 -1407 0
h -4501 1777 0
h -4501 1418 0
h -4501 1407 0
h -154 1766 4498 4499 4500 4501 0
h 154 -1766 0
h 154 -4498 0
h 154 -4499 0
h 154 -4500 0
h 154 -4501 0
h 4502 -1777 -1413 0
h -4502 1777 0
h -4502 1413 0
h 4503 -1759 -1416 0
h -4503 1759 0
h -4503 1416 0
h 4504 -1759 -1413 0
h -4504 1759 0
h -4504 1413 0
h 4505 -1777 -1416 -1407 0
h -4505 1777 0
h -4505 1416 0
h -4505 1407 0
h -152 1771 4502 4503 4504 4505 0
h 152 -1771 0
h 152 -4502 0
h 152 -4503 0
h 152 -4504 0
h 152 -4505 0
h 4506 -1415 -1413 0
h -4506 1415 0
h -4506 1413 0
h 4507 -1405 -1413 0
h -4507 1405 0
h -4507 1413 0
h 4508 -1405 -1416 0
h -4508 1405 0
h -4508 1416 0
h 4509 -1415 -1416 -1407 0
h -4509 1415 0
h -4509 1416 0
h -4509 1407 0
h -155 1412 4506 4507 4508 4509 0
h 155 -1412 0
h 155 -4506 0
h 155 -4507 0
h 155 -4508 0
h 155 -4509 0
h 4510 -1418 -1405 0
h -4510 1418 0
h -4510 1405 0
h 4511 -1410 -1415 0
h -4511 1410 0
h -4511 1415 0
h 4512 -1410 -1405 0
h -4512 1410 0
h -4512 1405 0
h 4513 -1418 -1415 -1407 0
h -4513 1418 0
h -4513 1415 0
h -4513 1407 0
h -153 1409 4510 4511 4512 4513 0
h 153 -1409 0
h 153 -4510 0
h 153 -4511 0
h 153 -4512 0
h 153 -4513 0
h 4514 -1418 -1410 0
h -4514 1418 0
h -4514 1410 0
h 4515 -1410 -1410 0
h -4515 1410 0
h -4515 1410 0
h 4516 -1410 -1418 0
h -4516 1410 0
h -4516 1418 0
h 4517 -1418 -1418 -1407 0
h -4517 1418 0
h -4517 1418 0
h -4517 1407 0
h -4518 1421 4514 4515 4516 4517 0
h 4518 -1421 0
h 4518 -4514 0
h 4518 -4515 0
h 4518 -4516 0
h 4518 -4517 0
h 4519 -4163 -4520 0
h -4519 4163 0
h -4519 4520 0
h 4521 -4520 -4520 0
h -4521 4520 0
h -4521 4520 0
h 4522 -4520 -4163 0
h -4522 4520 0
h -4522 4163 0
h 4523 -4163 -4163 -4524 0
h -4523 4163 0
h -4523 4163 0
h -4523 4524 0
h -4525 4165 4519 4521 4522 4523 0
h 4525 -4165 0
h 4525 -4519 0
h 4525 -4521 0
h 4525 -4522 0
h 4525 -4523 0
h 4526 -4163 -4527 0
h -4526 4163 0
h -4526 4527 0
h 4528 -4520 -4527 0
h -4528 4520 0
h -4528 4527 0
h 4529 -4520 -4167 0
h -4529 4520 0
h -4529 4167 0
h 4530 -4163 -4167 -4524 0
h -4530 4163 0
h -4530 4167 0
h -4530 4524 0
h -764 4168 4526 4528 4529 4530 0
h 764 -4168 0
h 764 -4526 0
h 764 -4528 0
h 764 -4529 0
h 764 -4530 0
h 4531 -4163 -4532 0
h -4531 4163 0
h -4531 4532 0
h 4533 -4520 -4170 0
h -4533 4520 0
h -4533 4170 0
h 4534 -4520 -4532 0
h -4534 4520 0
h -4534 4532 0
h 4535 -4163 -4170 -4524 0
h -4535 4163 0
h -4535 4170 0
h -4535 4524 0
h -762 4171 4531 4533 4534 4535 0
h 762 -4171 0
h 762 -4531 0
h 762 -4533 0
h 762 -4534 0
h 762 -4535 0
h 4536 -4173 -4532 0
h -4536 4173 0
h -4536 4532 0
h 4537 -4538 -4532 0
h -4537 4538 0
h -4537 4532 0
h 4539 -4538 -4170 0
h -4539 4538 0
h -4539 4170 0
h 4540 -4173 -4170 -4524 0
h -4540 4173 0
h -4540 4170 0
h -4540 4524 0
h -765 4174 4536 4537 4539 4540 0
h 765 -4174 0
h 765 -4536 0
h 765 -4537 0
h 765 -4539 0
h 765 -4540 0
h 4541 -4167 -4538 0
h -4541 4167 0
h -4541 4538 0
h 4542 -4527 -4173 0
h -4542 4527 0
h -4542 4173 0
h 4543 -4527 -4538 0
h -4543 4527 0
h -4543 4538 0
h 4544 -4167 -4173 -4524 0
h -4544 4167 0
h -4544 4173 0
h -4544 4524 0
h -763 4176 4541 4542 4543 4544 0
h 763 -4176 0
h 763 -4541 0
h 763 -4542 0
h 763 -4543 0
h 763 -4544 0
h 4545 -4167 -4527 0
h -4545 4167 0
h -4545 4527 0
h 4546 -4527 -4527 0
h -4546 4527 0
h -4546 4527 0
h 4547 -4527 -4167 0
h -4547 4527 0
h -4547 4167 0
h 4548 -4167 -4167 -4524 0
h -4548 4167 0
h -4548 4167 0
h -4548 4524 0
h -4549 4179 4545 4546 4547 4548 0
h 4549 -4179 0
h 4549 -4545 0
h 4549 -4546 0
h 4549 -4547 0
h 4549 -4548 0
h 4550 -1289 -1289 0
h -4550 1289 0
h -4550 1289 0
h -4551 1269 4550 0
h 4551 -1269 0
h 4551 -4550 0
h 4552 -1289 -1297 0
h -4552 1289 0
h -4552 1297 0
h -589 1273 4552 0
h 589 -1273 0
h 589 -4552 0
h 4553 -1289 -1292 0
h -4553 1289 0
h -4553 1292 0
h -587 1280 4553 0
h 587 -1280 0
h 587 -4553 0
h 4554 -1287 -1292 0
h -4554 1287 0
h -4554 1292 0
h -590 1282 4554 0
h 590 -1282 0
h 590 -4554 0
h 4555 -1297 -1287 0
h -4555 1297 0
h -4555 1287 0
h -588 1276 4555 0
h 588 -1276 0
h 588 -4555 0
h 4556 -1297 -1297 0
h -4556 1297 0
h -4556 1297 0
h -4557 1303 4556 0
h 4557 -1303 0
h 4557 -4556 0
h 4558 -2606 -2582 0
h -4558 2606 0
h -4558 2582 0
h 2583 -2582 -2582 0
h -2583 2582 0
h -2583 2582 0
h 4559 -2582 -2606 0
h -4559 2582 0
h -4559 2606 0
h 4560 -2606 -2606 -2588 0
h -4560 2606 0
h -4560 2606 0
h -4560 2588 0
h -4561 2586 4558 2583 4559 4560 0
h 4561 -2586 0
h 4561 -4558 0
h 4561 -2583 0
h 4561 -4559 0
h 4561 -4560 0
h 4562 -2606 -2595 0
h -4562 2606 0
h -4562 2595 0
h 4563 -2582 -2595 0
h -4563 2582 0
h -4563 2595 0
h 4564 -2582 -2614 0
h -4564 2582 0
h -4564 2614 0
h 4565 -2606 -2614 -2588 0
h -4565 2606 0
h -4565 2614 0
h -4565 2588 0
h -124 2590 4562 4563 4564 4565 0
h 124 -2590 0
h 124 -4562 0
h 124 -4563 0
h 124 -4564 0
h 124 -4565 0
h 4566 -2606 -2602 0
h -4566 2606 0
h -4566 2602 0
h 4567 -2582 -2609 0
h -4567 2582 0
h -4567 2609 0
h 4568 -2582 -2602 0
h -4568 2582 0
h -4568 2602 0
h 4569 -2606 -2609 -2588 0
h -4569 2606 0
h -4569 2609 0
h -4569 2588 0
h -122 2597 4566 4567 4568 4569 0
h 122 -2597 0
h 122 -4566 0
h 122 -4567 0
h 122 -4568 0
h 122 -4569 0
h 4570 -2604 -2602 0
h -4570 2604 0
h -4570 2602 0
h 4571 -2581 -2602 0
h -4571 2581 0
h -4571 2602 0
h 4572 -2581 -2609 0
h -4572 2581 0
h -4572 2609 0
h 4573 -2604 -2609 -2588 0
h -4573 2604 0
h -4573 2609 0
h -4573 2588 0
h -125 2599 4570 4571 4572 4573 0
h 125 -2599 0
h 125 -4570 0
h 125 -4571 0
h 125 -4572 0
h 125 -4573 0
h 4574 -2614 -2581 0
h -4574 2614 0
h -4574 2581 0
h 4575 -2595 -2604 0
h -4575 2595 0
h -4575 2604 0
h 4576 -2595 -2581 0
h -4576 2595 0
h -4576 2581 0
h 4577 -2614 -2604 -2588 0
h -4577 2614 0
h -4577 2604 0
h -4577 2588 0
h -123 2593 4574 4575 4576 4577 0
h 123 -2593 0
h 123 -4574 0
h 123 -4575 0
h 123 -4576 0
h 123 -4577 0
h 4578 -2614 -2595 0
h -4578 2614 0
h -4578 2595 0
h 4579 -2595 -2595 0
h -4579 2595 0
h -4579 2595 0
h 4580 -2595 -2614 0
h -4580 2595 0
h -4580 2614 0
h 4581 -2614 -2614 -2588 0
h -4581 2614 0
h -4581 2614 0
h -4581 2588 0
h -4582 2620 4578 4579 4580 4581 0
h 4582 -2620 0
h 4582 -4578 0
h 4582 -4579 0
h 4582 -4580 0
h 4582 -4581 0
h 4583 -1423 -4584 0
h -4583 1423 0
h -4583 4584 0
h 4585 -4584 -4584 0
h -4585 4584 0
h -4585 4584 0
h 4586 -4584 -1423 0
h -4586 4584 0
h -4586 1423 0
h 4587 -1423 -1423 -4588 0
h -4587 1423 0
h -4587 1423 0
h -4587 4588 0
h -4589 1425 4583 4585 4586 4587 0
h 4589 -1425 0
h 4589 -4583 0
h 4589 -4585 0
h 4589 -4586 0
h 4589 -4587 0
h 4590 -1423 -4591 0
h -4590 1423 0
h -4590 4591 0
h 4592 -4584 -4591 0
h -4592 4584 0
h -4592 4591 0
h 4593 -4584 -1427 0
h -4593 4584 0
h -4593 1427 0
h 4594 -1423 -1427 -4588 0
h -4594 1423 0
h -4594 1427 0
h -4594 4588 0
h -669 1428 4590 4592 4593 4594 0
h 669 -1428 0
h 669 -4590 0
h 669 -4592 0
h 669 -4593 0
h 669 -4594 0
h 4595 -1423 -4596 0
h -4595 1423 0
h -4595 4596 0
h 4597 -4584 -1430 0
h -4597 4584 0
h -4597 1430 0
h 4598 -4584 -4596 0
h -4598 4584 0
h -4598 4596 0
h 4599 -1423 -1430 -4588 0
h -4599 1423 0
h -4599 1430 0
h -4599 4588 0
h -667 1431 4595 4597 4598 4599 0
h 667 -1431 0
h 667 -4595 0
h 667 -4597 0
h 667 -4598 0
h 667 -4599 0
h 4600 -1433 -4596 0
h -4600 1433 0
h -4600 4596 0
h 4601 -4602 -4596 0
h -4601 4602 0
h -4601 4596 0
h 4603 -4602 -1430 0
h -4603 4602 0
h -4603 1430 0
h 4604 -1433 -1430 -4588 0
h -4604 1433 0
h -4604 1430 0
h -4604 4588 0
h -670 1434 4600 4601 4603 4604 0
h 670 -1434 0
h 670 -4600 0
h 670 -4601 0
h 670 -4603 0
h 670 -4604 0
h 4605 -1427 -4602 0
h -4605 1427 0
h -4605 4602 0
h 4606 -4591 -1433 0
h -4606 4591 0
h -4606 1433 0
h 4607 -4591 -4602 0
h -4607 4591 0
h -4607 4602 0
h 4608 -1427 -1433 -4588 0
h -4608 1427 0
h -4608 1433 0
h -4608 4588 0
h -668 1436 4605 4606 4607 4608 0
h 668 -1436 0
h 668 -4605 0
h 668 -4606 0
h 668 -4607 0
h 668 -4608 0
h 4609 -1427 -4591 0
h -4609 1427 0
h -4609 4591 0
h 4610 -4591 -4591 0
h -4610 4591 0
h -4610 4591 0
h 4611 -4591 -1427 0
h -4611 4591 0
h -4611 1427 0
h 4612 -1427 -1427 -4588 0
h -4612 1427 0
h -4612 1427 0
h -4612 4588 0
h -4613 1439 4609 4610 4611 4612 0
h 4613 -1439 0
h 4613 -4609 0
h 4613 -4610 0
h 4613 -4611 0
h 4613 -4612 0
h 4614 -1700 -3481 0
h -4614 1700 0
h -4614 3481 0
h 3482 -3481 -3481 0
h -3482 3481 0
h -3482 3481 0
h 4615 -3481 -1700 0
h -4615 3481 0
h -4615 1700 0
h 4616 -1700 -1700 -3486 0
h -4616 1700 0
h -4616 1700 0
h -4616 3486 0
h -4617 1702 4614 3482 4615 4616 0
h 4617 -1702 0
h 4617 -4614 0
h 4617 -3482 0
h 4617 -4615 0
h 4617 -4616 0
h 4618 -1700 -3491 0
h -4618 1700 0
h -4618 3491 0
h 4619 -3481 -3491 0
h -4619 3481 0
h -4619 3491 0
h 4620 -3481 -1704 0
h -4620 3481 0
h -4620 1704 0
h 4621 -1700 -1704 -3486 0
h -4621 1700 0
h -4621 1704 0
h -4621 3486 0
h -104 1705 4618 4619 4620 4621 0
h 104 -1705 0
h 104 -4618 0
h 104 -4619 0
h 104 -4620 0
h 104 -4621 0
h 4622 -1700 -3496 0
h -4622 1700 0
h -4622 3496 0
h 4623 -3481 -1707 0
h -4623 3481 0
h -4623 1707 0
h 4624 -3481 -3496 0
h -4624 3481 0
h -4624 3496 0
h 4625 -1700 -1707 -3486 0
h -4625 1700 0
h -4625 1707 0
h -4625 3486 0
h -102 1708 4622 4623 4624 4625 0
h 102 -1708 0
h 102 -4622 0
h 102 -4623 0
h 102 -4624 0
h 102 -4625 0
h 4626 -1710 -3496 0
h -4626 1710 0
h -4626 3496 0
h 4627 -3480 -3496 0
h -4627 3480 0
h -4627 3496 0
h 4628 -3480 -1707 0
h -4628 3480 0
h -4628 1707 0
h 4629 -1710 -1707 -3486 0
h -4629 1710 0
h -4629 1707 0
h -4629 3486 0
h -105 1711 4626 4627 4628 4629 0
h 105 -1711 0
h 105 -4626 0
h 105 -4627 0
h 105 -4628 0
h 105 -4629 0
h 4630 -1704 -3480 0
h -4630 1704 0
h -4630 3480 0
h 4631 -3491 -1710 0
h -4631 3491 0
h -4631 1710 0
h 4632 -3491 -3480 0
h -4632 3491 0
h -4632 3480 0
h 4633 -1704 -1710 -3486 0
h -4633 1704 0
h -4633 1710 0
h -4633 3486 0
h -103 1713 4630 4631 4632 4633 0
h 103 -1713 0
h 103 -4630 0
h 103 -4631 0
h 103 -4632 0
h 103 -4633 0
h 4634 -1704 -3491 0
h -4634 1704 0
h -4634 3491 0
h 4635 -3491 -3491 0
h -4635 3491 0
h -4635 3491 0
h 4636 -3491 -1704 0
h -4636 3491 0
h -4636 1704 0
h 4637 -1704 -1704 -3486 0
h -4637 1704 0
h -4637 1704 0
h -4637 3486 0
h -4638 1716 4634 4635 4636 4637 0
h 4638 -1716 0
h 4638 -4634 0
h 4638 -4635 0
h 4638 -4636 0
h 4638 -4637 0
h 4639 -1777 -1777 0
h -4639 1777 0
h -4639 1777 0
h -4640 1763 4639 0
h 4640 -1763 0
h 4640 -4639 0
h 4641 -1777 -1418 0
h -4641 1777 0
h -4641 1418 0
h -484 1766 4641 0
h 484 -1766 0
h 484 -4641 0
h 4642 -1777 -1416 0
h -4642 1777 0
h -4642 1416 0
h -482 1771 4642 0
h 482 -1771 0
h 482 -4642 0
h 4643 -1415 -1416 0
h -4643 1415 0
h -4643 1416 0
h -485 1412 4643 0
h 485 -1412 0
h 485 -4643 0
h 4644 -1418 -1415 0
h -4644 1418 0
h -4644 1415 0
h -483 1409 4644 0
h 483 -1409 0
h 483 -4644 0
h 4645 -1418 -1418 0
h -4645 1418 0
h -4645 1418 0
h -4646 1421 4645 0
h 4646 -1421 0
h 4646 -4645 0
h 4647 -4648 -4649 0
h -4647 4648 0
h -4647 4649 0
h 4650 -4649 -4649 0
h -4650 4649 0
h -4650 4649 0
h 4651 -4649 -4648 0
h -4651 4649 0
h -4651 4648 0
h 4652 -4648 -4648 -4653 0
h -4652 4648 0
h -4652 4648 0
h -4652 4653 0
h -4654 4655 4647 4650 4651 4652 0
h 4654 -4655 0
h 4654 -4647 0
h 4654 -4650 0
h 4654 -4651 0
h 4654 -4652 0
h 4656 -4648 -4657 0
h -4656 4648 0
h -4656 4657 0
h 4658 -4649 -4657 0
h -4658 4649 0
h -4658 4657 0
h 4659 -4649 -4660 0
h -4659 4649 0
h -4659 4660 0
h 4661 -4648 -4660 -4653 0
h -4661 4648 0
h -4661 4660 0
h -4661 4653 0
h -659 4662 4656 4658 4659 4661 0
h 659 -4662 0
h 659 -4656 0
h 659 -4658 0
h 659 -4659 0
h 659 -4661 0
h 4663 -4648 -4664 0
h -4663 4648 0
h -4663 4664 0
h 4665 -4649 -4666 0
h -4665 4649 0
h -4665 4666 0
h 4667 -4649 -4664 0
h -4667 4649 0
h -4667 4664 0
h 4668 -4648 -4666 -4653 0
h -4668 4648 0
h -4668 4666 0
h -4668 4653 0
h -657 4669 4663 4665 4667 4668 0
h 657 -4669 0
h 657 -4663 0
h 657 -4665 0
h 657 -4667 0
h 657 -4668 0
h 4670 -4671 -4664 0
h -4670 4671 0
h -4670 4664 0
h 4672 -4673 -4664 0
h -4672 4673 0
h -4672 4664 0
h 4674 -4673 -4666 0
h -4674 4673 0
h -4674 4666 0
h 4675 -4671 -4666 -4653 0
h -4675 4671 0
h -4675 4666 0
h -4675 4653 0
h -660 4676 4670 4672 4674 4675 0
h 660 -4676 0
h 660 -4670 0
h 660 -4672 0
h 660 -4674 0
h 660 -4675 0
h 4677 -4660 -4673 0
h -4677 4660 0
h -4677 4673 0
h 4678 -4657 -4671 0
h -4678 4657 0
h -4678 4671 0
h 4679 -4657 -4673 0
h -4679 4657 0
h -4679 4673 0
h 4680 -4660 -4671 -4653 0
h -4680 4660 0
h -4680 4671 0
h -4680 4653 0
h -658 4681 4677 4678 4679 4680 0
h 658 -4681 0
h 658 -4677 0
h 658 -4678 0
h 658 -4679 0
h 658 -4680 0
h 4682 -4660 -4657 0
h -4682 4660 0
h -4682 4657 0
h 4683 -4657 -4657 0
h -4683 4657 0
h -4683 4657 0
h 4684 -4657 -4660 0
h -4684 4657 0
h -4684 4660 0
h 4685 -4660 -4660 -4653 0
h -4685 4660 0
h -4685 4660 0
h -4685 4653 0
h -4686 4687 4682 4683 4684 4685 0
h 4686 -4687 0
h 4686 -4682 0
h 4686 -4683 0
h 4686 -4684 0
h 4686 -4685 0
h 4688 -3078 -3078 0
h -4688 3078 0
h -4688 3078 0
h -4689 3074 4688 0
h 4689 -3074 0
h 4689 -4688 0
h 4690 -3078 -2845 0
h -4690 3078 0
h -4690 2845 0
h -414 4228 4690 0
h 414 -4228 0
h 414 -4690 0
h 4691 -3078 -2843 0
h -4691 3078 0
h -4691 2843 0
h -412 3072 4691 0
h 412 -3072 0
h 412 -4691 0
h 4692 -2842 -2843 0
h -4692 2842 0
h -4692 2843 0
h -415 2839 4692 0
h 415 -2839 0
h 415 -4692 0
h 4693 -2845 -2842 0
h -4693 2845 0
h -4693 2842 0
h -413 2836 4693 0
h 413 -2836 0
h 413 -4693 0
h 4694 -2845 -2845 0
h -4694 2845 0
h -4694 2845 0
h -4695 2848 4694 0
h 4695 -2848 0
h 4695 -4694 0
h 4696 -2807 -2800 0
h -4696 2807 0
h -4696 2800 0
h 2826 -2800 -2800 0
h -2826 2800 0
h -2826 2800 0
h 4697 -2800 -2807 0
h -4697 2800 0
h -4697 2807 0
h 4698 -2807 -2807 -2830 0
h -4698 2807 0
h -4698 2807 0
h -4698 2830 0
h -4699 2796 4696 2826 4697 4698 0
h 4699 -2796 0
h 4699 -4696 0
h 4699 -2826 0
h 4699 -4697 0
h 4699 -4698 0
h 4700 -2807 -2805 0
h -4700 2807 0
h -4700 2805 0
h 4701 -2800 -2805 0
h -4701 2800 0
h -4701 2805 0
h 4702 -2800 -2812 0
h -4702 2800 0
h -4702 2812 0
h 4703 -2807 -2812 -2830 0
h -4703 2807 0
h -4703 2812 0
h -4703 2830 0
h -389 2792 4700 4701 4702 4703 0
h 389 -2792 0
h 389 -4700 0
h 389 -4701 0
h 389 -4702 0
h 389 -4703 0
h 4704 -2807 -2824 0
h -4704 2807 0
h -4704 2824 0
h 4705 -2800 -2819 0
h -4705 2800 0
h -4705 2819 0
h 4706 -2800 -2824 0
h -4706 2800 0
h -4706 2824 0
h 4707 -2807 -2819 -2830 0
h -4707 2807 0
h -4707 2819 0
h -4707 2830 0
h -387 2816 4704 4705 4706 4707 0
h 387 -2816 0
h 387 -4704 0
h 387 -4705 0
h 387 -4706 0
h 387 -4707 0
h 4708 -2809 -2824 0
h -4708 2809 0
h -4708 2824 0
h 4709 -2803 -2824 0
h -4709 2803 0
h -4709 2824 0
h 4710 -2803 -2819 0
h -4710 2803 0
h -4710 2819 0
h 4711 -2809 -2819 -2830 0
h -4711 2809 0
h -4711 2819 0
h -4711 2830 0
h -390 2814 4708 4709 4710 4711 0
h 390 -2814 0
h 390 -4708 0
h 390 -4709 0
h 390 -4710 0
h 390 -4711 0
h 4712 -2812 -2803 0
h -4712 2812 0
h -4712 2803 0
h 4713 -2805 -2809 0
h -4713 2805 0
h -4713 2809 0
h 4714 -2805 -2803 0
h -4714 2805 0
h -4714 2803 0
h 4715 -2812 -2809 -2830 0
h -4715 2812 0
h -4715 2809 0
h -4715 2830 0
h -388 2791 4712 4713 4714 4715 0
h 388 -2791 0
h 388 -4712 0
h 388 -4713 0
h 388 -4714 0
h 388 -4715 0
h 4716 -2812 -2805 0
h -4716 2812 0
h -4716 2805 0
h 4717 -2805 -2805 0
h -4717 2805 0
h -4717 2805 0
h 4718 -2805 -2812 0
h -4718 2805 0
h -4718 2812 0
h 4719 -2812 -2812 -2830 0
h -4719 2812 0
h -4719 2812 0
h -4719 2830 0
h -4720 2798 4716 4717 4718 4719 0
h 4720 -2798 0
h 4720 -4716 0
h 4720 -4717 0
h 4720 -4718 0
h 4720 -4719 0
h 4721 -2665 -2641 0
h -4721 2665 0
h -4721 2641 0
h 2642 -2641 -2641 0
h -2642 2641 0
h -2642 2641 0
h 4722 -2641 -2665 0
h -4722 2641 0
h -4722 2665 0
h 4723 -2665 -2665 -2647 0
h -4723 2665 0
h -4723 2665 0
h -4723 2647 0
h -4724 2645 4721 2642 4722 4723 0
h 4724 -2645 0
h 4724 -4721 0
h 4724 -2642 0
h 4724 -4722 0
h 4724 -4723 0
h 4725 -2665 -2654 0
h -4725 2665 0
h -4725 2654 0
h 4726 -2641 -2654 0
h -4726 2641 0
h -4726 2654 0
h 4727 -2641 -2673 0
h -4727 2641 0
h -4727 2673 0
h 4728 -2665 -2673 -2647 0
h -4728 2665 0
h -4728 2673 0
h -4728 2647 0
h -249 2649 4725 4726 4727 4728 0
h 249 -2649 0
h 249 -4725 0
h 249 -4726 0
h 249 -4727 0
h 249 -4728 0
h 4729 -2665 -2661 0
h -4729 2665 0
h -4729 2661 0
h 4730 -2641 -2668 0
h -4730 2641 0
h -4730 2668 0
h 4731 -2641 -2661 0
h -4731 2641 0
h -4731 2661 0
h 4732 -2665 -2668 -2647 0
h -4732 2665 0
h -4732 2668 0
h -4732 2647 0
h -247 2656 4729 4730 4731 4732 0
h 247 -2656 0
h 247 -4729 0
h 247 -4730 0
h 247 -4731 0
h 247 -4732 0
h 4733 -2663 -2661 0
h -4733 2663 0
h -4733 2661 0
h 4734 -2640 -2661 0
h -4734 2640 0
h -4734 2661 0
h 4735 -2640 -2668 0
h -4735 2640 0
h -4735 2668 0
h 4736 -2663 -2668 -2647 0
h -4736 2663 0
h -4736 2668 0
h -4736 2647 0
h -250 2658 4733 4734 4735 4736 0
h 250 -2658 0
h 250 -4733 0
h 250 -4734 0
h 250 -4735 0
h 250 -4736 0
h 4737 -2673 -2640 0
h -4737 2673 0
h -4737 2640 0
h 4738 -2654 -2663 0
h -4738 2654 0
h -4738 2663 0
h 4739 -2654 -2640 0
h -4739 2654 0
h -4739 2640 0
h 4740 -2673 -2663 -2647 0
h -4740 2673 0
h -4740 2663 0
h -4740 2647 0
h -248 2652 4737 4738 4739 4740 0
h 248 -2652 0
h 248 -4737 0
h 248 -4738 0
h 248 -4739 0
h 248 -4740 0
h 4741 -2673 -2654 0
h -4741 2673 0
h -4741 2654 0
h 4742 -2654 -2654 0
h -4742 2654 0
h -4742 2654 0
h 4743 -2654 -2673 0
h -4743 2654 0
h -4743 2673 0
h 4744 -2673 -2673 -2647 0
h -4744 2673 0
h -4744 2673 0
h -4744 2647 0
h -4745 2679 4741 4742 4743 4744 0
h 4745 -2679 0
h 4745 -4741 0
h 4745 -4742 0
h 4745 -4743 0
h 4745 -4744 0
h 4746 -4747 -4748 0
h -4746 4747 0
h -4746 4748 0
h 4749 -4748 -4748 0
h -4749 4748 0
h -4749 4748 0
h 4750 -4748 -4747 0
h -4750 4748 0
h -4750 4747 0
h 4751 -4747 -4747 -4752 0
h -4751 4747 0
h -4751 4747 0
h -4751 4752 0
h -4753 4754 4746 4749 4750 4751 0
h 4753 -4754 0
h 4753 -4746 0
h 4753 -4749 0
h 4753 -4750 0
h 4753 -4751 0
h 4755 -4747 -4756 0
h -4755 4747 0
h -4755 4756 0
h 4757 -4748 -4756 0
h -4757 4748 0
h -4757 4756 0
h 4758 -4748 -4759 0
h -4758 4748 0
h -4758 4759 0
h 4760 -4747 -4759 -4752 0
h -4760 4747 0
h -4760 4759 0
h -4760 4752 0
h -674 4761 4755 4757 4758 4760 0
h 674 -4761 0
h 674 -4755 0
h 674 -4757 0
h 674 -4758 0
h 674 -4760 0
h 4762 -4747 -4763 0
h -4762 4747 0
h -4762 4763 0
h 4764 -4748 -4765 0
h -4764 4748 0
h -4764 4765 0
h 4766 -4748 -4763 0
h -4766 4748 0
h -4766 4763 0
h 4767 -4747 -4765 -4752 0
h -4767 4747 0
h -4767 4765 0
h -4767 4752 0
h -672 4768 4762 4764 4766 4767 0
h 672 -4768 0
h 672 -4762 0
h 672 -4764 0
h 672 -4766 0
h 672 -4767 0
h 4769 -4770 -4763 0
h -4769 4770 0
h -4769 4763 0
h 4771 -4772 -4763 0
h -4771 4772 0
h -4771 4763 0
h 4773 -4772 -4765 0
h -4773 4772 0
h -4773 4765 0
h 4774 -4770 -4765 -4752 0
h -4774 4770 0
h -4774 4765 0
h -4774 4752 0
h -675 4775 4769 4771 4773 4774 0
h 675 -4775 0
h 675 -4769 0
h 675 -4771 0
h 675 -4773 0
h 675 -4774 0
h 4776 -4759 -4772 0
h -4776 4759 0
h -4776 4772 0
h 4777 -4756 -4770 0
h -4777 4756 0
h -4777 4770 0
h 4778 -4756 -4772 0
h -4778 4756 0
h -4778 4772 0
h 4779 -4759 -4770 -4752 0
h -4779 4759 0
h -4779 4770 0
h -4779 4752 0
h -673 4780 4776 4777 4778 4779 0
h 673 -4780 0
h 673 -4776 0
h 673 -4777 0
h 673 -4778 0
h 673 -4779 0
h 4781 -4759 -4756 0
h -4781 4759 0
h -4781 4756 0
h 4782 -4756 -4756 0
h -4782 4756 0
h -4782 4756 0
h 4783 -4756 -4759 0
h -4783 4756 0
h -4783 4759 0
h 4784 -4759 -4759 -4752 0
h -4784 4759 0
h -4784 4759 0
h -4784 4752 0
h -4785 4786 4781 4782 4783 4784 0
h 4785 -4786 0
h 4785 -4781 0
h 4785 -4782 0
h 4785 -4783 0
h 4785 -4784 0
h 4787 -2816 -2792 0
h -4787 2816 0
h -4787 2792 0
h 2793 -2792 -2792 0
h -2793 2792 0
h -2793 2792 0
h 4788 -2792 -2816 0
h -4788 2792 0
h -4788 2816 0
h 4789 -2816 -2816 -2798 0
h -4789 2816 0
h -4789 2816 0
h -4789 2798 0
h -4790 2796 4787 2793 4788 4789 0
h 4790 -2796 0
h 4790 -4787 0
h 4790 -2793 0
h 4790 -4788 0
h 4790 -4789 0
h 4791 -2816 -2805 0
h -4791 2816 0
h -4791 2805 0
h 4792 -2792 -2805 0
h -4792 2792 0
h -4792 2805 0
h 4793 -2792 -2824 0
h -4793 2792 0
h -4793 2824 0
h 4794 -2816 -2824 -2798 0
h -4794 2816 0
h -4794 2824 0
h -4794 2798 0
h -419 2800 4791 4792 4793 4794 0
h 419 -2800 0
h 419 -4791 0
h 419 -4792 0
h 419 -4793 0
h 419 -4794 0
h 4795 -2816 -2812 0
h -4795 2816 0
h -4795 2812 0
h 4796 -2792 -2819 0
h -4796 2792 0
h -4796 2819 0
h 4797 -2792 -2812 0
h -4797 2792 0
h -4797 2812 0
h 4798 -2816 -2819 -2798 0
h -4798 2816 0
h -4798 2819 0
h -4798 2798 0
h -417 2807 4795 4796 4797 4798 0
h 417 -2807 0
h 417 -4795 0
h 417 -4796 0
h 417 -4797 0
h 417 -4798 0
h 4799 -2814 -2812 0
h -4799 2814 0
h -4799 2812 0
h 4800 -2791 -2812 0
h -4800 2791 0
h -4800 2812 0
h 4801 -2791 -2819 0
h -4801 2791 0
h -4801 2819 0
h 4802 -2814 -2819 -2798 0
h -4802 2814 0
h -4802 2819 0
h -4802 2798 0
h -420 2809 4799 4800 4801 4802 0
h 420 -2809 0
h 420 -4799 0
h 420 -4800 0
h 420 -4801 0
h 420 -4802 0
h 4803 -2824 -2791 0
h -4803 2824 0
h -4803 2791 0
h 4804 -2805 -2814 0
h -4804 2805 0
h -4804 2814 0
h 4805 -2805 -2791 0
h -4805 2805 0
h -4805 2791 0
h 4806 -2824 -2814 -2798 0
h -4806 2824 0
h -4806 2814 0
h -4806 2798 0
h -418 2803 4803 4804 4805 4806 0
h 418 -2803 0
h 418 -4803 0
h 418 -4804 0
h 418 -4805 0
h 418 -4806 0
h 4807 -2824 -2805 0
h -4807 2824 0
h -4807 2805 0
h 4717 -2805 -2805 0
h -4717 2805 0
h -4717 2805 0
h 4808 -2805 -2824 0
h -4808 2805 0
h -4808 2824 0
h 4809 -2824 -2824 -2798 0
h -4809 2824 0
h -4809 2824 0
h -4809 2798 0
h -4810 2830 4807 4717 4808 4809 0
h 4810 -2830 0
h 4810 -4807 0
h 4810 -4717 0
h 4810 -4808 0
h 4810 -4809 0
h 4811 -3877 -3877 0
h -4811 3877 0
h -4811 3877 0
h -4812 3883 4811 0
h 4812 -3883 0
h 4812 -4811 0
h 4813 -3877 -3716 0
h -4813 3877 0
h -4813 3716 0
h -994 3888 4813 0
h 994 -3888 0
h 994 -4813 0
h 4814 -3877 -3714 0
h -4814 3877 0
h -4814 3714 0
h -992 3893 4814 0
h 992 -3893 0
h 992 -4814 0
h 4815 -3713 -3714 0
h -4815 3713 0
h -4815 3714 0
h -995 3710 4815 0
h 995 -3710 0
h 995 -4815 0
h 4816 -3716 -3713 0
h -4816 3716 0
h -4816 3713 0
h -993 3707 4816 0
h 993 -3707 0
h 993 -4816 0
h 4817 -3716 -3716 0
h -4817 3716 0
h -4817 3716 0
h -4818 3719 4817 0
h 4818 -3719 0
h 4818 -4817 0
h 4819 -2035 -2035 0
h -4819 2035 0
h -4819 2035 0
h -4820 2042 4819 0
h 4820 -2042 0
h 4820 -4819 0
h 4821 -2035 -2047 0
h -4821 2035 0
h -4821 2047 0
h -974 2049 4821 0
h 974 -2049 0
h 974 -4821 0
h 4822 -2035 -2053 0
h -4822 2035 0
h -4822 2053 0
h -972 2056 4822 0
h 972 -2056 0
h 972 -4822 0
h 4823 -2058 -2053 0
h -4823 2058 0
h -4823 2053 0
h -975 2063 4823 0
h 975 -2063 0
h 975 -4823 0
h 4824 -2047 -2058 0
h -4824 2047 0
h -4824 2058 0
h -973 2068 4824 0
h 973 -2068 0
h 973 -4824 0
h 4825 -2047 -2047 0
h -4825 2047 0
h -4825 2047 0
h -4826 2074 4825 0
h 4826 -2074 0
h 4826 -4825 0
h 4827 -2606 -2606 0
h -4827 2606 0
h -4827 2606 0
h -4828 2586 4827 0
h 4828 -2586 0
h 4828 -4827 0
h 4829 -2606 -2614 0
h -4829 2606 0
h -4829 2614 0
h -439 2590 4829 0
h 439 -2590 0
h 439 -4829 0
h 4830 -2606 -2609 0
h -4830 2606 0
h -4830 2609 0
h -437 2597 4830 0
h 437 -2597 0
h 437 -4830 0
h 4831 -2604 -2609 0
h -4831 2604 0
h -4831 2609 0
h -440 2599 4831 0
h 440 -2599 0
h 440 -4831 0
h 4832 -2614 -2604 0
h -4832 2614 0
h -4832 2604 0
h -438 2593 4832 0
h 438 -2593 0
h 438 -4832 0
h 4833 -2614 -2614 0
h -4833 2614 0
h -4833 2614 0
h -4834 2620 4833 0
h 4834 -2620 0
h 4834 -4833 0
h 4835 -1718 -1718 0
h -4835 1718 0
h -4835 1718 0
h -4836 1725 4835 0
h 4836 -1725 0
h 4836 -4835 0
h 4837 -1718 -1730 0
h -4837 1718 0
h -4837 1730 0
h -979 1732 4837 0
h 979 -1732 0
h 979 -4837 0
h 4838 -1718 -1736 0
h -4838 1718 0
h -4838 1736 0
h -977 1739 4838 0
h 977 -1739 0
h 977 -4838 0
h 4839 -1741 -1736 0
h -4839 1741 0
h -4839 1736 0
h -980 1746 4839 0
h 980 -1746 0
h 980 -4839 0
h 4840 -1730 -1741 0
h -4840 1730 0
h -4840 1741 0
h -978 1751 4840 0
h 978 -1751 0
h 978 -4840 0
h 4841 -1730 -1730 0
h -4841 1730 0
h -4841 1730 0
h -4842 1757 4841 0
h 4842 -1757 0
h 4842 -4841 0
h 4843 -2169 -3224 0
h -4843 2169 0
h -4843 3224 0
h 3225 -3224 -3224 0
h -3225 3224 0
h -3225 3224 0
h 4844 -3224 -2169 0
h -4844 3224 0
h -4844 2169 0
h 4845 -2169 -2169 -2001 0
h -4845 2169 0
h -4845 2169 0
h -4845 2001 0
h -4846 2171 4843 3225 4844 4845 0
h 4846 -2171 0
h 4846 -4843 0
h 4846 -3225 0
h 4846 -4844 0
h 4846 -4845 0
h 4847 -2169 -2004 0
h -4847 2169 0
h -4847 2004 0
h 4848 -3224 -2004 0
h -4848 3224 0
h -4848 2004 0
h 4849 -3224 -2012 0
h -4849 3224 0
h -4849 2012 0
h 4850 -2169 -2012 -2001 0
h -4850 2169 0
h -4850 2012 0
h -4850 2001 0
h -904 2173 4847 4848 4849 4850 0
h 904 -2173 0
h 904 -4847 0
h 904 -4848 0
h 904 -4849 0
h 904 -4850 0
h 4851 -2169 -2007 0
h -4851 2169 0
h -4851 2007 0
h 4852 -3224 -2010 0
h -4852 3224 0
h -4852 2010 0
h 4853 -3224 -2007 0
h -4853 3224 0
h -4853 2007 0
h 4854 -2169 -2010 -2001 0
h -4854 2169 0
h -4854 2010 0
h -4854 2001 0
h -902 2175 4851 4852 4853 4854 0
h 902 -2175 0
h 902 -4851 0
h 902 -4852 0
h 902 -4853 0
h 902 -4854 0
h 4855 -2009 -2007 0
h -4855 2009 0
h -4855 2007 0
h 4856 -1999 -2007 0
h -4856 1999 0
h -4856 2007 0
h 4857 -1999 -2010 0
h -4857 1999 0
h -4857 2010 0
h 4858 -2009 -2010 -2001 0
h -4858 2009 0
h -4858 2010 0
h -4858 2001 0
h -905 2006 4855 4856 4857 4858 0
h 905 -2006 0
h 905 -4855 0
h 905 -4856 0
h 905 -4857 0
h 905 -4858 0
h 4859 -2012 -1999 0
h -4859 2012 0
h -4859 1999 0
h 4860 -2004 -2009 0
h -4860 2004 0
h -4860 2009 0
h 4861 -2004 -1999 0
h -4861 2004 0
h -4861 1999 0
h 4862 -2012 -2009 -2001 0
h -4862 2012 0
h -4862 2009 0
h -4862 2001 0
h -903 2003 4859 4860 4861 4862 0
h 903 -2003 0
h 903 -4859 0
h 903 -4860 0
h 903 -4861 0
h 903 -4862 0
h 4863 -2012 -2004 0
h -4863 2012 0
h -4863 2004 0
h 4864 -2004 -2004 0
h -4864 2004 0
h -4864 2004 0
h 4865 -2004 -2012 0
h -4865 2004 0
h -4865 2012 0
h 4866 -2012 -2012 -2001 0
h -4866 2012 0
h -4866 2012 0
h -4866 2001 0
h -4867 2015 4863 4864 4865 4866 0
h 4867 -2015 0
h 4867 -4863 0
h 4867 -4864 0
h 4867 -4865 0
h 4867 -4866 0
h 4868 -4070 -4070 0
h -4868 4070 0
h -4868 4070 0
h -4869 4077 4868 0
h 4869 -4077 0
h 4869 -4868 0
h 4870 -4070 -4082 0
h -4870 4070 0
h -4870 4082 0
h -774 4084 4870 0
h 774 -4084 0
h 774 -4870 0
h 4871 -4070 -4088 0
h -4871 4070 0
h -4871 4088 0
h -772 4091 4871 0
h 772 -4091 0
h 772 -4871 0
h 4872 -4093 -4088 0
h -4872 4093 0
h -4872 4088 0
h -775 4098 4872 0
h 775 -4098 0
h 775 -4872 0
h 4873 -4082 -4093 0
h -4873 4082 0
h -4873 4093 0
h -773 4103 4873 0
h 773 -4103 0
h 773 -4873 0
h 4874 -4082 -4082 0
h -4874 4082 0
h -4874 4082 0
h -4875 4109 4874 0
h 4875 -4109 0
h 4875 -4874 0
h 4876 -1595 -1587 0
h -4876 1595 0
h -4876 1587 0
h 4877 -1587 -1587 0
h -4877 1587 0
h -4877 1587 0
h 4878 -1587 -1595 0
h -4878 1587 0
h -4878 1595 0
h 4879 -1595 -1595 -1584 0
h -4879 1595 0
h -4879 1595 0
h -4879 1584 0
h -4880 1598 4876 4877 4878 4879 0
h 4880 -1598 0
h 4880 -4876 0
h 4880 -4877 0
h 4880 -4878 0
h 4880 -4879 0
h 4881 -1595 -2989 0
h -4881 1595 0
h -4881 2989 0
h 4882 -1587 -2989 0
h -4882 1587 0
h -4882 2989 0
h 4883 -1587 -2732 0
h -4883 1587 0
h -4883 2732 0
h 4884 -1595 -2732 -1584 0
h -4884 1595 0
h -4884 2732 0
h -4884 1584 0
h -29 2733 4881 4882 4883 4884 0
h 29 -2733 0
h 29 -4881 0
h 29 -4882 0
h 29 -4883 0
h 29 -4884 0
h 4885 -1595 -1582 0
h -4885 1595 0
h -4885 1582 0
h 4886 -1587 -1592 0
h -4886 1587 0
h -4886 1592 0
h 4887 -1587 -1582 0
h -4887 1587 0
h -4887 1582 0
h 4888 -1595 -1592 -1584 0
h -4888 1595 0
h -4888 1592 0
h -4888 1584 0
h -27 1586 4885 4886 4887 4888 0
h 27 -1586 0
h 27 -4885 0
h 27 -4886 0
h 27 -4887 0
h 27 -4888 0
h 4889 -1593 -1582 0
h -4889 1593 0
h -4889 1582 0
h 4890 -1590 -1582 0
h -4890 1590 0
h -4890 1582 0
h 4891 -1590 -1592 0
h -4891 1590 0
h -4891 1592 0
h 4892 -1593 -1592 -1584 0
h -4892 1593 0
h -4892 1592 0
h -4892 1584 0
h -30 1589 4889 4890 4891 4892 0
h 30 -1589 0
h 30 -4889 0
h 30 -4890 0
h 30 -4891 0
h 30 -4892 0
h 4893 -2732 -1590 0
h -4893 2732 0
h -4893 1590 0
h 4894 -2989 -1593 0
h -4894 2989 0
h -4894 1593 0
h 4895 -2989 -1590 0
h -4895 2989 0
h -4895 1590 0
h 4896 -2732 -1593 -1584 0
h -4896 2732 0
h -4896 1593 0
h -4896 1584 0
h -28 2737 4893 4894 4895 4896 0
h 28 -2737 0
h 28 -4893 0
h 28 -4894 0
h 28 -4895 0
h 28 -4896 0
h 4897 -2732 -2989 0
h -4897 2732 0
h -4897 2989 0
h 2990 -2989 -2989 0
h -2990 2989 0
h -2990 2989 0
h 4898 -2989 -2732 0
h -4898 2989 0
h -4898 2732 0
h 4899 -2732 -2732 -1584 0
h -4899 2732 0
h -4899 2732 0
h -4899 1584 0
h -4900 2740 4897 2990 4898 4899 0
h 4900 -2740 0
h 4900 -4897 0
h 4900 -2990 0
h 4900 -4898 0
h 4900 -4899 0
h 4901 -4902 -4903 0
h -4901 4902 0
h -4901 4903 0
h 4904 -4903 -4903 0
h -4904 4903 0
h -4904 4903 0
h 4905 -4903 -4902 0
h -4905 4903 0
h -4905 4902 0
h 4906 -4902 -4902 -4907 0
h -4906 4902 0
h -4906 4902 0
h -4906 4907 0
h -4908 4909 4901 4904 4905 4906 0
h 4908 -4909 0
h 4908 -4901 0
h 4908 -4904 0
h 4908 -4905 0
h 4908 -4906 0
h 4910 -4902 -4911 0
h -4910 4902 0
h -4910 4911 0
h 4912 -4903 -4911 0
h -4912 4903 0
h -4912 4911 0
h 4913 -4903 -4914 0
h -4913 4903 0
h -4913 4914 0
h 4915 -4902 -4914 -4907 0
h -4915 4902 0
h -4915 4914 0
h -4915 4907 0
h -1044 4916 4910 4912 4913 4915 0
h 1044 -4916 0
h 1044 -4910 0
h 1044 -4912 0
h 1044 -4913 0
h 1044 -4915 0
h 4917 -4902 -4918 0
h -4917 4902 0
h -4917 4918 0
h 4919 -4903 -4920 0
h -4919 4903 0
h -4919 4920 0
h 4921 -4903 -4918 0
h -4921 4903 0
h -4921 4918 0
h 4922 -4902 -4920 -4907 0
h -4922 4902 0
h -4922 4920 0
h -4922 4907 0
h -1042 4923 4917 4919 4921 4922 0
h 1042 -4923 0
h 1042 -4917 0
h 1042 -4919 0
h 1042 -4921 0
h 1042 -4922 0
h 4924 -4925 -4918 0
h -4924 4925 0
h -4924 4918 0
h 4926 -4927 -4918 0
h -4926 4927 0
h -4926 4918 0
h 4928 -4927 -4920 0
h -4928 4927 0
h -4928 4920 0
h 4929 -4925 -4920 -4907 0
h -4929 4925 0
h -4929 4920 0
h -4929 4907 0
h -1045 4930 4924 4926 4928 4929 0
h 1045 -4930 0
h 1045 -4924 0
h 1045 -4926 0
h 1045 -4928 0
h 1045 -4929 0
h 4931 -4914 -4927 0
h -4931 4914 0
h -4931 4927 0
h 4932 -4911 -4925 0
h -4932 4911 0
h -4932 4925 0
h 4933 -4911 -4927 0
h -4933 4911 0
h -4933 4927 0
h 4934 -4914 -4925 -4907 0
h -4934 4914 0
h -4934 4925 0
h -4934 4907 0
h -1043 4935 4931 4932 4933 4934 0
h 1043 -4935 0
h 1043 -4931 0
h 1043 -4932 0
h 1043 -4933 0
h 1043 -4934 0
h 4936 -4914 -4911 0
h -4936 4914 0
h -4936 4911 0
h 4937 -4911 -4911 0
h -4937 4911 0
h -4937 4911 0
h 4938 -4911 -4914 0
h -4938 4911 0
h -4938 4914 0
h 4939 -4914 -4914 -4907 0
h -4939 4914 0
h -4939 4914 0
h -4939 4907 0
h -4940 4941 4936 4937 4938 4939 0
h 4940 -4941 0
h 4940 -4936 0
h 4940 -4937 0
h 4940 -4938 0
h 4940 -4939 0
h 4942 -4943 -4944 0
h -4942 4943 0
h -4942 4944 0
h 4945 -4944 -4944 0
h -4945 4944 0
h -4945 4944 0
h 4946 -4944 -4943 0
h -4946 4944 0
h -4946 4943 0
h 4947 -4943 -4943 -4948 0
h -4947 4943 0
h -4947 4943 0
h -4947 4948 0
h -4949 4950 4942 4945 4946 4947 0
h 4949 -4950 0
h 4949 -4942 0
h 4949 -4945 0
h 4949 -4946 0
h 4949 -4947 0
h 4951 -4943 -4952 0
h -4951 4943 0
h -4951 4952 0
h 4953 -4944 -4952 0
h -4953 4944 0
h -4953 4952 0
h 4954 -4944 -4955 0
h -4954 4944 0
h -4954 4955 0
h 4956 -4943 -4955 -4948 0
h -4956 4943 0
h -4956 4955 0
h -4956 4948 0
h -264 4957 4951 4953 4954 4956 0
h 264 -4957 0
h 264 -4951 0
h 264 -4953 0
h 264 -4954 0
h 264 -4956 0
h 4958 -4943 -4959 0
h -4958 4943 0
h -4958 4959 0
h 4960 -4944 -4961 0
h -4960 4944 0
h -4960 4961 0
h 4962 -4944 -4959 0
h -4962 4944 0
h -4962 4959 0
h 4963 -4943 -4961 -4948 0
h -4963 4943 0
h -4963 4961 0
h -4963 4948 0
h -262 4964 4958 4960 4962 4963 0
h 262 -4964 0
h 262 -4958 0
h 262 -4960 0
h 262 -4962 0
h 262 -4963 0
h 4965 -4966 -4959 0
h -4965 4966 0
h -4965 4959 0
h 4967 -4968 -4959 0
h -4967 4968 0
h -4967 4959 0
h 4969 -4968 -4961 0
h -4969 4968 0
h -4969 4961 0
h 4970 -4966 -4961 -4948 0
h -4970 4966 0
h -4970 4961 0
h -4970 4948 0
h -265 4971 4965 4967 4969 4970 0
h 265 -4971 0
h 265 -4965 0
h 265 -4967 0
h 265 -4969 0
h 265 -4970 0
h 4972 -4955 -4968 0
h -4972 4955 0
h -4972 4968 0
h 4973 -4952 -4966 0
h -4973 4952 0
h -4973 4966 0
h 4974 -4952 -4968 0
h -4974 4952 0
h -4974 4968 0
h 4975 -4955 -4966 -4948 0
h -4975 4955 0
h -4975 4966 0
h -4975 4948 0
h -263 4976 4972 4973 4974 4975 0
h 263 -4976 0
h 263 -4972 0
h 263 -4973 0
h 263 -4974 0
h 263 -4975 0
h 4977 -4955 -4952 0
h -4977 4955 0
h -4977 4952 0
h 4978 -4952 -4952 0
h -4978 4952 0
h -4978 4952 0
h 4979 -4952 -4955 0
h -4979 4952 0
h -4979 4955 0
h 4980 -4955 -4955 -4948 0
h -4980 4955 0
h -4980 4955 0
h -4980 4948 0
h -4981 4982 4977 4978 4979 4980 0
h 4981 -4982 0
h 4981 -4977 0
h 4981 -4978 0
h 4981 -4979 0
h 4981 -4980 0
h 4983 -1330 -1306 0
h -4983 1330 0
h -4983 1306 0
h 1307 -1306 -1306 0
h -1307 1306 0
h -1307 1306 0
h 4984 -1306 -1330 0
h -4984 1306 0
h -4984 1330 0
h 4985 -1330 -1330 -1312 0
h -4985 1330 0
h -4985 1330 0
h -4985 1312 0
h -4986 1310 4983 1307 4984 4985 0
h 4986 -1310 0
h 4986 -4983 0
h 4986 -1307 0
h 4986 -4984 0
h 4986 -4985 0
h 4987 -1330 -1319 0
h -4987 1330 0
h -4987 1319 0
h 4988 -1306 -1319 0
h -4988 1306 0
h -4988 1319 0
h 4989 -1306 -1338 0
h -4989 1306 0
h -4989 1338 0
h 4990 -1330 -1338 -1312 0
h -4990 1330 0
h -4990 1338 0
h -4990 1312 0
h -164 1314 4987 4988 4989 4990 0
h 164 -1314 0
h 164 -4987 0
h 164 -4988 0
h 164 -4989 0
h 164 -4990 0
h 4991 -1330 -1326 0
h -4991 1330 0
h -4991 1326 0
h 4992 -1306 -1333 0
h -4992 1306 0
h -4992 1333 0
h 4993 -1306 -1326 0
h -4993 1306 0
h -4993 1326 0
h 4994 -1330 -1333 -1312 0
h -4994 1330 0
h -4994 1333 0
h -4994 1312 0
h -162 1321 4991 4992 4993 4994 0
h 162 -1321 0
h 162 -4991 0
h 162 -4992 0
h 162 -4993 0
h 162 -4994 0
h 4995 -1328 -1326 0
h -4995 1328 0
h -4995 1326 0
h 4996 -1305 -1326 0
h -4996 1305 0
h -4996 1326 0
h 4997 -1305 -1333 0
h -4997 1305 0
h -4997 1333 0
h 4998 -1328 -1333 -1312 0
h -4998 1328 0
h -4998 1333 0
h -4998 1312 0
h -165 1323 4995 4996 4997 4998 0
h 165 -1323 0
h 165 -4995 0
h 165 -4996 0
h 165 -4997 0
h 165 -4998 0
h 4999 -1338 -1305 0
h -4999 1338 0
h -4999 1305 0
h 5000 -1319 -1328 0
h -5000 1319 0
h -5000 1328 0
h 5001 -1319 -1305 0
h -5001 1319 0
h -5001 1305 0
h 5002 -1338 -1328 -1312 0
h -5002 1338 0
h -5002 1328 0
h -5002 1312 0
h -163 1317 4999 5000 5001 5002 0
h 163 -1317 0
h 163 -4999 0
h 163 -5000 0
h 163 -5001 0
h 163 -5002 0
h 5003 -1338 -1319 0
h -5003 1338 0
h -5003 1319 0
h 5004 -1319 -1319 0
h -5004 1319 0
h -5004 1319 0
h 5005 -1319 -1338 0
h -5005 1319 0
h -5005 1338 0
h 5006 -1338 -1338 -1312 0
h -5006 1338 0
h -5006 1338 0
h -5006 1312 0
h -5007 1344 5003 5004 5005 5006 0
h 5007 -1344 0
h 5007 -5003 0
h 5007 -5004 0
h 5007 -5005 0
h 5007 -5006 0
h 5008 -3703 -3878 0
h -5008 3703 0
h -5008 3878 0
h 3879 -3878 -3878 0
h -3879 3878 0
h -3879 3878 0
h 5009 -3878 -3703 0
h -5009 3878 0
h -5009 3703 0
h 5010 -3703 -3703 -3883 0
h -5010 3703 0
h -5010 3703 0
h -5010 3883 0
h -5011 3705 5008 3879 5009 5010 0
h 5011 -3705 0
h 5011 -5008 0
h 5011 -3879 0
h 5011 -5009 0
h 5011 -5010 0
h 5012 -3703 -3888 0
h -5012 3703 0
h -5012 3888 0
h 5013 -3878 -3888 0
h -5013 3878 0
h -5013 3888 0
h 5014 -3878 -3707 0
h -5014 3878 0
h -5014 3707 0
h 5015 -3703 -3707 -3883 0
h -5015 3703 0
h -5015 3707 0
h -5015 3883 0
h -519 3708 5012 5013 5014 5015 0
h 519 -3708 0
h 519 -5012 0
h 519 -5013 0
h 519 -5014 0
h 519 -5015 0
h 5016 -3703 -3893 0
h -5016 3703 0
h -5016 3893 0
h 5017 -3878 -3710 0
h -5017 3878 0
h -5017 3710 0
h 5018 -3878 -3893 0
h -5018 3878 0
h -5018 3893 0
h 5019 -3703 -3710 -3883 0
h -5019 3703 0
h -5019 3710 0
h -5019 3883 0
h -517 3711 5016 5017 5018 5019 0
h 517 -3711 0
h 517 -5016 0
h 517 -5017 0
h 517 -5018 0
h 517 -5019 0
h 5020 -3713 -3893 0
h -5020 3713 0
h -5020 3893 0
h 5021 -3877 -3893 0
h -5021 3877 0
h -5021 3893 0
h 5022 -3877 -3710 0
h -5022 3877 0
h -5022 3710 0
h 5023 -3713 -3710 -3883 0
h -5023 3713 0
h -5023 3710 0
h -5023 3883 0
h -520 3714 5020 5021 5022 5023 0
h 520 -3714 0
h 520 -5020 0
h 520 -5021 0
h 520 -5022 0
h 520 -5023 0
h 5024 -3707 -3877 0
h -5024 3707 0
h -5024 3877 0
h 5025 -3888 -3713 0
h -5025 3888 0
h -5025 3713 0
h 5026 -3888 -3877 0
h -5026 3888 0
h -5026 3877 0
h 5027 -3707 -3713 -3883 0
h -5027 3707 0
h -5027 3713 0
h -5027 3883 0
h -518 3716 5024 5025 5026 5027 0
h 518 -3716 0
h 518 -5024 0
h 518 -5025 0
h 518 -5026 0
h 518 -5027 0
h 5028 -3707 -3888 0
h -5028 3707 0
h -5028 3888 0
h 5029 -3888 -3888 0
h -5029 3888 0
h -5029 3888 0
h 5030 -3888 -3707 0
h -5030 3888 0
h -5030 3707 0
h 5031 -3707 -3707 -3883 0
h -5031 3707 0
h -5031 3707 0
h -5031 3883 0
h -5032 3719 5028 5029 5030 5031 0
h 5032 -3719 0
h 5032 -5028 0
h 5032 -5029 0
h 5032 -5030 0
h 5032 -5031 0
h 5033 -3211 -3193 0
h -5033 3211 0
h -5033 3193 0
h 3194 -3193 -3193 0
h -3194 3193 0
h -3194 3193 0
h 5034 -3193 -3211 0
h -5034 3193 0
h -5034 3211 0
h 5035 -3211 -3211 -2135 0
h -5035 3211 0
h -5035 3211 0
h -5035 2135 0
h -5036 3197 5033 3194 5034 5035 0
h 5036 -3197 0
h 5036 -5033 0
h 5036 -3194 0
h 5036 -5034 0
h 5036 -5035 0
h 5037 -3211 -2138 0
h -5037 3211 0
h -5037 2138 0
h 5038 -3193 -2138 0
h -5038 3193 0
h -5038 2138 0
h 5039 -3193 -2146 0
h -5039 3193 0
h -5039 2146 0
h 5040 -3211 -2146 -2135 0
h -5040 3211 0
h -5040 2146 0
h -5040 2135 0
h -149 3200 5037 5038 5039 5040 0
h 149 -3200 0
h 149 -5037 0
h 149 -5038 0
h 149 -5039 0
h 149 -5040 0
h 5041 -3211 -2141 0
h -5041 3211 0
h -5041 2141 0
h 5042 -3193 -2144 0
h -5042 3193 0
h -5042 2144 0
h 5043 -3193 -2141 0
h -5043 3193 0
h -5043 2141 0
h 5044 -3211 -2144 -2135 0
h -5044 3211 0
h -5044 2144 0
h -5044 2135 0
h -147 3205 5041 5042 5043 5044 0
h 147 -3205 0
h 147 -5041 0
h 147 -5042 0
h 147 -5043 0
h 147 -5044 0
h 5045 -2143 -2141 0
h -5045 2143 0
h -5045 2141 0
h 5046 -2133 -2141 0
h -5046 2133 0
h -5046 2141 0
h 5047 -2133 -2144 0
h -5047 2133 0
h -5047 2144 0
h 5048 -2143 -2144 -2135 0
h -5048 2143 0
h -5048 2144 0
h -5048 2135 0
h -150 2140 5045 5046 5047 5048 0
h 150 -2140 0
h 150 -5045 0
h 150 -5046 0
h 150 -5047 0
h 150 -5048 0
h 5049 -2146 -2133 0
h -5049 2146 0
h -5049 2133 0
h 5050 -2138 -2143 0
h -5050 2138 0
h -5050 2143 0
h 5051 -2138 -2133 0
h -5051 2138 0
h -5051 2133 0
h 5052 -2146 -2143 -2135 0
h -5052 2146 0
h -5052 2143 0
h -5052 2135 0
h -148 2137 5049 5050 5051 5052 0
h 148 -2137 0
h 148 -5049 0
h 148 -5050 0
h 148 -5051 0
h 148 -5052 0
h 5053 -2146 -2138 0
h -5053 2146 0
h -5053 2138 0
h 5054 -2138 -2138 0
h -5054 2138 0
h -5054 2138 0
h 5055 -2138 -2146 0
h -5055 2138 0
h -5055 2146 0
h 5056 -2146 -2146 -2135 0
h -5056 2146 0
h -5056 2146 0
h -5056 2135 0
h -5057 2149 5053 5054 5055 5056 0
h 5057 -2149 0
h 5057 -5053 0
h 5057 -5054 0
h 5057 -5055 0
h 5057 -5056 0
h 5058 -3133 -3133 0
h -5058 3133 0
h -5058 3133 0
h -5059 3127 5058 0
h 5059 -3127 0
h 5059 -5058 0
h 5060 -3133 -3517 0
h -5060 3133 0
h -5060 3517 0
h -839 5061 5060 0
h 839 -5061 0
h 839 -5060 0
h 5062 -3133 -3132 0
h -5062 3133 0
h -5062 3132 0
h -837 3125 5062 0
h 837 -3125 0
h 837 -5062 0
h 5063 -3136 -3132 0
h -5063 3136 0
h -5063 3132 0
h -840 3135 5063 0
h 840 -3135 0
h 840 -5063 0
h 5064 -3517 -3136 0
h -5064 3517 0
h -5064 3136 0
h -838 3511 5064 0
h 838 -3511 0
h 838 -5064 0
h 5065 -3517 -3517 0
h -5065 3517 0
h -5065 3517 0
h -5066 3513 5065 0
h 5066 -3513 0
h 5066 -5065 0
h 5067 -2807 -2807 0
h -5067 2807 0
h -5067 2807 0
h -5068 2796 5067 0
h 5068 -2796 0
h 5068 -5067 0
h 5069 -2807 -2812 0
h -5069 2807 0
h -5069 2812 0
h -829 2792 5069 0
h 829 -2792 0
h 829 -5069 0
h 5070 -2807 -2819 0
h -5070 2807 0
h -5070 2819 0
h -827 2816 5070 0
h 827 -2816 0
h 827 -5070 0
h 5071 -2809 -2819 0
h -5071 2809 0
h -5071 2819 0
h -830 2814 5071 0
h 830 -2814 0
h 830 -5071 0
h 5072 -2812 -2809 0
h -5072 2812 0
h -5072 2809 0
h -828 2791 5072 0
h 828 -2791 0
h 828 -5072 0
h 5073 -2812 -2812 0
h -5073 2812 0
h -5073 2812 0
h -5074 2798 5073 0
h 5074 -2798 0
h 5074 -5073 0
h 5075 -2499 -2499 0
h -5075 2499 0
h -5075 2499 0
h -5076 2506 5075 0
h 5076 -2506 0
h 5076 -5075 0
h 5077 -2499 -2511 0
h -5077 2499 0
h -5077 2511 0
h -319 2513 5077 0
h 319 -2513 0
h 319 -5077 0
h 5078 -2499 -2517 0
h -5078 2499 0
h -5078 2517 0
h -317 2520 5078 0
h 317 -2520 0
h 317 -5078 0
h 5079 -2522 -2517 0
h -5079 2522 0
h -5079 2517 0
h -320 2527 5079 0
h 320 -2527 0
h 320 -5079 0
h 5080 -2511 -2522 0
h -5080 2511 0
h -5080 2522 0
h -318 2532 5080 0
h 318 -2532 0
h 318 -5080 0
h 5081 -2511 -2511 0
h -5081 2511 0
h -5081 2511 0
h -5082 2538 5081 0
h 5082 -2538 0
h 5082 -5081 0
h 5083 -2965 -2941 0
h -5083 2965 0
h -5083 2941 0
h 2942 -2941 -2941 0
h -2942 2941 0
h -2942 2941 0
h 5084 -2941 -2965 0
h -5084 2941 0
h -5084 2965 0
h 5085 -2965 -2965 -2947 0
h -5085 2965 0
h -5085 2965 0
h -5085 2947 0
h -5086 2945 5083 2942 5084 5085 0
h 5086 -2945 0
h 5086 -5083 0
h 5086 -2942 0
h 5086 -5084 0
h 5086 -5085 0
h 5087 -2965 -2954 0
h -5087 2965 0
h -5087 2954 0
h 5088 -2941 -2954 0
h -5088 2941 0
h -5088 2954 0
h 5089 -2941 -2973 0
h -5089 2941 0
h -5089 2973 0
h 5090 -2965 -2973 -2947 0
h -5090 2965 0
h -5090 2973 0
h -5090 2947 0
h -214 2949 5087 5088 5089 5090 0
h 214 -2949 0
h 214 -5087 0
h 214 -5088 0
h 214 -5089 0
h 214 -5090 0
h 5091 -2965 -2961 0
h -5091 2965 0
h -5091 2961 0
h 5092 -2941 -2968 0
h -5092 2941 0
h -5092 2968 0
h 5093 -2941 -2961 0
h -5093 2941 0
h -5093 2961 0
h 5094 -2965 -2968 -2947 0
h -5094 2965 0
h -5094 2968 0
h -5094 2947 0
h -212 2956 5091 5092 5093 5094 0
h 212 -2956 0
h 212 -5091 0
h 212 -5092 0
h 212 -5093 0
h 212 -5094 0
h 5095 -2963 -2961 0
h -5095 2963 0
h -5095 2961 0
h 5096 -2940 -2961 0
h -5096 2940 0
h -5096 2961 0
h 5097 -2940 -2968 0
h -5097 2940 0
h -5097 2968 0
h 5098 -2963 -2968 -2947 0
h -5098 2963 0
h -5098 2968 0
h -5098 2947 0
h -215 2958 5095 5096 5097 5098 0
h 215 -2958 0
h 215 -5095 0
h 215 -5096 0
h 215 -5097 0
h 215 -5098 0
h 5099 -2973 -2940 0
h -5099 2973 0
h -5099 2940 0
h 5100 -2954 -2963 0
h -5100 2954 0
h -5100 2963 0
h 5101 -2954 -2940 0
h -5101 2954 0
h -5101 2940 0
h 5102 -2973 -2963 -2947 0
h -5102 2973 0
h -5102 2963 0
h -5102 2947 0
h -213 2952 5099 5100 5101 5102 0
h 213 -2952 0
h 213 -5099 0
h 213 -5100 0
h 213 -5101 0
h 213 -5102 0
h 5103 -2973 -2954 0
h -5103 2973 0
h -5103 2954 0
h 5104 -2954 -2954 0
h -5104 2954 0
h -5104 2954 0
h 5105 -2954 -2973 0
h -5105 2954 0
h -5105 2973 0
h 5106 -2973 -2973 -2947 0
h -5106 2973 0
h -5106 2973 0
h -5106 2947 0
h -5107 2979 5103 5104 5105 5106 0
h 5107 -2979 0
h 5107 -5103 0
h 5107 -5104 0
h 5107 -5105 0
h 5107 -5106 0
h 5108 -1305 -1305 0
h -5108 1305 0
h -5108 1305 0
h -5109 1312 5108 0
h 5109 -1312 0
h 5109 -5108 0
h 5110 -1305 -1317 0
h -5110 1305 0
h -5110 1317 0
h -619 1319 5110 0
h 619 -1319 0
h 619 -5110 0
h 5111 -1305 -1323 0
h -5111 1305 0
h -5111 1323 0
h -617 1326 5111 0
h 617 -1326 0
h 617 -5111 0
h 5112 -1328 -1323 0
h -5112 1328 0
h -5112 1323 0
h -620 1333 5112 0
h 620 -1333 0
h 620 -5112 0
h 5113 -1317 -1328 0
h -5113 1317 0
h -5113 1328 0
h -618 1338 5113 0
h 618 -1338 0
h 618 -5113 0
h 5114 -1317 -1317 0
h -5114 1317 0
h -5114 1317 0
h -5115 1344 5114 0
h 5115 -1344 0
h 5115 -5114 0
h 5116 -3994 -3970 0
h -5116 3994 0
h -5116 3970 0
h 3971 -3970 -3970 0
h -3971 3970 0
h -3971 3970 0
h 5117 -3970 -3994 0
h -5117 3970 0
h -5117 3994 0
h 5118 -3994 -3994 -3976 0
h -5118 3994 0
h -5118 3994 0
h -5118 3976 0
h -5119 3974 5116 3971 5117 5118 0
h 5119 -3974 0
h 5119 -5116 0
h 5119 -3971 0
h 5119 -5117 0
h 5119 -5118 0
h 5120 -3994 -3983 0
h -5120 3994 0
h -5120 3983 0
h 5121 -3970 -3983 0
h -5121 3970 0
h -5121 3983 0
h 5122 -3970 -4002 0
h -5122 3970 0
h -5122 4002 0
h 5123 -3994 -4002 -3976 0
h -5123 3994 0
h -5123 4002 0
h -5123 3976 0
h -644 3978 5120 5121 5122 5123 0
h 644 -3978 0
h 644 -5120 0
h 644 -5121 0
h 644 -5122 0
h 644 -5123 0
h 5124 -3994 -3990 0
h -5124 3994 0
h -5124 3990 0
h 5125 -3970 -3997 0
h -5125 3970 0
h -5125 3997 0
h 5126 -3970 -3990 0
h -5126 3970 0
h -5126 3990 0
h 5127 -3994 -3997 -3976 0
h -5127 3994 0
h -5127 3997 0
h -5127 3976 0
h -642 3985 5124 5125 5126 5127 0
h 642 -3985 0
h 642 -5124 0
h 642 -5125 0
h 642 -5126 0
h 642 -5127 0
h 5128 -3992 -3990 0
h -5128 3992 0
h -5128 3990 0
h 5129 -3969 -3990 0
h -5129 3969 0
h -5129 3990 0
h 5130 -3969 -3997 0
h -5130 3969 0
h -5130 3997 0
h 5131 -3992 -3997 -3976 0
h -5131 3992 0
h -5131 3997 0
h -5131 3976 0
h -645 3987 5128 5129 5130 5131 0
h 645 -3987 0
h 645 -5128 0
h 645 -5129 0
h 645 -5130 0
h 645 -5131 0
h 5132 -4002 -3969 0
h -5132 4002 0
h -5132 3969 0
h 5133 -3983 -3992 0
h -5133 3983 0
h -5133 3992 0
h 5134 -3983 -3969 0
h -5134 3983 0
h -5134 3969 0
h 5135 -4002 -3992 -3976 0
h -5135 4002 0
h -5135 3992 0
h -5135 3976 0
h -643 3981 5132 5133 5134 5135 0
h 643 -3981 0
h 643 -5132 0
h 643 -5133 0
h 643 -5134 0
h 643 -5135 0
h 5136 -4002 -3983 0
h -5136 4002 0
h -5136 3983 0
h 5137 -3983 -3983 0
h -5137 3983 0
h -5137 3983 0
h 5138 -3983 -4002 0
h -5138 3983 0
h -5138 4002 0
h 5139 -4002 -4002 -3976 0
h -5139 4002 0
h -5139 4002 0
h -5139 3976 0
h -5140 4008 5136 5137 5138 5139 0
h 5140 -4008 0
h 5140 -5136 0
h 5140 -5137 0
h 5140 -5138 0
h 5140 -5139 0
h 5141 -2565 -2565 0
h -5141 2565 0
h -5141 2565 0
h -5142 2545 5141 0
h 5142 -2545 0
h 5142 -5141 0
h 5143 -2565 -2573 0
h -5143 2565 0
h -5143 2573 0
h -1139 2549 5143 0
h 1139 -2549 0
h 1139 -5143 0
h 5144 -2565 -2568 0
h -5144 2565 0
h -5144 2568 0
h -1137 2556 5144 0
h 1137 -2556 0
h 1137 -5144 0
h 5145 -2563 -2568 0
h -5145 2563 0
h -5145 2568 0
h -1140 2558 5145 0
h 1140 -2558 0
h 1140 -5145 0
h 5146 -2573 -2563 0
h -5146 2573 0
h -5146 2563 0
h -1138 2552 5146 0
h 1138 -2552 0
h 1138 -5146 0
h 5147 -2573 -2573 0
h -5147 2573 0
h -5147 2573 0
h -5148 2579 5147 0
h 5148 -2579 0
h 5148 -5147 0
h 5149 -5150 -5151 0
h -5149 5150 0
h -5149 5151 0
h 5152 -5151 -5151 0
h -5152 5151 0
h -5152 5151 0
h 5153 -5151 -5150 0
h -5153 5151 0
h -5153 5150 0
h 5154 -5150 -5150 -5155 0
h -5154 5150 0
h -5154 5150 0
h -5154 5155 0
h -5156 5157 5149 5152 5153 5154 0
h 5156 -5157 0
h 5156 -5149 0
h 5156 -5152 0
h 5156 -5153 0
h 5156 -5154 0
h 5158 -5150 -5159 0
h -5158 5150 0
h -5158 5159 0
h 5160 -5151 -5159 0
h -5160 5151 0
h -5160 5159 0
h 5161 -5151 -5162 0
h -5161 5151 0
h -5161 5162 0
h 5163 -5150 -5162 -5155 0
h -5163 5150 0
h -5163 5162 0
h -5163 5155 0
h -309 5164 5158 5160 5161 5163 0
h 309 -5164 0
h 309 -5158 0
h 309 -5160 0
h 309 -5161 0
h 309 -5163 0
h 5165 -5150 -5166 0
h -5165 5150 0
h -5165 5166 0
h 5167 -5151 -5168 0
h -5167 5151 0
h -5167 5168 0
h 5169 -5151 -5166 0
h -5169 5151 0
h -5169 5166 0
h 5170 -5150 -5168 -5155 0
h -5170 5150 0
h -5170 5168 0
h -5170 5155 0
h -307 5171 5165 5167 5169 5170 0
h 307 -5171 0
h 307 -5165 0
h 307 -5167 0
h 307 -5169 0
h 307 -5170 0
h 5172 -5173 -5166 0
h -5172 5173 0
h -5172 5166 0
h 5174 -5175 -5166 0
h -5174 5175 0
h -5174 5166 0
h 5176 -5175 -5168 0
h -5176 5175 0
h -5176 5168 0
h 5177 -5173 -5168 -5155 0
h -5177 5173 0
h -5177 5168 0
h -5177 5155 0
h -310 5178 5172 5174 5176 5177 0
h 310 -5178 0
h 310 -5172 0
h 310 -5174 0
h 310 -5176 0
h 310 -5177 0
h 5179 -5162 -5175 0
h -5179 5162 0
h -5179 5175 0
h 5180 -5159 -5173 0
h -5180 5159 0
h -5180 5173 0
h 5181 -5159 -5175 0
h -5181 5159 0
h -5181 5175 0
h 5182 -5162 -5173 -5155 0
h -5182 5162 0
h -5182 5173 0
h -5182 5155 0
h -308 5183 5179 5180 5181 5182 0
h 308 -5183 0
h 308 -5179 0
h 308 -5180 0
h 308 -5181 0
h 308 -5182 0
h 5184 -5162 -5159 0
h -5184 5162 0
h -5184 5159 0
h 5185 -5159 -5159 0
h -5185 5159 0
h -5185 5159 0
h 5186 -5159 -5162 0
h -5186 5159 0
h -5186 5162 0
h 5187 -5162 -5162 -5155 0
h -5187 5162 0
h -5187 5162 0
h -5187 5155 0
h -5188 5189 5184 5185 5186 5187 0
h 5188 -5189 0
h 5188 -5184 0
h 5188 -5185 0
h 5188 -5186 0
h 5188 -5187 0
h 5190 -2384 -4250 0
h -5190 2384 0
h -5190 4250 0
h 4251 -4250 -4250 0
h -4251 4250 0
h -4251 4250 0
h 5191 -4250 -2384 0
h -5191 4250 0
h -5191 2384 0
h 5192 -2384 -2384 -3959 0
h -5192 2384 0
h -5192 2384 0
h -5192 3959 0
h -5193 2386 5190 4251 5191 5192 0
h 5193 -2386 0
h 5193 -5190 0
h 5193 -4251 0
h 5193 -5191 0
h 5193 -5192 0
h 5194 -2384 -3961 0
h -5194 2384 0
h -5194 3961 0
h 5195 -4250 -3961 0
h -5195 4250 0
h -5195 3961 0
h 5196 -4250 -2388 0
h -5196 4250 0
h -5196 2388 0
h 5197 -2384 -2388 -3959 0
h -5197 2384 0
h -5197 2388 0
h -5197 3959 0
h -429 2389 5194 5195 5196 5197 0
h 429 -2389 0
h 429 -5194 0
h 429 -5195 0
h 429 -5196 0
h 429 -5197 0
h 5198 -2384 -3963 0
h -5198 2384 0
h -5198 3963 0
h 5199 -4250 -2391 0
h -5199 4250 0
h -5199 2391 0
h 5200 -4250 -3963 0
h -5200 4250 0
h -5200 3963 0
h 5201 -2384 -2391 -3959 0
h -5201 2384 0
h -5201 2391 0
h -5201 3959 0
h -427 2392 5198 5199 5200 5201 0
h 427 -2392 0
h 427 -5198 0
h 427 -5199 0
h 427 -5200 0
h 427 -5201 0
h 5202 -2394 -3963 0
h -5202 2394 0
h -5202 3963 0
h 5203 -3957 -3963 0
h -5203 3957 0
h -5203 3963 0
h 5204 -3957 -2391 0
h -5204 3957 0
h -5204 2391 0
h 5205 -2394 -2391 -3959 0
h -5205 2394 0
h -5205 2391 0
h -5205 3959 0
h -430 2395 5202 5203 5204 5205 0
h 430 -2395 0
h 430 -5202 0
h 430 -5203 0
h 430 -5204 0
h 430 -5205 0
h 5206 -2388 -3957 0
h -5206 2388 0
h -5206 3957 0
h 5207 -3961 -2394 0
h -5207 3961 0
h -5207 2394 0
h 5208 -3961 -3957 0
h -5208 3961 0
h -5208 3957 0
h 5209 -2388 -2394 -3959 0
h -5209 2388 0
h -5209 2394 0
h -5209 3959 0
h -428 2397 5206 5207 5208 5209 0
h 428 -2397 0
h 428 -5206 0
h 428 -5207 0
h 428 -5208 0
h 428 -5209 0
h 5210 -2388 -3961 0
h -5210 2388 0
h -5210 3961 0
h 5211 -3961 -3961 0
h -5211 3961 0
h -5211 3961 0
h 5212 -3961 -2388 0
h -5212 3961 0
h -5212 2388 0
h 5213 -2388 -2388 -3959 0
h -5213 2388 0
h -5213 2388 0
h -5213 3959 0
h -5214 2400 5210 5211 5212 5213 0
h 5214 -2400 0
h 5214 -5210 0
h 5214 -5211 0
h 5214 -5212 0
h 5214 -5213 0
h 5215 -5216 -5217 0
h -5215 5216 0
h -5215 5217 0
h 5218 -5217 -5217 0
h -5218 5217 0
h -5218 5217 0
h 5219 -5217 -5216 0
h -5219 5217 0
h -5219 5216 0
h 5220 -5216 -5216 -5221 0
h -5220 5216 0
h -5220 5216 0
h -5220 5221 0
h -5222 5223 5215 5218 5219 5220 0
h 5222 -5223 0
h 5222 -5215 0
h 5222 -5218 0
h 5222 -5219 0
h 5222 -5220 0
h 5224 -5216 -5225 0
h -5224 5216 0
h -5224 5225 0
h 5226 -5217 -5225 0
h -5226 5217 0
h -5226 5225 0
h 5227 -5217 -5228 0
h -5227 5217 0
h -5227 5228 0
h 5229 -5216 -5228 -5221 0
h -5229 5216 0
h -5229 5228 0
h -5229 5221 0
h -269 5230 5224 5226 5227 5229 0
h 269 -5230 0
h 269 -5224 0
h 269 -5226 0
h 269 -5227 0
h 269 -5229 0
h 5231 -5216 -5232 0
h -5231 5216 0
h -5231 5232 0
h 5233 -5217 -5234 0
h -5233 5217 0
h -5233 5234 0
h 5235 -5217 -5232 0
h -5235 5217 0
h -5235 5232 0
h 5236 -5216 -5234 -5221 0
h -5236 5216 0
h -5236 5234 0
h -5236 5221 0
h -267 5237 5231 5233 5235 5236 0
h 267 -5237 0
h 267 -5231 0
h 267 -5233 0
h 267 -5235 0
h 267 -5236 0
h 5238 -5239 -5232 0
h -5238 5239 0
h -5238 5232 0
h 5240 -5241 -5232 0
h -5240 5241 0
h -5240 5232 0
h 5242 -5241 -5234 0
h -5242 5241 0
h -5242 5234 0
h 5243 -5239 -5234 -5221 0
h -5243 5239 0
h -5243 5234 0
h -5243 5221 0
h -270 5244 5238 5240 5242 5243 0
h 270 -5244 0
h 270 -5238 0
h 270 -5240 0
h 270 -5242 0
h 270 -5243 0
h 5245 -5228 -5241 0
h -5245 5228 0
h -5245 5241 0
h 5246 -5225 -5239 0
h -5246 5225 0
h -5246 5239 0
h 5247 -5225 -5241 0
h -5247 5225 0
h -5247 5241 0
h 5248 -5228 -5239 -5221 0
h -5248 5228 0
h -5248 5239 0
h -5248 5221 0
h -268 5249 5245 5246 5247 5248 0
h 268 -5249 0
h 268 -5245 0
h 268 -5246 0
h 268 -5247 0
h 268 -5248 0
h 5250 -5228 -5225 0
h -5250 5228 0
h -5250 5225 0
h 5251 -5225 -5225 0
h -5251 5225 0
h -5251 5225 0
h 5252 -5225 -5228 0
h -5252 5225 0
h -5252 5228 0
h 5253 -5228 -5228 -5221 0
h -5253 5228 0
h -5253 5228 0
h -5253 5221 0
h -5254 5255 5250 5251 5252 5253 0
h 5254 -5255 0
h 5254 -5250 0
h 5254 -5251 0
h 5254 -5252 0
h 5254 -5253 0
h 5256 -2689 -2689 0
h -5256 2689 0
h -5256 2689 0
h -5257 2696 5256 0
h 5257 -2696 0
h 5257 -5256 0
h 5258 -2689 -2701 0
h -5258 2689 0
h -5258 2701 0
h -814 2703 5258 0
h 814 -2703 0
h 814 -5258 0
h 5259 -2689 -2707 0
h -5259 2689 0
h -5259 2707 0
h -812 2710 5259 0
h 812 -2710 0
h 812 -5259 0
h 5260 -2712 -2707 0
h -5260 2712 0
h -5260 2707 0
h -815 2717 5260 0
h 815 -2717 0
h 815 -5260 0
h 5261 -2701 -2712 0
h -5261 2701 0
h -5261 2712 0
h -813 2722 5261 0
h 813 -2722 0
h 813 -5261 0
h 5262 -2701 -2701 0
h -5262 2701 0
h -5262 2701 0
h -5263 2728 5262 0
h 5263 -2728 0
h 5263 -5262 0
h 5264 -2245 -5265 0
h -5264 2245 0
h -5264 5265 0
h 5266 -5265 -5265 0
h -5266 5265 0
h -5266 5265 0
h 5267 -5265 -2245 0
h -5267 5265 0
h -5267 2245 0
h 5268 -2245 -2245 -5269 0
h -5268 2245 0
h -5268 2245 0
h -5268 5269 0
h -5270 2247 5264 5266 5267 5268 0
h 5270 -2247 0
h 5270 -5264 0
h 5270 -5266 0
h 5270 -5267 0
h 5270 -5268 0
h 5271 -2245 -5272 0
h -5271 2245 0
h -5271 5272 0
h 5273 -5265 -5272 0
h -5273 5265 0
h -5273 5272 0
h 5274 -5265 -2249 0
h -5274 5265 0
h -5274 2249 0
h 5275 -2245 -2249 -5269 0
h -5275 2245 0
h -5275 2249 0
h -5275 5269 0
h -734 2250 5271 5273 5274 5275 0
h 734 -2250 0
h 734 -5271 0
h 734 -5273 0
h 734 -5274 0
h 734 -5275 0
h 5276 -2245 -5277 0
h -5276 2245 0
h -5276 5277 0
h 5278 -5265 -2252 0
h -5278 5265 0
h -5278 2252 0
h 5279 -5265 -5277 0
h -5279 5265 0
h -5279 5277 0
h 5280 -2245 -2252 -5269 0
h -5280 2245 0
h -5280 2252 0
h -5280 5269 0
h -732 2253 5276 5278 5279 5280 0
h 732 -2253 0
h 732 -5276 0
h 732 -5278 0
h 732 -5279 0
h 732 -5280 0
h 5281 -2255 -5277 0
h -5281 2255 0
h -5281 5277 0
h 5282 -5283 -5277 0
h -5282 5283 0
h -5282 5277 0
h 5284 -5283 -2252 0
h -5284 5283 0
h -5284 2252 0
h 5285 -2255 -2252 -5269 0
h -5285 2255 0
h -5285 2252 0
h -5285 5269 0
h -735 2256 5281 5282 5284 5285 0
h 735 -2256 0
h 735 -5281 0
h 735 -5282 0
h 735 -5284 0
h 735 -5285 0
h 5286 -2249 -5283 0
h -5286 2249 0
h -5286 5283 0
h 5287 -5272 -2255 0
h -5287 5272 0
h -5287 2255 0
h 5288 -5272 -5283 0
h -5288 5272 0
h -5288 5283 0
h 5289 -2249 -2255 -5269 0
h -5289 2249 0
h -5289 2255 0
h -5289 5269 0
h -733 2258 5286 5287 5288 5289 0
h 733 -2258 0
h 733 -5286 0
h 733 -5287 0
h 733 -5288 0
h 733 -5289 0
h 5290 -2249 -5272 0
h -5290 2249 0
h -5290 5272 0
h 5291 -5272 -5272 0
h -5291 5272 0
h -5291 5272 0
h 5292 -5272 -2249 0
h -5292 5272 0
h -5292 2249 0
h 5293 -2249 -2249 -5269 0
h -5293 2249 0
h -5293 2249 0
h -5293 5269 0
h -5294 2261 5290 5291 5292 5293 0
h 5294 -2261 0
h 5294 -5290 0
h 5294 -5291 0
h 5294 -5292 0
h 5294 -5293 0
h 5295 -1708 -1708 0
h -5295 1708 0
h -5295 1708 0
h -5296 1702 5295 0
h 5296 -1702 0
h 5296 -5295 0
h 5297 -1708 -3496 0
h -5297 1708 0
h -5297 3496 0
h -379 3481 5297 0
h 379 -3481 0
h 379 -5297 0
h 5298 -1708 -1707 0
h -5298 1708 0
h -5298 1707 0
h -377 1700 5298 0
h 377 -1700 0
h 377 -5298 0
h 5299 -1711 -1707 0
h -5299 1711 0
h -5299 1707 0
h -380 1710 5299 0
h 380 -1710 0
h 380 -5299 0
h 5300 -3496 -1711 0
h -5300 3496 0
h -5300 1711 0
h -378 3480 5300 0
h 378 -3480 0
h 378 -5300 0
h 5301 -3496 -3496 0
h -5301 3496 0
h -5301 3496 0
h -5302 3486 5301 0
h 5302 -3486 0
h 5302 -5301 0
h 5303 -5304 -5305 0
h -5303 5304 0
h -5303 5305 0
h 5306 -5305 -5305 0
h -5306 5305 0
h -5306 5305 0
h 5307 -5305 -5304 0
h -5307 5305 0
h -5307 5304 0
h 5308 -5304 -5304 -5309 0
h -5308 5304 0
h -5308 5304 0
h -5308 5309 0
h -5310 5311 5303 5306 5307 5308 0
h 5310 -5311 0
h 5310 -5303 0
h 5310 -5306 0
h 5310 -5307 0
h 5310 -5308 0
h 5312 -5304 -5313 0
h -5312 5304 0
h -5312 5313 0
h 5314 -5305 -5313 0
h -5314 5305 0
h -5314 5313 0
h 5315 -5305 -5316 0
h -5315 5305 0
h -5315 5316 0
h 5317 -5304 -5316 -5309 0
h -5317 5304 0
h -5317 5316 0
h -5317 5309 0
h -749 5318 5312 5314 5315 5317 0
h 749 -5318 0
h 749 -5312 0
h 749 -5314 0
h 749 -5315 0
h 749 -5317 0
h 5319 -5304 -5320 0
h -5319 5304 0
h -5319 5320 0
h 5321 -5305 -5322 0
h -5321 5305 0
h -5321 5322 0
h 5323 -5305 -5320 0
h -5323 5305 0
h -5323 5320 0
h 5324 -5304 -5322 -5309 0
h -5324 5304 0
h -5324 5322 0
h -5324 5309 0
h -747 5325 5319 5321 5323 5324 0
h 747 -5325 0
h 747 -5319 0
h 747 -5321 0
h 747 -5323 0
h 747 -5324 0
h 5326 -5327 -5320 0
h -5326 5327 0
h -5326 5320 0
h 5328 -5329 -5320 0
h -5328 5329 0
h -5328 5320 0
h 5330 -5329 -5322 0
h -5330 5329 0
h -5330 5322 0
h 5331 -5327 -5322 -5309 0
h -5331 5327 0
h -5331 5322 0
h -5331 5309 0
h -750 5332 5326 5328 5330 5331 0
h 750 -5332 0
h 750 -5326 0
h 750 -5328 0
h 750 -5330 0
h 750 -5331 0
h 5333 -5316 -5329 0
h -5333 5316 0
h -5333 5329 0
h 5334 -5313 -5327 0
h -5334 5313 0
h -5334 5327 0
h 5335 -5313 -5329 0
h -5335 5313 0
h -5335 5329 0
h 5336 -5316 -5327 -5309 0
h -5336 5316 0
h -5336 5327 0
h -5336 5309 0
h -748 5337 5333 5334 5335 5336 0
h 748 -5337 0
h 748 -5333 0
h 748 -5334 0
h 748 -5335 0
h 748 -5336 0
h 5338 -5316 -5313 0
h -5338 5316 0
h -5338 5313 0
h 5339 -5313 -5313 0
h -5339 5313 0
h -5339 5313 0
h 5340 -5313 -5316 0
h -5340 5313 0
h -5340 5316 0
h 5341 -5316 -5316 -5309 0
h -5341 5316 0
h -5341 5316 0
h -5341 5309 0
h -5342 5343 5338 5339 5340 5341 0
h 5342 -5343 0
h 5342 -5338 0
h 5342 -5339 0
h 5342 -5340 0
h 5342 -5341 0
h 5344 -3994 -3994 0
h -5344 3994 0
h -5344 3994 0
h -5345 3974 5344 0
h 5345 -3974 0
h 5345 -5344 0
h 5346 -3994 -4002 0
h -5346 3994 0
h -5346 4002 0
h -999 3978 5346 0
h 999 -3978 0
h 999 -5346 0
h 5347 -3994 -3997 0
h -5347 3994 0
h -5347 3997 0
h -997 3985 5347 0
h 997 -3985 0
h 997 -5347 0
h 5348 -3992 -3997 0
h -5348 3992 0
h -5348 3997 0
h -1000 3987 5348 0
h 1000 -3987 0
h 1000 -5348 0
h 5349 -4002 -3992 0
h -5349 4002 0
h -5349 3992 0
h -998 3981 5349 0
h 998 -3981 0
h 998 -5349 0
h 5350 -4002 -4002 0
h -5350 4002 0
h -5350 4002 0
h -5351 4008 5350 0
h 5351 -4008 0
h 5351 -5350 0
h 5352 -5353 -5354 0
h -5352 5353 0
h -5352 5354 0
h 5355 -5354 -5354 0
h -5355 5354 0
h -5355 5354 0
h 5356 -5354 -5353 0
h -5356 5354 0
h -5356 5353 0
h 5357 -5353 -5353 -1602 0
h -5357 5353 0
h -5357 5353 0
h -5357 1602 0
h -5358 5359 5352 5355 5356 5357 0
h 5358 -5359 0
h 5358 -5352 0
h 5358 -5355 0
h 5358 -5356 0
h 5358 -5357 0
h 5360 -5353 -1605 0
h -5360 5353 0
h -5360 1605 0
h 5361 -5354 -1605 0
h -5361 5354 0
h -5361 1605 0
h 5362 -5354 -1613 0
h -5362 5354 0
h -5362 1613 0
h 5363 -5353 -1613 -1602 0
h -5363 5353 0
h -5363 1613 0
h -5363 1602 0
h -584 5364 5360 5361 5362 5363 0
h 584 -5364 0
h 584 -5360 0
h 584 -5361 0
h 584 -5362 0
h 584 -5363 0
h 5365 -5353 -1608 0
h -5365 5353 0
h -5365 1608 0
h 5366 -5354 -1611 0
h -5366 5354 0
h -5366 1611 0
h 5367 -5354 -1608 0
h -5367 5354 0
h -5367 1608 0
h 5368 -5353 -1611 -1602 0
h -5368 5353 0
h -5368 1611 0
h -5368 1602 0
h -582 5369 5365 5366 5367 5368 0
h 582 -5369 0
h 582 -5365 0
h 582 -5366 0
h 582 -5367 0
h 582 -5368 0
h 5370 -1610 -1608 0
h -5370 1610 0
h -5370 1608 0
h 5371 -1600 -1608 0
h -5371 1600 0
h -5371 1608 0
h 5372 -1600 -1611 0
h -5372 1600 0
h -5372 1611 0
h 5373 -1610 -1611 -1602 0
h -5373 1610 0
h -5373 1611 0
h -5373 1602 0
h -585 1607 5370 5371 5372 5373 0
h 585 -1607 0
h 585 -5370 0
h 585 -5371 0
h 585 -5372 0
h 585 -5373 0
h 5374 -1613 -1600 0
h -5374 1613 0
h -5374 1600 0
h 5375 -1605 -1610 0
h -5375 1605 0
h -5375 1610 0
h 5376 -1605 -1600 0
h -5376 1605 0
h -5376 1600 0
h 5377 -1613 -1610 -1602 0
h -5377 1613 0
h -5377 1610 0
h -5377 1602 0
h -583 1604 5374 5375 5376 5377 0
h 583 -1604 0
h 583 -5374 0
h 583 -5375 0
h 583 -5376 0
h 583 -5377 0
h 5378 -1613 -1605 0
h -5378 1613 0
h -5378 1605 0
h 5379 -1605 -1605 0
h -5379 1605 0
h -5379 1605 0
h 5380 -1605 -1613 0
h -5380 1605 0
h -5380 1613 0
h 5381 -1613 -1613 -1602 0
h -5381 1613 0
h -5381 1613 0
h -5381 1602 0
h -5382 1616 5378 5379 5380 5381 0
h 5382 -1616 0
h 5382 -5378 0
h 5382 -5379 0
h 5382 -5380 0
h 5382 -5381 0
h 5383 -2452 -2428 0
h -5383 2452 0
h -5383 2428 0
h 2429 -2428 -2428 0
h -2429 2428 0
h -2429 2428 0
h 5384 -2428 -2452 0
h -5384 2428 0
h -5384 2452 0
h 5385 -2452 -2452 -2434 0
h -5385 2452 0
h -5385 2452 0
h -5385 2434 0
h -5386 2432 5383 2429 5384 5385 0
h 5386 -2432 0
h 5386 -5383 0
h 5386 -2429 0
h 5386 -5384 0
h 5386 -5385 0
h 5387 -2452 -2441 0
h -5387 2452 0
h -5387 2441 0
h 5388 -2428 -2441 0
h -5388 2428 0
h -5388 2441 0
h 5389 -2428 -2460 0
h -5389 2428 0
h -5389 2460 0
h 5390 -2452 -2460 -2434 0
h -5390 2452 0
h -5390 2460 0
h -5390 2434 0
h -19 2436 5387 5388 5389 5390 0
h 19 -2436 0
h 19 -5387 0
h 19 -5388 0
h 19 -5389 0
h 19 -5390 0
h 5391 -2452 -2448 0
h -5391 2452 0
h -5391 2448 0
h 5392 -2428 -2455 0
h -5392 2428 0
h -5392 2455 0
h 5393 -2428 -2448 0
h -5393 2428 0
h -5393 2448 0
h 5394 -2452 -2455 -2434 0
h -5394 2452 0
h -5394 2455 0
h -5394 2434 0
h -17 2443 5391 5392 5393 5394 0
h 17 -2443 0
h 17 -5391 0
h 17 -5392 0
h 17 -5393 0
h 17 -5394 0
h 5395 -2450 -2448 0
h -5395 2450 0
h -5395 2448 0
h 5396 -2427 -2448 0
h -5396 2427 0
h -5396 2448 0
h 5397 -2427 -2455 0
h -5397 2427 0
h -5397 2455 0
h 5398 -2450 -2455 -2434 0
h -5398 2450 0
h -5398 2455 0
h -5398 2434 0
h -20 2445 5395 5396 5397 5398 0
h 20 -2445 0
h 20 -5395 0
h 20 -5396 0
h 20 -5397 0
h 20 -5398 0
h 5399 -2460 -2427 0
h -5399 2460 0
h -5399 2427 0
h 5400 -2441 -2450 0
h -5400 2441 0
h -5400 2450 0
h 5401 -2441 -2427 0
h -5401 2441 0
h -5401 2427 0
h 5402 -2460 -2450 -2434 0
h -5402 2460 0
h -5402 2450 0
h -5402 2434 0
h -18 2439 5399 5400 5401 5402 0
h 18 -2439 0
h 18 -5399 0
h 18 -5400 0
h 18 -5401 0
h 18 -5402 0
h 5403 -2460 -2441 0
h -5403 2460 0
h -5403 2441 0
h 5404 -2441 -2441 0
h -5404 2441 0
h -5404 2441 0
h 5405 -2441 -2460 0
h -5405 2441 0
h -5405 2460 0
h 5406 -2460 -2460 -2434 0
h -5406 2460 0
h -5406 2460 0
h -5406 2434 0
h -5407 2466 5403 5404 5405 5406 0
h 5407 -2466 0
h 5407 -5403 0
h 5407 -5404 0
h 5407 -5405 0
h 5407 -5406 0
h 5408 -2060 -2036 0
h -5408 2060 0
h -5408 2036 0
h 2037 -2036 -2036 0
h -2037 2036 0
h -2037 2036 0
h 5409 -2036 -2060 0
h -5409 2036 0
h -5409 2060 0
h 5410 -2060 -2060 -2042 0
h -5410 2060 0
h -5410 2060 0
h -5410 2042 0
h -5411 2040 5408 2037 5409 5410 0
h 5411 -2040 0
h 5411 -5408 0
h 5411 -2037 0
h 5411 -5409 0
h 5411 -5410 0
h 5412 -2060 -2049 0
h -5412 2060 0
h -5412 2049 0
h 5413 -2036 -2049 0
h -5413 2036 0
h -5413 2049 0
h 5414 -2036 -2068 0
h -5414 2036 0
h -5414 2068 0
h 5415 -2060 -2068 -2042 0
h -5415 2060 0
h -5415 2068 0
h -5415 2042 0
h -489 2044 5412 5413 5414 5415 0
h 489 -2044 0
h 489 -5412 0
h 489 -5413 0
h 489 -5414 0
h 489 -5415 0
h 5416 -2060 -2056 0
h -5416 2060 0
h -5416 2056 0
h 5417 -2036 -2063 0
h -5417 2036 0
h -5417 2063 0
h 5418 -2036 -2056 0
h -5418 2036 0
h -5418 2056 0
h 5419 -2060 -2063 -2042 0
h -5419 2060 0
h -5419 2063 0
h -5419 2042 0
h -487 2051 5416 5417 5418 5419 0
h 487 -2051 0
h 487 -5416 0
h 487 -5417 0
h 487 -5418 0
h 487 -5419 0
h 5420 -2058 -2056 0
h -5420 2058 0
h -5420 2056 0
h 5421 -2035 -2056 0
h -5421 2035 0
h -5421 2056 0
h 5422 -2035 -2063 0
h -5422 2035 0
h -5422 2063 0
h 5423 -2058 -2063 -2042 0
h -5423 2058 0
h -5423 2063 0
h -5423 2042 0
h -490 2053 5420 5421 5422 5423 0
h 490 -2053 0
h 490 -5420 0
h 490 -5421 0
h 490 -5422 0
h 490 -5423 0
h 5424 -2068 -2035 0
h -5424 2068 0
h -5424 2035 0
h 5425 -2049 -2058 0
h -5425 2049 0
h -5425 2058 0
h 5426 -2049 -2035 0
h -5426 2049 0
h -5426 2035 0
h 5427 -2068 -2058 -2042 0
h -5427 2068 0
h -5427 2058 0
h -5427 2042 0
h -488 2047 5424 5425 5426 5427 0
h 488 -2047 0
h 488 -5424 0
h 488 -5425 0
h 488 -5426 0
h 488 -5427 0
h 5428 -2068 -2049 0
h -5428 2068 0
h -5428 2049 0
h 5429 -2049 -2049 0
h -5429 2049 0
h -5429 2049 0
h 5430 -2049 -2068 0
h -5430 2049 0
h -5430 2068 0
h 5431 -2068 -2068 -2042 0
h -5431 2068 0
h -5431 2068 0
h -5431 2042 0
h -5432 2074 5428 5429 5430 5431 0
h 5432 -2074 0
h 5432 -5428 0
h 5432 -5429 0
h 5432 -5430 0
h 5432 -5431 0
h 5433 -1482 -1482 0
h -5433 1482 0
h -5433 1482 0
h -5434 1489 5433 0
h 5434 -1489 0
h 5434 -5433 0
h 5435 -1482 -1494 0
h -5435 1482 0
h -5435 1494 0
h -1194 1496 5435 0
h 1194 -1496 0
h 1194 -5435 0
h 5436 -1482 -1500 0
h -5436 1482 0
h -5436 1500 0
h -1192 1503 5436 0
h 1192 -1503 0
h 1192 -5436 0
h 5437 -1505 -1500 0
h -5437 1505 0
h -5437 1500 0
h -1195 1510 5437 0
h 1195 -1510 0
h 1195 -5437 0
h 5438 -1494 -1505 0
h -5438 1494 0
h -5438 1505 0
h -1193 1515 5438 0
h 1193 -1515 0
h 1193 -5438 0
h 5439 -1494 -1494 0
h -5439 1494 0
h -5439 1494 0
h -5440 1521 5439 0
h 5440 -1521 0
h 5440 -5439 0
h 5441 -3821 -3797 0
h -5441 3821 0
h -5441 3797 0
h 3798 -3797 -3797 0
h -3798 3797 0
h -3798 3797 0
h 5442 -3797 -3821 0
h -5442 3797 0
h -5442 3821 0
h 5443 -3821 -3821 -3803 0
h -5443 3821 0
h -5443 3821 0
h -5443 3803 0
h -5444 3801 5441 3798 5442 5443 0
h 5444 -3801 0
h 5444 -5441 0
h 5444 -3798 0
h 5444 -5442 0
h 5444 -5443 0
h 5445 -3821 -3810 0
h -5445 3821 0
h -5445 3810 0
h 5446 -3797 -3810 0
h -5446 3797 0
h -5446 3810 0
h 5447 -3797 -3829 0
h -5447 3797 0
h -5447 3829 0
h 5448 -3821 -3829 -3803 0
h -5448 3821 0
h -5448 3829 0
h -5448 3803 0
h -459 3805 5445 5446 5447 5448 0
h 459 -3805 0
h 459 -5445 0
h 459 -5446 0
h 459 -5447 0
h 459 -5448 0
h 5449 -3821 -3817 0
h -5449 3821 0
h -5449 3817 0
h 5450 -3797 -3824 0
h -5450 3797 0
h -5450 3824 0
h 5451 -3797 -3817 0
h -5451 3797 0
h -5451 3817 0
h 5452 -3821 -3824 -3803 0
h -5452 3821 0
h -5452 3824 0
h -5452 3803 0
h -457 3812 5449 5450 5451 5452 0
h 457 -3812 0
h 457 -5449 0
h 457 -5450 0
h 457 -5451 0
h 457 -5452 0
h 5453 -3819 -3817 0
h -5453 3819 0
h -5453 3817 0
h 5454 -3796 -3817 0
h -5454 3796 0
h -5454 3817 0
h 5455 -3796 -3824 0
h -5455 3796 0
h -5455 3824 0
h 5456 -3819 -3824 -3803 0
h -5456 3819 0
h -5456 3824 0
h -5456 3803 0
h -460 3814 5453 5454 5455 5456 0
h 460 -3814 0
h 460 -5453 0
h 460 -5454 0
h 460 -5455 0
h 460 -5456 0
h 5457 -3829 -3796 0
h -5457 3829 0
h -5457 3796 0
h 5458 -3810 -3819 0
h -5458 3810 0
h -5458 3819 0
h 5459 -3810 -3796 0
h -5459 3810 0
h -5459 3796 0
h 5460 -3829 -3819 -3803 0
h -5460 3829 0
h -5460 3819 0
h -5460 3803 0
h -458 3808 5457 5458 5459 5460 0
h 458 -3808 0
h 458 -5457 0
h 458 -5458 0
h 458 -5459 0
h 458 -5460 0
h 5461 -3829 -3810 0
h -5461 3829 0
h -5461 3810 0
h 5462 -3810 -3810 0
h -5462 3810 0
h -5462 3810 0
h 5463 -3810 -3829 0
h -5463 3810 0
h -5463 3829 0
h 5464 -3829 -3829 -3803 0
h -5464 3829 0
h -5464 3829 0
h -5464 3803 0
h -5465 3835 5461 5462 5463 5464 0
h 5465 -3835 0
h 5465 -5461 0
h 5465 -5462 0
h 5465 -5463 0
h 5465 -5464 0
h 5466 -3439 -3439 0
h -5466 3439 0
h -5466 3439 0
h -5467 3446 5466 0
h 5467 -3446 0
h 5467 -5466 0
h 5468 -3439 -3451 0
h -5468 3439 0
h -5468 3451 0
h -754 3453 5468 0
h 754 -3453 0
h 754 -5468 0
h 5469 -3439 -3457 0
h -5469 3439 0
h -5469 3457 0
h -752 3460 5469 0
h 752 -3460 0
h 752 -5469 0
h 5470 -3462 -3457 0
h -5470 3462 0
h -5470 3457 0
h -755 3467 5470 0
h 755 -3467 0
h 755 -5470 0
h 5471 -3451 -3462 0
h -5471 3451 0
h -5471 3462 0
h -753 3472 5471 0
h 753 -3472 0
h 753 -5471 0
h 5472 -3451 -3451 0
h -5472 3451 0
h -5472 3451 0
h -5473 3478 5472 0
h 5473 -3478 0
h 5473 -5472 0
h 5474 -5216 -5216 0
h -5474 5216 0
h -5474 5216 0
h -5475 5223 5474 0
h 5475 -5223 0
h 5475 -5474 0
h 5476 -5216 -5228 0
h -5476 5216 0
h -5476 5228 0
h -654 5230 5476 0
h 654 -5230 0
h 654 -5476 0
h 5477 -5216 -5234 0
h -5477 5216 0
h -5477 5234 0
h -652 5237 5477 0
h 652 -5237 0
h 652 -5477 0
h 5478 -5239 -5234 0
h -5478 5239 0
h -5478 5234 0
h -655 5244 5478 0
h 655 -5244 0
h 655 -5478 0
h 5479 -5228 -5239 0
h -5479 5228 0
h -5479 5239 0
h -653 5249 5479 0
h 653 -5249 0
h 653 -5479 0
h 5480 -5228 -5228 0
h -5480 5228 0
h -5480 5228 0
h -5481 5255 5480 0
h 5481 -5255 0
h 5481 -5480 0
h 5482 -3721 -5483 0
h -5482 3721 0
h -5482 5483 0
h 5484 -5483 -5483 0
h -5484 5483 0
h -5484 5483 0
h 5485 -5483 -3721 0
h -5485 5483 0
h -5485 3721 0
h 5486 -3721 -3721 -5487 0
h -5486 3721 0
h -5486 3721 0
h -5486 5487 0
h -5488 3723 5482 5484 5485 5486 0
h 5488 -3723 0
h 5488 -5482 0
h 5488 -5484 0
h 5488 -5485 0
h 5488 -5486 0
h 5489 -3721 -5490 0
h -5489 3721 0
h -5489 5490 0
h 5491 -5483 -5490 0
h -5491 5483 0
h -5491 5490 0
h 5492 -5483 -3725 0
h -5492 5483 0
h -5492 3725 0
h 5493 -3721 -3725 -5487 0
h -5493 3721 0
h -5493 3725 0
h -5493 5487 0
h -289 3726 5489 5491 5492 5493 0
h 289 -3726 0
h 289 -5489 0
h 289 -5491 0
h 289 -5492 0
h 289 -5493 0
h 5494 -3721 -5495 0
h -5494 3721 0
h -5494 5495 0
h 5496 -5483 -3728 0
h -5496 5483 0
h -5496 3728 0
h 5497 -5483 -5495 0
h -5497 5483 0
h -5497 5495 0
h 5498 -3721 -3728 -5487 0
h -5498 3721 0
h -5498 3728 0
h -5498 5487 0
h -287 3729 5494 5496 5497 5498 0
h 287 -3729 0
h 287 -5494 0
h 287 -5496 0
h 287 -5497 0
h 287 -5498 0
h 5499 -3731 -5495 0
h -5499 3731 0
h -5499 5495 0
h 5500 -5501 -5495 0
h -5500 5501 0
h -5500 5495 0
h 5502 -5501 -3728 0
h -5502 5501 0
h -5502 3728 0
h 5503 -3731 -3728 -5487 0
h -5503 3731 0
h -5503 3728 0
h -5503 5487 0
h -290 3732 5499 5500 5502 5503 0
h 290 -3732 0
h 290 -5499 0
h 290 -5500 0
h 290 -5502 0
h 290 -5503 0
h 5504 -3725 -5501 0
h -5504 3725 0
h -5504 5501 0
h 5505 -5490 -3731 0
h -5505 5490 0
h -5505 3731 0
h 5506 -5490 -5501 0
h -5506 5490 0
h -5506 5501 0
h 5507 -3725 -3731 -5487 0
h -5507 3725 0
h -5507 3731 0
h -5507 5487 0
h -288 3734 5504 5505 5506 5507 0
h 288 -3734 0
h 288 -5504 0
h 288 -5505 0
h 288 -5506 0
h 288 -5507 0
h 5508 -3725 -5490 0
h -5508 3725 0
h -5508 5490 0
h 5509 -5490 -5490 0
h -5509 5490 0
h -5509 5490 0
h 5510 -5490 -3725 0
h -5510 5490 0
h -5510 3725 0
h 5511 -3725 -3725 -5487 0
h -5511 3725 0
h -5511 3725 0
h -5511 5487 0
h -5512 3737 5508 5509 5510 5511 0
h 5512 -3737 0
h 5512 -5508 0
h 5512 -5509 0
h 5512 -5510 0
h 5512 -5511 0
h 5513 -4431 -4431 0
h -5513 4431 0
h -5513 4431 0
h -5514 4437 5513 0
h 5514 -4437 0
h 5514 -5513 0
h 5515 -4431 -1359 0
h -5515 4431 0
h -5515 1359 0
h -1169 4442 5515 0
h 1169 -4442 0
h 1169 -5515 0
h 5516 -4431 -1357 0
h -5516 4431 0
h -5516 1357 0
h -1167 4447 5516 0
h 1167 -4447 0
h 1167 -5516 0
h 5517 -1356 -1357 0
h -5517 1356 0
h -5517 1357 0
h -1170 1353 5517 0
h 1170 -1353 0
h 1170 -5517 0
h 5518 -1359 -1356 0
h -5518 1359 0
h -5518 1356 0
h -1168 1350 5518 0
h 1168 -1350 0
h 1168 -5518 0
h 5519 -1359 -1359 0
h -5519 1359 0
h -5519 1359 0
h -5520 1362 5519 0
h 5520 -1362 0
h 5520 -5519 0
h 5521 -2392 -2389 0
h -5521 2392 0
h -5521 2389 0
h 4272 -2389 -2389 0
h -4272 2389 0
h -4272 2389 0
h 5522 -2389 -2392 0
h -5522 2389 0
h -5522 2392 0
h 5523 -2392 -2392 -2400 0
h -5523 2392 0
h -5523 2392 0
h -5523 2400 0
h -5524 2386 5521 4272 5522 5523 0
h 5524 -2386 0
h 5524 -5521 0
h 5524 -4272 0
h 5524 -5522 0
h 5524 -5523 0
h 5525 -2392 -3961 0
h -5525 2392 0
h -5525 3961 0
h 5526 -2389 -3961 0
h -5526 2389 0
h -5526 3961 0
h 5527 -2389 -3963 0
h -5527 2389 0
h -5527 3963 0
h 5528 -2392 -3963 -2400 0
h -5528 2392 0
h -5528 3963 0
h -5528 2400 0
h -399 4250 5525 5526 5527 5528 0
h 399 -4250 0
h 399 -5525 0
h 399 -5526 0
h 399 -5527 0
h 399 -5528 0
h 5529 -2392 -2388 0
h -5529 2392 0
h -5529 2388 0
h 5530 -2389 -2391 0
h -5530 2389 0
h -5530 2391 0
h 5531 -2389 -2388 0
h -5531 2389 0
h -5531 2388 0
h 5532 -2392 -2391 -2400 0
h -5532 2392 0
h -5532 2391 0
h -5532 2400 0
h -397 2384 5529 5530 5531 5532 0
h 397 -2384 0
h 397 -5529 0
h 397 -5530 0
h 397 -5531 0
h 397 -5532 0
h 5533 -2395 -2388 0
h -5533 2395 0
h -5533 2388 0
h 5534 -2397 -2388 0
h -5534 2397 0
h -5534 2388 0
h 5535 -2397 -2391 0
h -5535 2397 0
h -5535 2391 0
h 5536 -2395 -2391 -2400 0
h -5536 2395 0
h -5536 2391 0
h -5536 2400 0
h -400 2394 5533 5534 5535 5536 0
h 400 -2394 0
h 400 -5533 0
h 400 -5534 0
h 400 -5535 0
h 400 -5536 0
h 5537 -3963 -2397 0
h -5537 3963 0
h -5537 2397 0
h 5538 -3961 -2395 0
h -5538 3961 0
h -5538 2395 0
h 5539 -3961 -2397 0
h -5539 3961 0
h -5539 2397 0
h 5540 -3963 -2395 -2400 0
h -5540 3963 0
h -5540 2395 0
h -5540 2400 0
h -398 3957 5537 5538 5539 5540 0
h 398 -3957 0
h 398 -5537 0
h 398 -5538 0
h 398 -5539 0
h 398 -5540 0
h 5541 -3963 -3961 0
h -5541 3963 0
h -5541 3961 0
h 5211 -3961 -3961 0
h -5211 3961 0
h -5211 3961 0
h 5542 -3961 -3963 0
h -5542 3961 0
h -5542 3963 0
h 5543 -3963 -3963 -2400 0
h -5543 3963 0
h -5543 3963 0
h -5543 2400 0
h -5544 3959 5541 5211 5542 5543 0
h 5544 -3959 0
h 5544 -5541 0
h 5544 -5211 0
h 5544 -5542 0
h 5544 -5543 0
h 5545 -4902 -4902 0
h -5545 4902 0
h -5545 4902 0
h -5546 4909 5545 0
h 5546 -4909 0
h 5546 -5545 0
h 5547 -4902 -4914 0
h -5547 4902 0
h -5547 4914 0
h -1179 4916 5547 0
h 1179 -4916 0
h 1179 -5547 0
h 5548 -4902 -4920 0
h -5548 4902 0
h -5548 4920 0
h -1177 4923 5548 0
h 1177 -4923 0
h 1177 -5548 0
h 5549 -4925 -4920 0
h -5549 4925 0
h -5549 4920 0
h -1180 4930 5549 0
h 1180 -4930 0
h 1180 -5549 0
h 5550 -4914 -4925 0
h -5550 4914 0
h -5550 4925 0
h -1178 4935 5550 0
h 1178 -4935 0
h 1178 -5550 0
h 5551 -4914 -4914 0
h -5551 4914 0
h -5551 4914 0
h -5552 4941 5551 0
h 5552 -4941 0
h 5552 -5551 0
h 5553 -1346 -4432 0
h -5553 1346 0
h -5553 4432 0
h 4433 -4432 -4432 0
h -4433 4432 0
h -4433 4432 0
h 5554 -4432 -1346 0
h -5554 4432 0
h -5554 1346 0
h 5555 -1346 -1346 -4437 0
h -5555 1346 0
h -5555 1346 0
h -5555 4437 0
h -5556 1348 5553 4433 5554 5555 0
h 5556 -1348 0
h 5556 -5553 0
h 5556 -4433 0
h 5556 -5554 0
h 5556 -5555 0
h 5557 -1346 -4442 0
h -5557 1346 0
h -5557 4442 0
h 5558 -4432 -4442 0
h -5558 4432 0
h -5558 4442 0
h 5559 -4432 -1350 0
h -5559 4432 0
h -5559 1350 0
h 5560 -1346 -1350 -4437 0
h -5560 1346 0
h -5560 1350 0
h -5560 4437 0
h -924 1351 5557 5558 5559 5560 0
h 924 -1351 0
h 924 -5557 0
h 924 -5558 0
h 924 -5559 0
h 924 -5560 0
h 5561 -1346 -4447 0
h -5561 1346 0
h -5561 4447 0
h 5562 -4432 -1353 0
h -5562 4432 0
h -5562 1353 0
h 5563 -4432 -4447 0
h -5563 4432 0
h -5563 4447 0
h 5564 -1346 -1353 -4437 0
h -5564 1346 0
h -5564 1353 0
h -5564 4437 0
h -922 1354 5561 5562 5563 5564 0
h 922 -1354 0
h 922 -5561 0
h 922 -5562 0
h 922 -5563 0
h 922 -5564 0
h 5565 -1356 -4447 0
h -5565 1356 0
h -5565 4447 0
h 5566 -4431 -4447 0
h -5566 4431 0
h -5566 4447 0
h 5567 -4431 -1353 0
h -5567 4431 0
h -5567 1353 0
h 5568 -1356 -1353 -4437 0
h -5568 1356 0
h -5568 1353 0
h -5568 4437 0
h -925 1357 5565 5566 5567 5568 0
h 925 -1357 0
h 925 -5565 0
h 925 -5566 0
h 925 -5567 0
h 925 -5568 0
h 5569 -1350 -4431 0
h -5569 1350 0
h -5569 4431 0
h 5570 -4442 -1356 0
h -5570 4442 0
h -5570 1356 0
h 5571 -4442 -4431 0
h -5571 4442 0
h -5571 4431 0
h 5572 -1350 -1356 -4437 0
h -5572 1350 0
h -5572 1356 0
h -5572 4437 0
h -923 1359 5569 5570 5571 5572 0
h 923 -1359 0
h 923 -5569 0
h 923 -5570 0
h 923 -5571 0
h 923 -5572 0
h 5573 -1350 -4442 0
h -5573 1350 0
h -5573 4442 0
h 5574 -4442 -4442 0
h -5574 4442 0
h -5574 4442 0
h 5575 -4442 -1350 0
h -5575 4442 0
h -5575 1350 0
h 5576 -1350 -1350 -4437 0
h -5576 1350 0
h -5576 1350 0
h -5576 4437 0
h -5577 1362 5573 5574 5575 5576 0
h 5577 -1362 0
h 5577 -5573 0
h 5577 -5574 0
h 5577 -5575 0
h 5577 -5576 0
h 5578 -4380 -5579 0
h -5578 4380 0
h -5578 5579 0
h 5580 -5579 -5579 0
h -5580 5579 0
h -5580 5579 0
h 5581 -5579 -4380 0
h -5581 5579 0
h -5581 4380 0
h 5582 -4380 -4380 -5583 0
h -5582 4380 0
h -5582 4380 0
h -5582 5583 0
h -5584 4382 5578 5580 5581 5582 0
h 5584 -4382 0
h 5584 -5578 0
h 5584 -5580 0
h 5584 -5581 0
h 5584 -5582 0
h 5585 -4380 -5586 0
h -5585 4380 0
h -5585 5586 0
h 5587 -5579 -5586 0
h -5587 5579 0
h -5587 5586 0
h 5588 -5579 -4384 0
h -5588 5579 0
h -5588 4384 0
h 5589 -4380 -4384 -5583 0
h -5589 4380 0
h -5589 4384 0
h -5589 5583 0
h -324 4385 5585 5587 5588 5589 0
h 324 -4385 0
h 324 -5585 0
h 324 -5587 0
h 324 -5588 0
h 324 -5589 0
h 5590 -4380 -5591 0
h -5590 4380 0
h -5590 5591 0
h 5592 -5579 -4387 0
h -5592 5579 0
h -5592 4387 0
h 5593 -5579 -5591 0
h -5593 5579 0
h -5593 5591 0
h 5594 -4380 -4387 -5583 0
h -5594 4380 0
h -5594 4387 0
h -5594 5583 0
h -322 4388 5590 5592 5593 5594 0
h 322 -4388 0
h 322 -5590 0
h 322 -5592 0
h 322 -5593 0
h 322 -5594 0
h 5595 -4390 -5591 0
h -5595 4390 0
h -5595 5591 0
h 5596 -5597 -5591 0
h -5596 5597 0
h -5596 5591 0
h 5598 -5597 -4387 0
h -5598 5597 0
h -5598 4387 0
h 5599 -4390 -4387 -5583 0
h -5599 4390 0
h -5599 4387 0
h -5599 5583 0
h -325 4391 5595 5596 5598 5599 0
h 325 -4391 0
h 325 -5595 0
h 325 -5596 0
h 325 -5598 0
h 325 -5599 0
h 5600 -4384 -5597 0
h -5600 4384 0
h -5600 5597 0
h 5601 -5586 -4390 0
h -5601 5586 0
h -5601 4390 0
h 5602 -5586 -5597 0
h -5602 5586 0
h -5602 5597 0
h 5603 -4384 -4390 -5583 0
h -5603 4384 0
h -5603 4390 0
h -5603 5583 0
h -323 4393 5600 5601 5602 5603 0
h 323 -4393 0
h 323 -5600 0
h 323 -5601 0
h 323 -5602 0
h 323 -5603 0
h 5604 -4384 -5586 0
h -5604 4384 0
h -5604 5586 0
h 5605 -5586 -5586 0
h -5605 5586 0
h -5605 5586 0
h 5606 -5586 -4384 0
h -5606 5586 0
h -5606 4384 0
h 5607 -4384 -4384 -5583 0
h -5607 4384 0
h -5607 4384 0
h -5607 5583 0
h -5608 4396 5604 5605 5606 5607 0
h 5608 -4396 0
h 5608 -5604 0
h 5608 -5605 0
h 5608 -5606 0
h 5608 -5607 0
h 5609 -3078 -3076 0
h -5609 3078 0
h -5609 3076 0
h 4223 -3076 -3076 0
h -4223 3076 0
h -4223 3076 0
h 5610 -3076 -3078 0
h -5610 3076 0
h -5610 3078 0
h 5611 -3078 -3078 -2834 0
h -5611 3078 0
h -5611 3078 0
h -5611 2834 0
h -5612 3074 5609 4223 5610 5611 0
h 5612 -3074 0
h 5612 -5609 0
h 5612 -4223 0
h 5612 -5610 0
h 5612 -5611 0
h 5613 -3078 -2837 0
h -5613 3078 0
h -5613 2837 0
h 5614 -3076 -2837 0
h -5614 3076 0
h -5614 2837 0
h 5615 -3076 -2845 0
h -5615 3076 0
h -5615 2845 0
h 5616 -3078 -2845 -2834 0
h -5616 3078 0
h -5616 2845 0
h -5616 2834 0
h -109 4228 5613 5614 5615 5616 0
h 109 -4228 0
h 109 -5613 0
h 109 -5614 0
h 109 -5615 0
h 109 -5616 0
h 5617 -3078 -2840 0
h -5617 3078 0
h -5617 2840 0
h 5618 -3076 -2843 0
h -5618 3076 0
h -5618 2843 0
h 5619 -3076 -2840 0
h -5619 3076 0
h -5619 2840 0
h 5620 -3078 -2843 -2834 0
h -5620 3078 0
h -5620 2843 0
h -5620 2834 0
h -107 3072 5617 5618 5619 5620 0
h 107 -3072 0
h 107 -5617 0
h 107 -5618 0
h 107 -5619 0
h 107 -5620 0
h 5621 -2842 -2840 0
h -5621 2842 0
h -5621 2840 0
h 5622 -2832 -2840 0
h -5622 2832 0
h -5622 2840 0
h 5623 -2832 -2843 0
h -5623 2832 0
h -5623 2843 0
h 5624 -2842 -2843 -2834 0
h -5624 2842 0
h -5624 2843 0
h -5624 2834 0
h -110 2839 5621 5622 5623 5624 0
h 110 -2839 0
h 110 -5621 0
h 110 -5622 0
h 110 -5623 0
h 110 -5624 0
h 5625 -2845 -2832 0
h -5625 2845 0
h -5625 2832 0
h 5626 -2837 -2842 0
h -5626 2837 0
h -5626 2842 0
h 5627 -2837 -2832 0
h -5627 2837 0
h -5627 2832 0
h 5628 -2845 -2842 -2834 0
h -5628 2845 0
h -5628 2842 0
h -5628 2834 0
h -108 2836 5625 5626 5627 5628 0
h 108 -2836 0
h 108 -5625 0
h 108 -5626 0
h 108 -5627 0
h 108 -5628 0
h 5629 -2845 -2837 0
h -5629 2845 0
h -5629 2837 0
h 5630 -2837 -2837 0
h -5630 2837 0
h -5630 2837 0
h 5631 -2837 -2845 0
h -5631 2837 0
h -5631 2845 0
h 5632 -2845 -2845 -2834 0
h -5632 2845 0
h -5632 2845 0
h -5632 2834 0
h -5633 2848 5629 5630 5631 5632 0
h 5633 -2848 0
h 5633 -5629 0
h 5633 -5630 0
h 5633 -5631 0
h 5633 -5632 0
h 5634 -1680 -1673 0
h -5634 1680 0
h -5634 1673 0
h 1894 -1673 -1673 0
h -1894 1673 0
h -1894 1673 0
h 5635 -1673 -1680 0
h -5635 1673 0
h -5635 1680 0
h 5636 -1680 -1680 -1698 0
h -5636 1680 0
h -5636 1680 0
h -5636 1698 0
h -5637 1666 5634 1894 5635 5636 0
h 5637 -1666 0
h 5637 -5634 0
h 5637 -1894 0
h 5637 -5635 0
h 5637 -5636 0
h 5638 -1680 -1668 0
h -5638 1680 0
h -5638 1668 0
h 5639 -1673 -1668 0
h -5639 1673 0
h -5639 1668 0
h 5640 -1673 -1675 0
h -5640 1673 0
h -5640 1675 0
h 5641 -1680 -1675 -1698 0
h -5641 1680 0
h -5641 1675 0
h -5641 1698 0
h -94 1660 5638 5639 5640 5641 0
h 94 -1660 0
h 94 -5638 0
h 94 -5639 0
h 94 -5640 0
h 94 -5641 0
h 5642 -1680 -1671 0
h -5642 1680 0
h -5642 1671 0
h 5643 -1673 -1677 0
h -5643 1673 0
h -5643 1677 0
h 5644 -1673 -1671 0
h -5644 1673 0
h -5644 1671 0
h 5645 -1680 -1677 -1698 0
h -5645 1680 0
h -5645 1677 0
h -5645 1698 0
h -92 1659 5642 5643 5644 5645 0
h 92 -1659 0
h 92 -5642 0
h 92 -5643 0
h 92 -5644 0
h 92 -5645 0
h 5646 -1687 -1671 0
h -5646 1687 0
h -5646 1671 0
h 5647 -1692 -1671 0
h -5647 1692 0
h -5647 1671 0
h 5648 -1692 -1677 0
h -5648 1692 0
h -5648 1677 0
h 5649 -1687 -1677 -1698 0
h -5649 1687 0
h -5649 1677 0
h -5649 1698 0
h -95 1682 5646 5647 5648 5649 0
h 95 -1682 0
h 95 -5646 0
h 95 -5647 0
h 95 -5648 0
h 95 -5649 0
h 5650 -1675 -1692 0
h -5650 1675 0
h -5650 1692 0
h 5651 -1668 -1687 0
h -5651 1668 0
h -5651 1687 0
h 5652 -1668 -1692 0
h -5652 1668 0
h -5652 1692 0
h 5653 -1675 -1687 -1698 0
h -5653 1675 0
h -5653 1687 0
h -5653 1698 0
h -93 1684 5650 5651 5652 5653 0
h 93 -1684 0
h 93 -5650 0
h 93 -5651 0
h 93 -5652 0
h 93 -5653 0
h 5654 -1675 -1668 0
h -5654 1675 0
h -5654 1668 0
h 1694 -1668 -1668 0
h -1694 1668 0
h -1694 1668 0
h 5655 -1668 -1675 0
h -5655 1668 0
h -5655 1675 0
h 5656 -1675 -1675 -1698 0
h -5656 1675 0
h -5656 1675 0
h -5656 1698 0
h -5657 1664 5654 1694 5655 5656 0
h 5657 -1664 0
h 5657 -5654 0
h 5657 -1694 0
h 5657 -5655 0
h 5657 -5656 0
h 5658 -4111 -5659 0
h -5658 4111 0
h -5658 5659 0
h 5660 -5659 -5659 0
h -5660 5659 0
h -5660 5659 0
h 5661 -5659 -4111 0
h -5661 5659 0
h -5661 4111 0
h 5662 -4111 -4111 -5663 0
h -5662 4111 0
h -5662 4111 0
h -5662 5663 0
h -5664 4113 5658 5660 5661 5662 0
h 5664 -4113 0
h 5664 -5658 0
h 5664 -5660 0
h 5664 -5661 0
h 5664 -5662 0
h 5665 -4111 -5666 0
h -5665 4111 0
h -5665 5666 0
h 5667 -5659 -5666 0
h -5667 5659 0
h -5667 5666 0
h 5668 -5659 -4115 0
h -5668 5659 0
h -5668 4115 0
h 5669 -4111 -4115 -5663 0
h -5669 4111 0
h -5669 4115 0
h -5669 5663 0
h -1084 4116 5665 5667 5668 5669 0
h 1084 -4116 0
h 1084 -5665 0
h 1084 -5667 0
h 1084 -5668 0
h 1084 -5669 0
h 5670 -4111 -5671 0
h -5670 4111 0
h -5670 5671 0
h 5672 -5659 -4118 0
h -5672 5659 0
h -5672 4118 0
h 5673 -5659 -5671 0
h -5673 5659 0
h -5673 5671 0
h 5674 -4111 -4118 -5663 0
h -5674 4111 0
h -5674 4118 0
h -5674 5663 0
h -1082 4119 5670 5672 5673 5674 0
h 1082 -4119 0
h 1082 -5670 0
h 1082 -5672 0
h 1082 -5673 0
h 1082 -5674 0
h 5675 -4121 -5671 0
h -5675 4121 0
h -5675 5671 0
h 5676 -5677 -5671 0
h -5676 5677 0
h -5676 5671 0
h 5678 -5677 -4118 0
h -5678 5677 0
h -5678 4118 0
h 5679 -4121 -4118 -5663 0
h -5679 4121 0
h -5679 4118 0
h -5679 5663 0
h -1085 4122 5675 5676 5678 5679 0
h 1085 -4122 0
h 1085 -5675 0
h 1085 -5676 0
h 1085 -5678 0
h 1085 -5679 0
h 5680 -4115 -5677 0
h -5680 4115 0
h -5680 5677 0
h 5681 -5666 -4121 0
h -5681 5666 0
h -5681 4121 0
h 5682 -5666 -5677 0
h -5682 5666 0
h -5682 5677 0
h 5683 -4115 -4121 -5663 0
h -5683 4115 0
h -5683 4121 0
h -5683 5663 0
h -1083 4124 5680 5681 5682 5683 0
h 1083 -4124 0
h 1083 -5680 0
h 1083 -5681 0
h 1083 -5682 0
h 1083 -5683 0
h 5684 -4115 -5666 0
h -5684 4115 0
h -5684 5666 0
h 5685 -5666 -5666 0
h -5685 5666 0
h -5685 5666 0
h 5686 -5666 -4115 0
h -5686 5666 0
h -5686 4115 0
h 5687 -4115 -4115 -5663 0
h -5687 4115 0
h -5687 4115 0
h -5687 5663 0
h -5688 4127 5684 5685 5686 5687 0
h 5688 -4127 0
h 5688 -5684 0
h 5688 -5685 0
h 5688 -5686 0
h 5688 -5687 0
h 5689 -3125 -5061 0
h -5689 3125 0
h -5689 5061 0
h 5690 -5061 -5061 0
h -5690 5061 0
h -5690 5061 0
h 5691 -5061 -3125 0
h -5691 5061 0
h -5691 3125 0
h 5692 -3125 -3125 -3513 0
h -5692 3125 0
h -5692 3125 0
h -5692 3513 0
h -5693 3127 5689 5690 5691 5692 0
h 5693 -3127 0
h 5693 -5689 0
h 5693 -5690 0
h 5693 -5691 0
h 5693 -5692 0
h 5694 -3125 -3515 0
h -5694 3125 0
h -5694 3515 0
h 5695 -5061 -3515 0
h -5695 5061 0
h -5695 3515 0
h 5696 -5061 -3129 0
h -5696 5061 0
h -5696 3129 0
h 5697 -3125 -3129 -3513 0
h -5697 3125 0
h -5697 3129 0
h -5697 3513 0
h -434 3130 5694 5695 5696 5697 0
h 434 -3130 0
h 434 -5694 0
h 434 -5695 0
h 434 -5696 0
h 434 -5697 0
h 5698 -3125 -3517 0
h -5698 3125 0
h -5698 3517 0
h 5699 -5061 -3132 0
h -5699 5061 0
h -5699 3132 0
h 5700 -5061 -3517 0
h -5700 5061 0
h -5700 3517 0
h 5701 -3125 -3132 -3513 0
h -5701 3125 0
h -5701 3132 0
h -5701 3513 0
h -432 3133 5698 5699 5700 5701 0
h 432 -3133 0
h 432 -5698 0
h 432 -5699 0
h 432 -5700 0
h 432 -5701 0
h 5702 -3135 -3517 0
h -5702 3135 0
h -5702 3517 0
h 5703 -3511 -3517 0
h -5703 3511 0
h -5703 3517 0
h 5704 -3511 -3132 0
h -5704 3511 0
h -5704 3132 0
h 5705 -3135 -3132 -3513 0
h -5705 3135 0
h -5705 3132 0
h -5705 3513 0
h -435 3136 5702 5703 5704 5705 0
h 435 -3136 0
h 435 -5702 0
h 435 -5703 0
h 435 -5704 0
h 435 -5705 0
h 5706 -3129 -3511 0
h -5706 3129 0
h -5706 3511 0
h 5707 -3515 -3135 0
h -5707 3515 0
h -5707 3135 0
h 5708 -3515 -3511 0
h -5708 3515 0
h -5708 3511 0
h 5709 -3129 -3135 -3513 0
h -5709 3129 0
h -5709 3135 0
h -5709 3513 0
h -433 3138 5706 5707 5708 5709 0
h 433 -3138 0
h 433 -5706 0
h 433 -5707 0
h 433 -5708 0
h 433 -5709 0
h 5710 -3129 -3515 0
h -5710 3129 0
h -5710 3515 0
h 5711 -3515 -3515 0
h -5711 3515 0
h -5711 3515 0
h 5712 -3515 -3129 0
h -5712 3515 0
h -5712 3129 0
h 5713 -3129 -3129 -3513 0
h -5713 3129 0
h -5713 3129 0
h -5713 3513 0
h -5714 3141 5710 5711 5712 5713 0
h 5714 -3141 0
h 5714 -5710 0
h 5714 -5711 0
h 5714 -5712 0
h 5714 -5713 0
h 5715 -1330 -1330 0
h -5715 1330 0
h -5715 1330 0
h -5716 1310 5715 0
h 5716 -1310 0
h 5716 -5715 0
h 5717 -1330 -1338 0
h -5717 1330 0
h -5717 1338 0
h -499 1314 5717 0
h 499 -1314 0
h 499 -5717 0
h 5718 -1330 -1333 0
h -5718 1330 0
h -5718 1333 0
h -497 1321 5718 0
h 497 -1321 0
h 497 -5718 0
h 5719 -1328 -1333 0
h -5719 1328 0
h -5719 1333 0
h -500 1323 5719 0
h 500 -1323 0
h 500 -5719 0
h 5720 -1338 -1328 0
h -5720 1338 0
h -5720 1328 0
h -498 1317 5720 0
h 498 -1317 0
h 498 -5720 0
h 5721 -1338 -1338 0
h -5721 1338 0
h -5721 1338 0
h -5722 1344 5721 0
h 5722 -1344 0
h 5722 -5721 0
h 5723 -3211 -3211 0
h -5723 3211 0
h -5723 3211 0
h -5724 3197 5723 0
h 5724 -3197 0
h 5724 -5723 0
h 5725 -3211 -2146 0
h -5725 3211 0
h -5725 2146 0
h -474 3200 5725 0
h 474 -3200 0
h 474 -5725 0
h 5726 -3211 -2144 0
h -5726 3211 0
h -5726 2144 0
h -472 3205 5726 0
h 472 -3205 0
h 472 -5726 0
h 5727 -2143 -2144 0
h -5727 2143 0
h -5727 2144 0
h -475 2140 5727 0
h 475 -2140 0
h 475 -5727 0
h 5728 -2146 -2143 0
h -5728 2146 0
h -5728 2143 0
h -473 2137 5728 0
h 473 -2137 0
h 473 -5728 0
h 5729 -2146 -2146 0
h -5729 2146 0
h -5729 2146 0
h -5730 2149 5729 0
h 5730 -2149 0
h 5730 -5729 0
h 5731 -2319 -2319 0
h -5731 2319 0
h -5731 2319 0
h -5732 2299 5731 0
h 5732 -2299 0
h 5732 -5731 0
h 5733 -2319 -2327 0
h -5733 2319 0
h -5733 2327 0
h -989 2303 5733 0
h 989 -2303 0
h 989 -5733 0
h 5734 -2319 -2322 0
h -5734 2319 0
h -5734 2322 0
h -987 2310 5734 0
h 987 -2310 0
h 987 -5734 0
h 5735 -2317 -2322 0
h -5735 2317 0
h -5735 2322 0
h -990 2312 5735 0
h 990 -2312 0
h 990 -5735 0
h 5736 -2327 -2317 0
h -5736 2327 0
h -5736 2317 0
h -988 2306 5736 0
h 988 -2306 0
h 988 -5736 0
h 5737 -2327 -2327 0
h -5737 2327 0
h -5737 2327 0
h -5738 2333 5737 0
h 5738 -2333 0
h 5738 -5737 0
h 5739 -5740 -5740 0
h -5739 5740 0
h -5739 5740 0
h -5741 5742 5739 0
h 5741 -5742 0
h 5741 -5739 0
h 5743 -5740 -5744 0
h -5743 5740 0
h -5743 5744 0
h -1054 5745 5743 0
h 1054 -5745 0
h 1054 -5743 0
h 5746 -5740 -5747 0
h -5746 5740 0
h -5746 5747 0
h -1052 5748 5746 0
h 1052 -5748 0
h 1052 -5746 0
h 5749 -5750 -5747 0
h -5749 5750 0
h -5749 5747 0
h -1055 5751 5749 0
h 1055 -5751 0
h 1055 -5749 0
h 5752 -5744 -5750 0
h -5752 5744 0
h -5752 5750 0
h -1053 5753 5752 0
h 1053 -5753 0
h 1053 -5752 0
h 5754 -5744 -5744 0
h -5754 5744 0
h -5754 5744 0
h -5755 5756 5754 0
h 5755 -5756 0
h 5755 -5754 0
h 5757 -3336 -3336 0
h -5757 3336 0
h -5757 3336 0
h -5758 3343 5757 0
h 5758 -3343 0
h 5758 -5757 0
h 5759 -3336 -3348 0
h -5759 3336 0
h -5759 3348 0
h -1034 3350 5759 0
h 1034 -3350 0
h 1034 -5759 0
h 5760 -3336 -3354 0
h -5760 3336 0
h -5760 3354 0
h -1032 3357 5760 0
h 1032 -3357 0
h 1032 -5760 0
h 5761 -3359 -3354 0
h -5761 3359 0
h -5761 3354 0
h -1035 3364 5761 0
h 1035 -3364 0
h 1035 -5761 0
h 5762 -3348 -3359 0
h -5762 3348 0
h -5762 3359 0
h -1033 3369 5762 0
h 1033 -3369 0
h 1033 -5762 0
h 5763 -3348 -3348 0
h -5763 3348 0
h -5763 3348 0
h -5764 3375 5763 0
h 5764 -3375 0
h 5764 -5763 0
h 5765 -1364 -1364 0
h -5765 1364 0
h -5765 1364 0
h -5766 1371 5765 0
h 5766 -1371 0
h 5766 -5765 0
h 5767 -1364 -1376 0
h -5767 1364 0
h -5767 1376 0
h -1199 1378 5767 0
h 1199 -1378 0
h 1199 -5767 0
h 5768 -1364 -1382 0
h -5768 1364 0
h -5768 1382 0
h -1197 1385 5768 0
h 1197 -1385 0
h 1197 -5768 0
h 5769 -1387 -1382 0
h -5769 1387 0
h -5769 1382 0
h -1200 1392 5769 0
h 1200 -1392 0
h 1200 -5769 0
h 5770 -1376 -1387 0
h -5770 1376 0
h -5770 1387 0
h -1198 1397 5770 0
h 1198 -1397 0
h 1198 -5770 0
h 5771 -1376 -1376 0
h -5771 1376 0
h -5771 1376 0
h -5772 1403 5771 0
h 5772 -1403 0
h 5772 -5771 0
h 5773 -3523 -3523 0
h -5773 3523 0
h -5773 3523 0
h -5774 3530 5773 0
h 5774 -3530 0
h 5774 -5773 0
h 5775 -3523 -3535 0
h -5775 3523 0
h -5775 3535 0
h -694 3537 5775 0
h 694 -3537 0
h 694 -5775 0
h 5776 -3523 -3541 0
h -5776 3523 0
h -5776 3541 0
h -692 3544 5776 0
h 692 -3544 0
h 692 -5776 0
h 5777 -3546 -3541 0
h -5777 3546 0
h -5777 3541 0
h -695 3551 5777 0
h 695 -3551 0
h 695 -5777 0
h 5778 -3535 -3546 0
h -5778 3535 0
h -5778 3546 0
h -693 3556 5778 0
h 693 -3556 0
h 693 -5778 0
h 5779 -3535 -3535 0
h -5779 3535 0
h -5779 3535 0
h -5780 3562 5779 0
h 5780 -3562 0
h 5780 -5779 0
h 5781 -3041 -3037 0
h -5781 3041 0
h -5781 3037 0
h 5782 -3037 -3037 0
h -5782 3037 0
h -5782 3037 0
h 5783 -3037 -3041 0
h -5783 3037 0
h -5783 3041 0
h 5784 -3041 -3041 -2624 0
h -5784 3041 0
h -5784 3041 0
h -5784 2624 0
h -5785 3044 5781 5782 5783 5784 0
h 5785 -3044 0
h 5785 -5781 0
h 5785 -5782 0
h 5785 -5783 0
h 5785 -5784 0
h 5786 -3041 -2627 0
h -5786 3041 0
h -5786 2627 0
h 5787 -3037 -2627 0
h -5787 3037 0
h -5787 2627 0
h 5788 -3037 -2635 0
h -5788 3037 0
h -5788 2635 0
h 5789 -3041 -2635 -2624 0
h -5789 3041 0
h -5789 2635 0
h -5789 2624 0
h -944 3870 5786 5787 5788 5789 0
h 944 -3870 0
h 944 -5786 0
h 944 -5787 0
h 944 -5788 0
h 944 -5789 0
h 5790 -3041 -2630 0
h -5790 3041 0
h -5790 2630 0
h 5791 -3037 -2633 0
h -5791 3037 0
h -5791 2633 0
h 5792 -3037 -2630 0
h -5792 3037 0
h -5792 2630 0
h 5793 -3041 -2633 -2624 0
h -5793 3041 0
h -5793 2633 0
h -5793 2624 0
h -942 3036 5790 5791 5792 5793 0
h 942 -3036 0
h 942 -5790 0
h 942 -5791 0
h 942 -5792 0
h 942 -5793 0
h 5794 -2632 -2630 0
h -5794 2632 0
h -5794 2630 0
h 5795 -2622 -2630 0
h -5795 2622 0
h -5795 2630 0
h 5796 -2622 -2633 0
h -5796 2622 0
h -5796 2633 0
h 5797 -2632 -2633 -2624 0
h -5797 2632 0
h -5797 2633 0
h -5797 2624 0
h -945 2629 5794 5795 5796 5797 0
h 945 -2629 0
h 945 -5794 0
h 945 -5795 0
h 945 -5796 0
h 945 -5797 0
h 5798 -2635 -2622 0
h -5798 2635 0
h -5798 2622 0
h 5799 -2627 -2632 0
h -5799 2627 0
h -5799 2632 0
h 5800 -2627 -2622 0
h -5800 2627 0
h -5800 2622 0
h 5801 -2635 -2632 -2624 0
h -5801 2635 0
h -5801 2632 0
h -5801 2624 0
h -943 2626 5798 5799 5800 5801 0
h 943 -2626 0
h 943 -5798 0
h 943 -5799 0
h 943 -5800 0
h 943 -5801 0
h 5802 -2635 -2627 0
h -5802 2635 0
h -5802 2627 0
h 4129 -2627 -2627 0
h -4129 2627 0
h -4129 2627 0
h 5803 -2627 -2635 0
h -5803 2627 0
h -5803 2635 0
h 5804 -2635 -2635 -2624 0
h -5804 2635 0
h -5804 2635 0
h -5804 2624 0
h -5805 2638 5802 4129 5803 5804 0
h 5805 -2638 0
h 5805 -5802 0
h 5805 -4129 0
h 5805 -5803 0
h 5805 -5804 0
h 5806 -4205 -5807 0
h -5806 4205 0
h -5806 5807 0
h 5808 -5807 -5807 0
h -5808 5807 0
h -5808 5807 0
h 5809 -5807 -4205 0
h -5809 5807 0
h -5809 4205 0
h 5810 -4205 -4205 -5811 0
h -5810 4205 0
h -5810 4205 0
h -5810 5811 0
h -5812 4207 5806 5808 5809 5810 0
h 5812 -4207 0
h 5812 -5806 0
h 5812 -5808 0
h 5812 -5809 0
h 5812 -5810 0
h 5813 -4205 -5814 0
h -5813 4205 0
h -5813 5814 0
h 5815 -5807 -5814 0
h -5815 5807 0
h -5815 5814 0
h 5816 -5807 -4209 0
h -5816 5807 0
h -5816 4209 0
h 5817 -4205 -4209 -5811 0
h -5817 4205 0
h -5817 4209 0
h -5817 5811 0
h -364 4210 5813 5815 5816 5817 0
h 364 -4210 0
h 364 -5813 0
h 364 -5815 0
h 364 -5816 0
h 364 -5817 0
h 5818 -4205 -5819 0
h -5818 4205 0
h -5818 5819 0
h 5820 -5807 -4212 0
h -5820 5807 0
h -5820 4212 0
h 5821 -5807 -5819 0
h -5821 5807 0
h -5821 5819 0
h 5822 -4205 -4212 -5811 0
h -5822 4205 0
h -5822 4212 0
h -5822 5811 0
h -362 4213 5818 5820 5821 5822 0
h 362 -4213 0
h 362 -5818 0
h 362 -5820 0
h 362 -5821 0
h 362 -5822 0
h 5823 -4215 -5819 0
h -5823 4215 0
h -5823 5819 0
h 5824 -5825 -5819 0
h -5824 5825 0
h -5824 5819 0
h 5826 -5825 -4212 0
h -5826 5825 0
h -5826 4212 0
h 5827 -4215 -4212 -5811 0
h -5827 4215 0
h -5827 4212 0
h -5827 5811 0
h -365 4216 5823 5824 5826 5827 0
h 365 -4216 0
h 365 -5823 0
h 365 -5824 0
h 365 -5826 0
h 365 -5827 0
h 5828 -4209 -5825 0
h -5828 4209 0
h -5828 5825 0
h 5829 -5814 -4215 0
h -5829 5814 0
h -5829 4215 0
h 5830 -5814 -5825 0
h -5830 5814 0
h -5830 5825 0
h 5831 -4209 -4215 -5811 0
h -5831 4209 0
h -5831 4215 0
h -5831 5811 0
h -363 4218 5828 5829 5830 5831 0
h 363 -4218 0
h 363 -5828 0
h 363 -5829 0
h 363 -5830 0
h 363 -5831 0
h 5832 -4209 -5814 0
h -5832 4209 0
h -5832 5814 0
h 5833 -5814 -5814 0
h -5833 5814 0
h -5833 5814 0
h 5834 -5814 -4209 0
h -5834 5814 0
h -5834 4209 0
h 5835 -4209 -4209 -5811 0
h -5835 4209 0
h -5835 4209 0
h -5835 5811 0
h -5836 4221 5832 5833 5834 5835 0
h 5836 -4221 0
h 5836 -5832 0
h 5836 -5833 0
h 5836 -5834 0
h 5836 -5835 0
h 5837 -2622 -3037 0
h -5837 2622 0
h -5837 3037 0
h 5782 -3037 -3037 0
h -5782 3037 0
h -5782 3037 0
h 5838 -3037 -2622 0
h -5838 3037 0
h -5838 2622 0
h 5839 -2622 -2622 -3044 0
h -5839 2622 0
h -5839 2622 0
h -5839 3044 0
h -5840 2624 5837 5782 5838 5839 0
h 5840 -2624 0
h 5840 -5837 0
h 5840 -5782 0
h 5840 -5838 0
h 5840 -5839 0
h 5841 -2622 -3870 0
h -5841 2622 0
h -5841 3870 0
h 5842 -3037 -3870 0
h -5842 3037 0
h -5842 3870 0
h 5843 -3037 -2626 0
h -5843 3037 0
h -5843 2626 0
h 5844 -2622 -2626 -3044 0
h -5844 2622 0
h -5844 2626 0
h -5844 3044 0
h -864 2627 5841 5842 5843 5844 0
h 864 -2627 0
h 864 -5841 0
h 864 -5842 0
h 864 -5843 0
h 864 -5844 0
h 5845 -2622 -3036 0
h -5845 2622 0
h -5845 3036 0
h 5846 -3037 -2629 0
h -5846 3037 0
h -5846 2629 0
h 5847 -3037 -3036 0
h -5847 3037 0
h -5847 3036 0
h 5848 -2622 -2629 -3044 0
h -5848 2622 0
h -5848 2629 0
h -5848 3044 0
h -862 2630 5845 5846 5847 5848 0
h 862 -2630 0
h 862 -5845 0
h 862 -5846 0
h 862 -5847 0
h 862 -5848 0
h 5849 -2632 -3036 0
h -5849 2632 0
h -5849 3036 0
h 5850 -3041 -3036 0
h -5850 3041 0
h -5850 3036 0
h 5851 -3041 -2629 0
h -5851 3041 0
h -5851 2629 0
h 5852 -2632 -2629 -3044 0
h -5852 2632 0
h -5852 2629 0
h -5852 3044 0
h -865 2633 5849 5850 5851 5852 0
h 865 -2633 0
h 865 -5849 0
h 865 -5850 0
h 865 -5851 0
h 865 -5852 0
h 5853 -2626 -3041 0
h -5853 2626 0
h -5853 3041 0
h 5854 -3870 -2632 0
h -5854 3870 0
h -5854 2632 0
h 5855 -3870 -3041 0
h -5855 3870 0
h -5855 3041 0
h 5856 -2626 -2632 -3044 0
h -5856 2626 0
h -5856 2632 0
h -5856 3044 0
h -863 2635 5853 5854 5855 5856 0
h 863 -2635 0
h 863 -5853 0
h 863 -5854 0
h 863 -5855 0
h 863 -5856 0
h 5857 -2626 -3870 0
h -5857 2626 0
h -5857 3870 0
h 4150 -3870 -3870 0
h -4150 3870 0
h -4150 3870 0
h 5858 -3870 -2626 0
h -5858 3870 0
h -5858 2626 0
h 5859 -2626 -2626 -3044 0
h -5859 2626 0
h -5859 2626 0
h -5859 3044 0
h -5860 2638 5857 4150 5858 5859 0
h 5860 -2638 0
h 5860 -5857 0
h 5860 -4150 0
h 5860 -5858 0
h 5860 -5859 0
h 5861 -1264 -1264 0
h -5861 1264 0
h -5861 1264 0
h -5862 1271 5861 0
h 5862 -1271 0
h 5862 -5861 0
h 5863 -1264 -1276 0
h -5863 1264 0
h -5863 1276 0
h -469 1278 5863 0
h 469 -1278 0
h 469 -5863 0
h 5864 -1264 -1282 0
h -5864 1264 0
h -5864 1282 0
h -467 1285 5864 0
h 467 -1285 0
h 467 -5864 0
h 5865 -1287 -1282 0
h -5865 1287 0
h -5865 1282 0
h -470 1292 5865 0
h 470 -1292 0
h 470 -5865 0
h 5866 -1276 -1287 0
h -5866 1276 0
h -5866 1287 0
h -468 1297 5866 0
h 468 -1297 0
h 468 -5866 0
h 5867 -1276 -1276 0
h -5867 1276 0
h -5867 1276 0
h -5868 1303 5867 0
h 5868 -1303 0
h 5868 -5867 0
h 5869 -4339 -4339 0
h -5869 4339 0
h -5869 4339 0
h -5870 4346 5869 0
h 5870 -4346 0
h 5870 -5869 0
h 5871 -4339 -4351 0
h -5871 4339 0
h -5871 4351 0
h -1184 4353 5871 0
h 1184 -4353 0
h 1184 -5871 0
h 5872 -4339 -4357 0
h -5872 4339 0
h -5872 4357 0
h -1182 4360 5872 0
h 1182 -4360 0
h 1182 -5872 0
h 5873 -4362 -4357 0
h -5873 4362 0
h -5873 4357 0
h -1185 4367 5873 0
h 1185 -4367 0
h 1185 -5873 0
h 5874 -4351 -4362 0
h -5874 4351 0
h -5874 4362 0
h -1183 4372 5874 0
h 1183 -4372 0
h 1183 -5874 0
h 5875 -4351 -4351 0
h -5875 4351 0
h -5875 4351 0
h -5876 4378 5875 0
h 5876 -4378 0
h 5876 -5875 0
h 5877 -1659 -1659 0
h -5877 1659 0
h -5877 1659 0
h -5878 1666 5877 0
h 5878 -1666 0
h 5878 -5877 0
h 5879 -1659 -1671 0
h -5879 1659 0
h -5879 1671 0
h -424 1673 5879 0
h 424 -1673 0
h 424 -5879 0
h 5880 -1659 -1677 0
h -5880 1659 0
h -5880 1677 0
h -422 1680 5880 0
h 422 -1680 0
h 422 -5880 0
h 5881 -1682 -1677 0
h -5881 1682 0
h -5881 1677 0
h -425 1687 5881 0
h 425 -1687 0
h 425 -5881 0
h 5882 -1671 -1682 0
h -5882 1671 0
h -5882 1682 0
h -423 1692 5882 0
h 423 -1692 0
h 423 -5882 0
h 5883 -1671 -1671 0
h -5883 1671 0
h -5883 1671 0
h -5884 1698 5883 0
h 5884 -1698 0
h 5884 -5883 0
h 5885 -3109 -3109 0
h -5885 3109 0
h -5885 3109 0
h -5886 3089 5885 0
h 5886 -3089 0
h 5886 -5885 0
h 5887 -3109 -3117 0
h -5887 3109 0
h -5887 3117 0
h -889 3093 5887 0
h 889 -3093 0
h 889 -5887 0
h 5888 -3109 -3112 0
h -5888 3109 0
h -5888 3112 0
h -887 3100 5888 0
h 887 -3100 0
h 887 -5888 0
h 5889 -3107 -3112 0
h -5889 3107 0
h -5889 3112 0
h -890 3102 5889 0
h 890 -3102 0
h 890 -5889 0
h 5890 -3117 -3107 0
h -5890 3117 0
h -5890 3107 0
h -888 3096 5890 0
h 888 -3096 0
h 888 -5890 0
h 5891 -3117 -3117 0
h -5891 3117 0
h -5891 3117 0
h -5892 3123 5891 0
h 5892 -3123 0
h 5892 -5891 0
h 5893 -3133 -3130 0
h -5893 3133 0
h -5893 3130 0
h 5894 -3130 -3130 0
h -5894 3130 0
h -5894 3130 0
h 5895 -3130 -3133 0
h -5895 3130 0
h -5895 3133 0
h 5896 -3133 -3133 -3141 0
h -5896 3133 0
h -5896 3133 0
h -5896 3141 0
h -5897 3127 5893 5894 5895 5896 0
h 5897 -3127 0
h 5897 -5893 0
h 5897 -5894 0
h 5897 -5895 0
h 5897 -5896 0
h 5898 -3133 -3515 0
h -5898 3133 0
h -5898 3515 0
h 5899 -3130 -3515 0
h -5899 3130 0
h -5899 3515 0
h 5900 -3130 -3517 0
h -5900 3130 0
h -5900 3517 0
h 5901 -3133 -3517 -3141 0
h -5901 3133 0
h -5901 3517 0
h -5901 3141 0
h -404 5061 5898 5899 5900 5901 0
h 404 -5061 0
h 404 -5898 0
h 404 -5899 0
h 404 -5900 0
h 404 -5901 0
h 5902 -3133 -3129 0
h -5902 3133 0
h -5902 3129 0
h 5903 -3130 -3132 0
h -5903 3130 0
h -5903 3132 0
h 5904 -3130 -3129 0
h -5904 3130 0
h -5904 3129 0
h 5905 -3133 -3132 -3141 0
h -5905 3133 0
h -5905 3132 0
h -5905 3141 0
h -402 3125 5902 5903 5904 5905 0
h 402 -3125 0
h 402 -5902 0
h 402 -5903 0
h 402 -5904 0
h 402 -5905 0
h 5906 -3136 -3129 0
h -5906 3136 0
h -5906 3129 0
h 5907 -3138 -3129 0
h -5907 3138 0
h -5907 3129 0
h 5908 -3138 -3132 0
h -5908 3138 0
h -5908 3132 0
h 5909 -3136 -3132 -3141 0
h -5909 3136 0
h -5909 3132 0
h -5909 3141 0
h -405 3135 5906 5907 5908 5909 0
h 405 -3135 0
h 405 -5906 0
h 405 -5907 0
h 405 -5908 0
h 405 -5909 0
h 5910 -3517 -3138 0
h -5910 3517 0
h -5910 3138 0
h 5911 -3515 -3136 0
h -5911 3515 0
h -5911 3136 0
h 5912 -3515 -3138 0
h -5912 3515 0
h -5912 3138 0
h 5913 -3517 -3136 -3141 0
h -5913 3517 0
h -5913 3136 0
h -5913 3141 0
h -403 3511 5910 5911 5912 5913 0
h 403 -3511 0
h 403 -5910 0
h 403 -5911 0
h 403 -5912 0
h 403 -5913 0
h 5914 -3517 -3515 0
h -5914 3517 0
h -5914 3515 0
h 5711 -3515 -3515 0
h -5711 3515 0
h -5711 3515 0
h 5915 -3515 -3517 0
h -5915 3515 0
h -5915 3517 0
h 5916 -3517 -3517 -3141 0
h -5916 3517 0
h -5916 3517 0
h -5916 3141 0
h -5917 3513 5914 5711 5915 5916 0
h 5917 -3513 0
h 5917 -5914 0
h 5917 -5711 0
h 5917 -5915 0
h 5917 -5916 0
h 5918 -2214 -2214 0
h -5918 2214 0
h -5918 2214 0
h -5919 2220 5918 0
h 5919 -2220 0
h 5919 -5918 0
h 5920 -2214 -1869 0
h -5920 2214 0
h -5920 1869 0
h -444 2225 5920 0
h 444 -2225 0
h 444 -5920 0
h 5921 -2214 -1867 0
h -5921 2214 0
h -5921 1867 0
h -442 2230 5921 0
h 442 -2230 0
h 442 -5921 0
h 5922 -1866 -1867 0
h -5922 1866 0
h -5922 1867 0
h -445 1863 5922 0
h 445 -1863 0
h 445 -5922 0
h 5923 -1869 -1866 0
h -5923 1869 0
h -5923 1866 0
h -443 1860 5923 0
h 443 -1860 0
h 443 -5923 0
h 5924 -1869 -1869 0
h -5924 1869 0
h -5924 1869 0
h -5925 1872 5924 0
h 5925 -1872 0
h 5925 -5924 0
h 5926 -5353 -5353 0
h -5926 5353 0
h -5926 5353 0
h -5927 5359 5926 0
h 5927 -5359 0
h 5927 -5926 0
h 5928 -5353 -1613 0
h -5928 5353 0
h -5928 1613 0
h -959 5364 5928 0
h 959 -5364 0
h 959 -5928 0
h 5929 -5353 -1611 0
h -5929 5353 0
h -5929 1611 0
h -957 5369 5929 0
h 957 -5369 0
h 957 -5929 0
h 5930 -1610 -1611 0
h -5930 1610 0
h -5930 1611 0
h -960 1607 5930 0
h 960 -1607 0
h 960 -5930 0
h 5931 -1613 -1610 0
h -5931 1613 0
h -5931 1610 0
h -958 1604 5931 0
h 958 -1604 0
h 958 -5931 0
h 5932 -1613 -1613 0
h -5932 1613 0
h -5932 1613 0
h -5933 1616 5932 0
h 5933 -1616 0
h 5933 -5932 0
h 5934 -4034 -4278 0
h -5934 4034 0
h -5934 4278 0
h 4279 -4278 -4278 0
h -4279 4278 0
h -4279 4278 0
h 5935 -4278 -4034 0
h -5935 4278 0
h -5935 4034 0
h 5936 -4034 -4034 -4283 0
h -5936 4034 0
h -5936 4034 0
h -5936 4283 0
h -5937 4036 5934 4279 5935 5936 0
h 5937 -4036 0
h 5937 -5934 0
h 5937 -4279 0
h 5937 -5935 0
h 5937 -5936 0
h 5938 -4034 -4288 0
h -5938 4034 0
h -5938 4288 0
h 5939 -4278 -4288 0
h -5939 4278 0
h -5939 4288 0
h 5940 -4278 -4038 0
h -5940 4278 0
h -5940 4038 0
h 5941 -4034 -4038 -4283 0
h -5941 4034 0
h -5941 4038 0
h -5941 4283 0
h -34 4039 5938 5939 5940 5941 0
h 34 -4039 0
h 34 -5938 0
h 34 -5939 0
h 34 -5940 0
h 34 -5941 0
h 5942 -4034 -4293 0
h -5942 4034 0
h -5942 4293 0
h 5943 -4278 -4041 0
h -5943 4278 0
h -5943 4041 0
h 5944 -4278 -4293 0
h -5944 4278 0
h -5944 4293 0
h 5945 -4034 -4041 -4283 0
h -5945 4034 0
h -5945 4041 0
h -5945 4283 0
h -32 4042 5942 5943 5944 5945 0
h 32 -4042 0
h 32 -5942 0
h 32 -5943 0
h 32 -5944 0
h 32 -5945 0
h 5946 -4044 -4293 0
h -5946 4044 0
h -5946 4293 0
h 5947 -4277 -4293 0
h -5947 4277 0
h -5947 4293 0
h 5948 -4277 -4041 0
h -5948 4277 0
h -5948 4041 0
h 5949 -4044 -4041 -4283 0
h -5949 4044 0
h -5949 4041 0
h -5949 4283 0
h -35 4045 5946 5947 5948 5949 0
h 35 -4045 0
h 35 -5946 0
h 35 -5947 0
h 35 -5948 0
h 35 -5949 0
h 5950 -4038 -4277 0
h -5950 4038 0
h -5950 4277 0
h 5951 -4288 -4044 0
h -5951 4288 0
h -5951 4044 0
h 5952 -4288 -4277 0
h -5952 4288 0
h -5952 4277 0
h 5953 -4038 -4044 -4283 0
h -5953 4038 0
h -5953 4044 0
h -5953 4283 0
h -33 4047 5950 5951 5952 5953 0
h 33 -4047 0
h 33 -5950 0
h 33 -5951 0
h 33 -5952 0
h 33 -5953 0
h 5954 -4038 -4288 0
h -5954 4038 0
h -5954 4288 0
h 5955 -4288 -4288 0
h -5955 4288 0
h -5955 4288 0
h 5956 -4288 -4038 0
h -5956 4288 0
h -5956 4038 0
h 5957 -4038 -4038 -4283 0
h -5957 4038 0
h -5957 4038 0
h -5957 4283 0
h -5958 4050 5954 5955 5956 5957 0
h 5958 -4050 0
h 5958 -5954 0
h 5958 -5955 0
h 5958 -5956 0
h 5958 -5957 0
h 5959 -3084 -3084 0
h -5959 3084 0
h -5959 3084 0
h -5960 3091 5959 0
h 5960 -3091 0
h 5960 -5959 0
h 5961 -3084 -3096 0
h -5961 3084 0
h -5961 3096 0
h -969 3098 5961 0
h 969 -3098 0
h 969 -5961 0
h 5962 -3084 -3102 0
h -5962 3084 0
h -5962 3102 0
h -967 3105 5962 0
h 967 -3105 0
h 967 -5962 0
h 5963 -3107 -3102 0
h -5963 3107 0
h -5963 3102 0
h -970 3112 5963 0
h 970 -3112 0
h 970 -5963 0
h 5964 -3096 -3107 0
h -5964 3096 0
h -5964 3107 0
h -968 3117 5964 0
h 968 -3117 0
h 968 -5964 0
h 5965 -3096 -3096 0
h -5965 3096 0
h -5965 3096 0
h -5966 3123 5965 0
h 5966 -3123 0
h 5966 -5965 0
h 5967 -4052 -5968 0
h -5967 4052 0
h -5967 5968 0
h 5969 -5968 -5968 0
h -5969 5968 0
h -5969 5968 0
h 5970 -5968 -4052 0
h -5970 5968 0
h -5970 4052 0
h 5971 -4052 -4052 -5972 0
h -5971 4052 0
h -5971 4052 0
h -5971 5972 0
h -5973 4054 5967 5969 5970 5971 0
h 5973 -4054 0
h 5973 -5967 0
h 5973 -5969 0
h 5973 -5970 0
h 5973 -5971 0
h 5974 -4052 -5975 0
h -5974 4052 0
h -5974 5975 0
h 5976 -5968 -5975 0
h -5976 5968 0
h -5976 5975 0
h 5977 -5968 -4056 0
h -5977 5968 0
h -5977 4056 0
h 5978 -4052 -4056 -5972 0
h -5978 4052 0
h -5978 4056 0
h -5978 5972 0
h -779 4057 5974 5976 5977 5978 0
h 779 -4057 0
h 779 -5974 0
h 779 -5976 0
h 779 -5977 0
h 779 -5978 0
h 5979 -4052 -5980 0
h -5979 4052 0
h -5979 5980 0
h 5981 -5968 -4059 0
h -5981 5968 0
h -5981 4059 0
h 5982 -5968 -5980 0
h -5982 5968 0
h -5982 5980 0
h 5983 -4052 -4059 -5972 0
h -5983 4052 0
h -5983 4059 0
h -5983 5972 0
h -777 4060 5979 5981 5982 5983 0
h 777 -4060 0
h 777 -5979 0
h 777 -5981 0
h 777 -5982 0
h 777 -5983 0
h 5984 -4062 -5980 0
h -5984 4062 0
h -5984 5980 0
h 5985 -5986 -5980 0
h -5985 5986 0
h -5985 5980 0
h 5987 -5986 -4059 0
h -5987 5986 0
h -5987 4059 0
h 5988 -4062 -4059 -5972 0
h -5988 4062 0
h -5988 4059 0
h -5988 5972 0
h -780 4063 5984 5985 5987 5988 0
h 780 -4063 0
h 780 -5984 0
h 780 -5985 0
h 780 -5987 0
h 780 -5988 0
h 5989 -4056 -5986 0
h -5989 4056 0
h -5989 5986 0
h 5990 -5975 -4062 0
h -5990 5975 0
h -5990 4062 0
h 5991 -5975 -5986 0
h -5991 5975 0
h -5991 5986 0
h 5992 -4056 -4062 -5972 0
h -5992 4056 0
h -5992 4062 0
h -5992 5972 0
h -778 4065 5989 5990 5991 5992 0
h 778 -4065 0
h 778 -5989 0
h 778 -5990 0
h 778 -5991 0
h 778 -5992 0
h 5993 -4056 -5975 0
h -5993 4056 0
h -5993 5975 0
h 5994 -5975 -5975 0
h -5994 5975 0
h -5994 5975 0
h 5995 -5975 -4056 0
h -5995 5975 0
h -5995 4056 0
h 5996 -4056 -4056 -5972 0
h -5996 4056 0
h -5996 4056 0
h -5996 5972 0
h -5997 4068 5993 5994 5995 5996 0
h 5997 -4068 0
h 5997 -5993 0
h 5997 -5994 0
h 5997 -5995 0
h 5997 -5996 0
h 5998 -1600 -5354 0
h -5998 1600 0
h -5998 5354 0
h 5355 -5354 -5354 0
h -5355 5354 0
h -5355 5354 0
h 5999 -5354 -1600 0
h -5999 5354 0
h -5999 1600 0
h 6000 -1600 -1600 -5359 0
h -6000 1600 0
h -6000 1600 0
h -6000 5359 0
h -6001 1602 5998 5355 5999 6000 0
h 6001 -1602 0
h 6001 -5998 0
h 6001 -5355 0
h 6001 -5999 0
h 6001 -6000 0
h 6002 -1600 -5364 0
h -6002 1600 0
h -6002 5364 0
h 6003 -5354 -5364 0
h -6003 5354 0
h -6003 5364 0
h 6004 -5354 -1604 0
h -6004 5354 0
h -6004 1604 0
h 6005 -1600 -1604 -5359 0
h -6005 1600 0
h -6005 1604 0
h -6005 5359 0
h -464 1605 6002 6003 6004 6005 0
h 464 -1605 0
h 464 -6002 0
h 464 -6003 0
h 464 -6004 0
h 464 -6005 0
h 6006 -1600 -5369 0
h -6006 1600 0
h -6006 5369 0
h 6007 -5354 -1607 0
h -6007 5354 0
h -6007 1607 0
h 6008 -5354 -5369 0
h -6008 5354 0
h -6008 5369 0
h 6009 -1600 -1607 -5359 0
h -6009 1600 0
h -6009 1607 0
h -6009 5359 0
h -462 1608 6006 6007 6008 6009 0
h 462 -1608 0
h 462 -6006 0
h 462 -6007 0
h 462 -6008 0
h 462 -6009 0
h 6010 -1610 -5369 0
h -6010 1610 0
h -6010 5369 0
h 6011 -5353 -5369 0
h -6011 5353 0
h -6011 5369 0
h 6012 -5353 -1607 0
h -6012 5353 0
h -6012 1607 0
h 6013 -1610 -1607 -5359 0
h -6013 1610 0
h -6013 1607 0
h -6013 5359 0
h -465 1611 6010 6011 6012 6013 0
h 465 -1611 0
h 465 -6010 0
h 465 -6011 0
h 465 -6012 0
h 465 -6013 0
h 6014 -1604 -5353 0
h -6014 1604 0
h -6014 5353 0
h 6015 -5364 -1610 0
h -6015 5364 0
h -6015 1610 0
h 6016 -5364 -5353 0
h -6016 5364 0
h -6016 5353 0
h 6017 -1604 -1610 -5359 0
h -6017 1604 0
h -6017 1610 0
h -6017 5359 0
h -463 1613 6014 6015 6016 6017 0
h 463 -1613 0
h 463 -6014 0
h 463 -6015 0
h 463 -6016 0
h 463 -6017 0
h 6018 -1604 -5364 0
h -6018 1604 0
h -6018 5364 0
h 6019 -5364 -5364 0
h -6019 5364 0
h -6019 5364 0
h 6020 -5364 -1604 0
h -6020 5364 0
h -6020 1604 0
h 6021 -1604 -1604 -5359 0
h -6021 1604 0
h -6021 1604 0
h -6021 5359 0
h -6022 1616 6018 6019 6020 6021 0
h 6022 -1616 0
h 6022 -6018 0
h 6022 -6019 0
h 6022 -6020 0
h 6022 -6021 0
h 6023 -6024 -6025 0
h -6023 6024 0
h -6023 6025 0
h 6026 -6025 -6025 0
h -6026 6025 0
h -6026 6025 0
h 6027 -6025 -6024 0
h -6027 6025 0
h -6027 6024 0
h 6028 -6024 -6024 -6029 0
h -6028 6024 0
h -6028 6024 0
h -6028 6029 0
h -6030 6031 6023 6026 6027 6028 0
h 6030 -6031 0
h 6030 -6023 0
h 6030 -6026 0
h 6030 -6027 0
h 6030 -6028 0
h 6032 -6024 -6033 0
h -6032 6024 0
h -6032 6033 0
h 6034 -6025 -6033 0
h -6034 6025 0
h -6034 6033 0
h 6035 -6025 -6036 0
h -6035 6025 0
h -6035 6036 0
h 6037 -6024 -6036 -6029 0
h -6037 6024 0
h -6037 6036 0
h -6037 6029 0
h -304 6038 6032 6034 6035 6037 0
h 304 -6038 0
h 304 -6032 0
h 304 -6034 0
h 304 -6035 0
h 304 -6037 0
h 6039 -6024 -6040 0
h -6039 6024 0
h -6039 6040 0
h 6041 -6025 -6042 0
h -6041 6025 0
h -6041 6042 0
h 6043 -6025 -6040 0
h -6043 6025 0
h -6043 6040 0
h 6044 -6024 -6042 -6029 0
h -6044 6024 0
h -6044 6042 0
h -6044 6029 0
h -302 6045 6039 6041 6043 6044 0
h 302 -6045 0
h 302 -6039 0
h 302 -6041 0
h 302 -6043 0
h 302 -6044 0
h 6046 -6047 -6040 0
h -6046 6047 0
h -6046 6040 0
h 6048 -6049 -6040 0
h -6048 6049 0
h -6048 6040 0
h 6050 -6049 -6042 0
h -6050 6049 0
h -6050 6042 0
h 6051 -6047 -6042 -6029 0
h -6051 6047 0
h -6051 6042 0
h -6051 6029 0
h -305 6052 6046 6048 6050 6051 0
h 305 -6052 0
h 305 -6046 0
h 305 -6048 0
h 305 -6050 0
h 305 -6051 0
h 6053 -6036 -6049 0
h -6053 6036 0
h -6053 6049 0
h 6054 -6033 -6047 0
h -6054 6033 0
h -6054 6047 0
h 6055 -6033 -6049 0
h -6055 6033 0
h -6055 6049 0
h 6056 -6036 -6047 -6029 0
h -6056 6036 0
h -6056 6047 0
h -6056 6029 0
h -303 6057 6053 6054 6055 6056 0
h 303 -6057 0
h 303 -6053 0
h 303 -6054 0
h 303 -6055 0
h 303 -6056 0
h 6058 -6036 -6033 0
h -6058 6036 0
h -6058 6033 0
h 6059 -6033 -6033 0
h -6059 6033 0
h -6059 6033 0
h 6060 -6033 -6036 0
h -6060 6033 0
h -6060 6036 0
h 6061 -6036 -6036 -6029 0
h -6061 6036 0
h -6061 6036 0
h -6061 6029 0
h -6062 6063 6058 6059 6060 6061 0
h 6062 -6063 0
h 6062 -6058 0
h 6062 -6059 0
h 6062 -6060 0
h 6062 -6061 0
h 6064 -2319 -2295 0
h -6064 2319 0
h -6064 2295 0
h 2296 -2295 -2295 0
h -2296 2295 0
h -2296 2295 0
h 6065 -2295 -2319 0
h -6065 2295 0
h -6065 2319 0
h 6066 -2319 -2319 -2301 0
h -6066 2319 0
h -6066 2319 0
h -6066 2301 0
h -6067 2299 6064 2296 6065 6066 0
h 6067 -2299 0
h 6067 -6064 0
h 6067 -2296 0
h 6067 -6065 0
h 6067 -6066 0
h 6068 -2319 -2308 0
h -6068 2319 0
h -6068 2308 0
h 6069 -2295 -2308 0
h -6069 2295 0
h -6069 2308 0
h 6070 -2295 -2327 0
h -6070 2295 0
h -6070 2327 0
h 6071 -2319 -2327 -2301 0
h -6071 2319 0
h -6071 2327 0
h -6071 2301 0
h -629 2303 6068 6069 6070 6071 0
h 629 -2303 0
h 629 -6068 0
h 629 -6069 0
h 629 -6070 0
h 629 -6071 0
h 6072 -2319 -2315 0
h -6072 2319 0
h -6072 2315 0
h 6073 -2295 -2322 0
h -6073 2295 0
h -6073 2322 0
h 6074 -2295 -2315 0
h -6074 2295 0
h -6074 2315 0
h 6075 -2319 -2322 -2301 0
h -6075 2319 0
h -6075 2322 0
h -6075 2301 0
h -627 2310 6072 6073 6074 6075 0
h 627 -2310 0
h 627 -6072 0
h 627 -6073 0
h 627 -6074 0
h 627 -6075 0
h 6076 -2317 -2315 0
h -6076 2317 0
h -6076 2315 0
h 6077 -2294 -2315 0
h -6077 2294 0
h -6077 2315 0
h 6078 -2294 -2322 0
h -6078 2294 0
h -6078 2322 0
h 6079 -2317 -2322 -2301 0
h -6079 2317 0
h -6079 2322 0
h -6079 2301 0
h -630 2312 6076 6077 6078 6079 0
h 630 -2312 0
h 630 -6076 0
h 630 -6077 0
h 630 -6078 0
h 630 -6079 0
h 6080 -2327 -2294 0
h -6080 2327 0
h -6080 2294 0
h 6081 -2308 -2317 0
h -6081 2308 0
h -6081 2317 0
h 6082 -2308 -2294 0
h -6082 2308 0
h -6082 2294 0
h 6083 -2327 -2317 -2301 0
h -6083 2327 0
h -6083 2317 0
h -6083 2301 0
h -628 2306 6080 6081 6082 6083 0
h 628 -2306 0
h 628 -6080 0
h 628 -6081 0
h 628 -6082 0
h 628 -6083 0
h 6084 -2327 -2308 0
h -6084 2327 0
h -6084 2308 0
h 6085 -2308 -2308 0
h -6085 2308 0
h -6085 2308 0
h 6086 -2308 -2327 0
h -6086 2308 0
h -6086 2327 0
h 6087 -2327 -2327 -2301 0
h -6087 2327 0
h -6087 2327 0
h -6087 2301 0
h -6088 2333 6084 6085 6086 6087 0
h 6088 -2333 0
h 6088 -6084 0
h 6088 -6085 0
h 6088 -6086 0
h 6088 -6087 0
h 6089 -1815 -1815 0
h -6089 1815 0
h -6089 1815 0
h -6090 1822 6089 0
h 6090 -1822 0
h 6090 -6089 0
h 6091 -1815 -1827 0
h -6091 1815 0
h -6091 1827 0
h -1119 1829 6091 0
h 1119 -1829 0
h 1119 -6091 0
h 6092 -1815 -1833 0
h -6092 1815 0
h -6092 1833 0
h -1117 1836 6092 0
h 1117 -1836 0
h 1117 -6092 0
h 6093 -1838 -1833 0
h -6093 1838 0
h -6093 1833 0
h -1120 1843 6093 0
h 1120 -1843 0
h 1120 -6093 0
h 6094 -1827 -1838 0
h -6094 1827 0
h -6094 1838 0
h -1118 1848 6094 0
h 1118 -1848 0
h 1118 -6094 0
h 6095 -1827 -1827 0
h -6095 1827 0
h -6095 1827 0
h -6096 1854 6095 0
h 6096 -1854 0
h 6096 -6095 0
h 6097 -3821 -3821 0
h -6097 3821 0
h -6097 3821 0
h -6098 3801 6097 0
h 6098 -3801 0
h 6098 -6097 0
h 6099 -3821 -3829 0
h -6099 3821 0
h -6099 3829 0
h -874 3805 6099 0
h 874 -3805 0
h 874 -6099 0
h 6100 -3821 -3824 0
h -6100 3821 0
h -6100 3824 0
h -872 3812 6100 0
h 872 -3812 0
h 872 -6100 0
h 6101 -3819 -3824 0
h -6101 3819 0
h -6101 3824 0
h -875 3814 6101 0
h 875 -3814 0
h 875 -6101 0
h 6102 -3829 -3819 0
h -6102 3829 0
h -6102 3819 0
h -873 3808 6102 0
h 873 -3808 0
h 873 -6102 0
h 6103 -3829 -3829 0
h -6103 3829 0
h -6103 3829 0
h -6104 3835 6103 0
h 6104 -3835 0
h 6104 -6103 0
h 6105 -2899 -2899 0
h -6105 2899 0
h -6105 2899 0
h -6106 2906 6105 0
h 6106 -2906 0
h 6106 -6105 0
h 6107 -2899 -2911 0
h -6107 2899 0
h -6107 2911 0
h -804 2913 6107 0
h 804 -2913 0
h 804 -6107 0
h 6108 -2899 -2917 0
h -6108 2899 0
h -6108 2917 0
h -802 2920 6108 0
h 802 -2920 0
h 802 -6108 0
h 6109 -2922 -2917 0
h -6109 2922 0
h -6109 2917 0
h -805 2927 6109 0
h 805 -2927 0
h 805 -6109 0
h 6110 -2911 -2922 0
h -6110 2911 0
h -6110 2922 0
h -803 2932 6110 0
h 803 -2932 0
h 803 -6110 0
h 6111 -2911 -2911 0
h -6111 2911 0
h -6111 2911 0
h -6112 2938 6111 0
h 6112 -2938 0
h 6112 -6111 0
h 6113 -2940 -2940 0
h -6113 2940 0
h -6113 2940 0
h -6114 2947 6113 0
h 6114 -2947 0
h 6114 -6113 0
h 6115 -2940 -2952 0
h -6115 2940 0
h -6115 2952 0
h -454 2954 6115 0
h 454 -2954 0
h 454 -6115 0
h 6116 -2940 -2958 0
h -6116 2940 0
h -6116 2958 0
h -452 2961 6116 0
h 452 -2961 0
h 452 -6116 0
h 6117 -2963 -2958 0
h -6117 2963 0
h -6117 2958 0
h -455 2968 6117 0
h 455 -2968 0
h 455 -6117 0
h 6118 -2952 -2963 0
h -6118 2952 0
h -6118 2963 0
h -453 2973 6118 0
h 453 -2973 0
h 453 -6118 0
h 6119 -2952 -2952 0
h -6119 2952 0
h -6119 2952 0
h -6120 2979 6119 0
h 6120 -2979 0
h 6120 -6119 0
h 6121 -5304 -5304 0
h -6121 5304 0
h -6121 5304 0
h -6122 5311 6121 0
h 6122 -5311 0
h 6122 -6121 0
h 6123 -5304 -5316 0
h -6123 5304 0
h -6123 5316 0
h -1069 5318 6123 0
h 1069 -5318 0
h 1069 -6123 0
h 6124 -5304 -5322 0
h -6124 5304 0
h -6124 5322 0
h -1067 5325 6124 0
h 1067 -5325 0
h 1067 -6124 0
h 6125 -5327 -5322 0
h -6125 5327 0
h -6125 5322 0
h -1070 5332 6125 0
h 1070 -5332 0
h 1070 -6125 0
h 6126 -5316 -5327 0
h -6126 5316 0
h -6126 5327 0
h -1068 5337 6126 0
h 1068 -5337 0
h 1068 -6126 0
h 6127 -5316 -5316 0
h -6127 5316 0
h -6127 5316 0
h -6128 5343 6127 0
h 6128 -5343 0
h 6128 -6127 0
h 6129 -5150 -5150 0
h -6129 5150 0
h -6129 5150 0
h -6130 5157 6129 0
h 6130 -5157 0
h 6130 -6129 0
h 6131 -5150 -5162 0
h -6131 5150 0
h -6131 5162 0
h -714 5164 6131 0
h 714 -5164 0
h 714 -6131 0
h 6132 -5150 -5168 0
h -6132 5150 0
h -6132 5168 0
h -712 5171 6132 0
h 712 -5171 0
h 712 -6132 0
h 6133 -5173 -5168 0
h -6133 5173 0
h -6133 5168 0
h -715 5178 6133 0
h 715 -5178 0
h 715 -6133 0
h 6134 -5162 -5173 0
h -6134 5162 0
h -6134 5173 0
h -713 5183 6134 0
h 713 -5183 0
h 713 -6134 0
h 6135 -5162 -5162 0
h -6135 5162 0
h -6135 5162 0
h -6136 5189 6135 0
h 6136 -5189 0
h 6136 -6135 0
h 6137 -3016 -6138 0
h -6137 3016 0
h -6137 6138 0
h 6139 -6138 -6138 0
h -6139 6138 0
h -6139 6138 0
h 6140 -6138 -3016 0
h -6140 6138 0
h -6140 3016 0
h 6141 -3016 -3016 -6142 0
h -6141 3016 0
h -6141 3016 0
h -6141 6142 0
h -6143 3018 6137 6139 6140 6141 0
h 6143 -3018 0
h 6143 -6137 0
h 6143 -6139 0
h 6143 -6140 0
h 6143 -6141 0
h 6144 -3016 -6145 0
h -6144 3016 0
h -6144 6145 0
h 6146 -6138 -6145 0
h -6146 6138 0
h -6146 6145 0
h 6147 -6138 -3020 0
h -6147 6138 0
h -6147 3020 0
h 6148 -3016 -3020 -6142 0
h -6148 3016 0
h -6148 3020 0
h -6148 6142 0
h -759 3021 6144 6146 6147 6148 0
h 759 -3021 0
h 759 -6144 0
h 759 -6146 0
h 759 -6147 0
h 759 -6148 0
h 6149 -3016 -6150 0
h -6149 3016 0
h -6149 6150 0
h 6151 -6138 -3023 0
h -6151 6138 0
h -6151 3023 0
h 6152 -6138 -6150 0
h -6152 6138 0
h -6152 6150 0
h 6153 -3016 -3023 -6142 0
h -6153 3016 0
h -6153 3023 0
h -6153 6142 0
h -757 3024 6149 6151 6152 6153 0
h 757 -3024 0
h 757 -6149 0
h 757 -6151 0
h 757 -6152 0
h 757 -6153 0
h 6154 -3026 -6150 0
h -6154 3026 0
h -6154 6150 0
h 6155 -6156 -6150 0
h -6155 6156 0
h -6155 6150 0
h 6157 -6156 -3023 0
h -6157 6156 0
h -6157 3023 0
h 6158 -3026 -3023 -6142 0
h -6158 3026 0
h -6158 3023 0
h -6158 6142 0
h -760 3027 6154 6155 6157 6158 0
h 760 -3027 0
h 760 -6154 0
h 760 -6155 0
h 760 -6157 0
h 760 -6158 0
h 6159 -3020 -6156 0
h -6159 3020 0
h -6159 6156 0
h 6160 -6145 -3026 0
h -6160 6145 0
h -6160 3026 0
h 6161 -6145 -6156 0
h -6161 6145 0
h -6161 6156 0
h 6162 -3020 -3026 -6142 0
h -6162 3020 0
h -6162 3026 0
h -6162 6142 0
h -758 3029 6159 6160 6161 6162 0
h 758 -3029 0
h 758 -6159 0
h 758 -6160 0
h 758 -6161 0
h 758 -6162 0
h 6163 -3020 -6145 0
h -6163 3020 0
h -6163 6145 0
h 6164 -6145 -6145 0
h -6164 6145 0
h -6164 6145 0
h 6165 -6145 -3020 0
h -6165 6145 0
h -6165 3020 0
h 6166 -3020 -3020 -6142 0
h -6166 3020 0
h -6166 3020 0
h -6166 6142 0
h -6167 3032 6163 6164 6165 6166 0
h 6167 -3032 0
h 6167 -6163 0
h 6167 -6164 0
h 6167 -6165 0
h 6167 -6166 0
h 6168 -2791 -2791 0
h -6168 2791 0
h -6168 2791 0
h -6169 2798 6168 0
h 6169 -2798 0
h 6169 -6168 0
h 6170 -2791 -2803 0
h -6170 2791 0
h -6170 2803 0
h -929 2805 6170 0
h 929 -2805 0
h 929 -6170 0
h 6171 -2791 -2809 0
h -6171 2791 0
h -6171 2809 0
h -927 2812 6171 0
h 927 -2812 0
h 927 -6171 0
h 6172 -2814 -2809 0
h -6172 2814 0
h -6172 2809 0
h -930 2819 6172 0
h 930 -2819 0
h 930 -6172 0
h 6173 -2803 -2814 0
h -6173 2803 0
h -6173 2814 0
h -928 2824 6173 0
h 928 -2824 0
h 928 -6173 0
h 6174 -2803 -2803 0
h -6174 2803 0
h -6174 2803 0
h -6175 2830 6174 0
h 6175 -2830 0
h 6175 -6174 0
h 6176 -2294 -2294 0
h -6176 2294 0
h -6176 2294 0
h -6177 2301 6176 0
h 6177 -2301 0
h 6177 -6176 0
h 6178 -2294 -2306 0
h -6178 2294 0
h -6178 2306 0
h -909 2308 6178 0
h 909 -2308 0
h 909 -6178 0
h 6179 -2294 -2312 0
h -6179 2294 0
h -6179 2312 0
h -907 2315 6179 0
h 907 -2315 0
h 907 -6179 0
h 6180 -2317 -2312 0
h -6180 2317 0
h -6180 2312 0
h -910 2322 6180 0
h 910 -2322 0
h 910 -6180 0
h 6181 -2306 -2317 0
h -6181 2306 0
h -6181 2317 0
h -908 2327 6181 0
h 908 -2327 0
h 908 -6181 0
h 6182 -2306 -2306 0
h -6182 2306 0
h -6182 2306 0
h -6183 2333 6182 0
h 6183 -2333 0
h 6183 -6182 0
h 6184 -6024 -6024 0
h -6184 6024 0
h -6184 6024 0
h -6185 6031 6184 0
h 6185 -6031 0
h 6185 -6184 0
h 6186 -6024 -6036 0
h -6186 6024 0
h -6186 6036 0
h -709 6038 6186 0
h 709 -6038 0
h 709 -6186 0
h 6187 -6024 -6042 0
h -6187 6024 0
h -6187 6042 0
h -707 6045 6187 0
h 707 -6045 0
h 707 -6187 0
h 6188 -6047 -6042 0
h -6188 6047 0
h -6188 6042 0
h -710 6052 6188 0
h 710 -6052 0
h 710 -6188 0
h 6189 -6036 -6047 0
h -6189 6036 0
h -6189 6047 0
h -708 6057 6189 0
h 708 -6057 0
h 708 -6189 0
h 6190 -6036 -6036 0
h -6190 6036 0
h -6190 6036 0
h -6191 6063 6190 0
h 6191 -6063 0
h 6191 -6190 0
h 6192 -5740 -6193 0
h -6192 5740 0
h -6192 6193 0
h 6194 -6193 -6193 0
h -6194 6193 0
h -6194 6193 0
h 6195 -6193 -5740 0
h -6195 6193 0
h -6195 5740 0
h 6196 -5740 -5740 -6197 0
h -6196 5740 0
h -6196 5740 0
h -6196 6197 0
h -6198 5742 6192 6194 6195 6196 0
h 6198 -5742 0
h 6198 -6192 0
h 6198 -6194 0
h 6198 -6195 0
h 6198 -6196 0
h 6199 -5740 -6200 0
h -6199 5740 0
h -6199 6200 0
h 6201 -6193 -6200 0
h -6201 6193 0
h -6201 6200 0
h 6202 -6193 -5744 0
h -6202 6193 0
h -6202 5744 0
h 6203 -5740 -5744 -6197 0
h -6203 5740 0
h -6203 5744 0
h -6203 6197 0
h -729 5745 6199 6201 6202 6203 0
h 729 -5745 0
h 729 -6199 0
h 729 -6201 0
h 729 -6202 0
h 729 -6203 0
h 6204 -5740 -6205 0
h -6204 5740 0
h -6204 6205 0
h 6206 -6193 -5747 0
h -6206 6193 0
h -6206 5747 0
h 6207 -6193 -6205 0
h -6207 6193 0
h -6207 6205 0
h 6208 -5740 -5747 -6197 0
h -6208 5740 0
h -6208 5747 0
h -6208 6197 0
h -727 5748 6204 6206 6207 6208 0
h 727 -5748 0
h 727 -6204 0
h 727 -6206 0
h 727 -6207 0
h 727 -6208 0
h 6209 -5750 -6205 0
h -6209 5750 0
h -6209 6205 0
h 6210 -6211 -6205 0
h -6210 6211 0
h -6210 6205 0
h 6212 -6211 -5747 0
h -6212 6211 0
h -6212 5747 0
h 6213 -5750 -5747 -6197 0
h -6213 5750 0
h -6213 5747 0
h -6213 6197 0
h -730 5751 6209 6210 6212 6213 0
h 730 -5751 0
h 730 -6209 0
h 730 -6210 0
h 730 -6212 0
h 730 -6213 0
h 6214 -5744 -6211 0
h -6214 5744 0
h -6214 6211 0
h 6215 -6200 -5750 0
h -6215 6200 0
h -6215 5750 0
h 6216 -6200 -6211 0
h -6216 6200 0
h -6216 6211 0
h 6217 -5744 -5750 -6197 0
h -6217 5744 0
h -6217 5750 0
h -6217 6197 0
h -728 5753 6214 6215 6216 6217 0
h 728 -5753 0
h 728 -6214 0
h 728 -6215 0
h 728 -6216 0
h 728 -6217 0
h 6218 -5744 -6200 0
h -6218 5744 0
h -6218 6200 0
h 6219 -6200 -6200 0
h -6219 6200 0
h -6219 6200 0
h 6220 -6200 -5744 0
h -6220 6200 0
h -6220 5744 0
h 6221 -5744 -5744 -6197 0
h -6221 5744 0
h -6221 5744 0
h -6221 6197 0
h -6222 5756 6218 6219 6220 6221 0
h 6222 -5756 0
h 6222 -6218 0
h 6222 -6219 0
h 6222 -6220 0
h 6222 -6221 0
h 6223 -4277 -4277 0
h -6223 4277 0
h -6223 4277 0
h -6224 4283 6223 0
h 6224 -4283 0
h 6224 -6223 0
h 6225 -4277 -4047 0
h -6225 4277 0
h -6225 4047 0
h -119 4288 6225 0
h 119 -4288 0
h 119 -6225 0
h 6226 -4277 -4045 0
h -6226 4277 0
h -6226 4045 0
h -117 4293 6226 0
h 117 -4293 0
h 117 -6226 0
h 6227 -4044 -4045 0
h -6227 4044 0
h -6227 4045 0
h -120 4041 6227 0
h 120 -4041 0
h 120 -6227 0
h 6228 -4047 -4044 0
h -6228 4047 0
h -6228 4044 0
h -118 4038 6228 0
h 118 -4038 0
h 118 -6228 0
h 6229 -4047 -4047 0
h -6229 4047 0
h -6229 4047 0
h -6230 4050 6229 0
h 6230 -4050 0
h 6230 -6229 0
h 6231 -1708 -1705 0
h -6231 1708 0
h -6231 1705 0
h 3506 -1705 -1705 0
h -3506 1705 0
h -3506 1705 0
h 6232 -1705 -1708 0
h -6232 1705 0
h -6232 1708 0
h 6233 -1708 -1708 -1716 0
h -6233 1708 0
h -6233 1708 0
h -6233 1716 0
h -6234 1702 6231 3506 6232 6233 0
h 6234 -1702 0
h 6234 -6231 0
h 6234 -3506 0
h 6234 -6232 0
h 6234 -6233 0
h 6235 -1708 -3491 0
h -6235 1708 0
h -6235 3491 0
h 6236 -1705 -3491 0
h -6236 1705 0
h -6236 3491 0
h 6237 -1705 -3496 0
h -6237 1705 0
h -6237 3496 0
h 6238 -1708 -3496 -1716 0
h -6238 1708 0
h -6238 3496 0
h -6238 1716 0
h -84 3481 6235 6236 6237 6238 0
h 84 -3481 0
h 84 -6235 0
h 84 -6236 0
h 84 -6237 0
h 84 -6238 0
h 6239 -1708 -1704 0
h -6239 1708 0
h -6239 1704 0
h 6240 -1705 -1707 0
h -6240 1705 0
h -6240 1707 0
h 6241 -1705 -1704 0
h -6241 1705 0
h -6241 1704 0
h 6242 -1708 -1707 -1716 0
h -6242 1708 0
h -6242 1707 0
h -6242 1716 0
h -82 1700 6239 6240 6241 6242 0
h 82 -1700 0
h 82 -6239 0
h 82 -6240 0
h 82 -6241 0
h 82 -6242 0
h 6243 -1711 -1704 0
h -6243 1711 0
h -6243 1704 0
h 6244 -1713 -1704 0
h -6244 1713 0
h -6244 1704 0
h 6245 -1713 -1707 0
h -6245 1713 0
h -6245 1707 0
h 6246 -1711 -1707 -1716 0
h -6246 1711 0
h -6246 1707 0
h -6246 1716 0
h -85 1710 6243 6244 6245 6246 0
h 85 -1710 0
h 85 -6243 0
h 85 -6244 0
h 85 -6245 0
h 85 -6246 0
h 6247 -3496 -1713 0
h -6247 3496 0
h -6247 1713 0
h 6248 -3491 -1711 0
h -6248 3491 0
h -6248 1711 0
h 6249 -3491 -1713 0
h -6249 3491 0
h -6249 1713 0
h 6250 -3496 -1711 -1716 0
h -6250 3496 0
h -6250 1711 0
h -6250 1716 0
h -83 3480 6247 6248 6249 6250 0
h 83 -3480 0
h 83 -6247 0
h 83 -6248 0
h 83 -6249 0
h 83 -6250 0
h 6251 -3496 -3491 0
h -6251 3496 0
h -6251 3491 0
h 4635 -3491 -3491 0
h -4635 3491 0
h -4635 3491 0
h 6252 -3491 -3496 0
h -6252 3491 0
h -6252 3496 0
h 6253 -3496 -3496 -1716 0
h -6253 3496 0
h -6253 3496 0
h -6253 1716 0
h -6254 3486 6251 4635 6252 6253 0
h 6254 -3486 0
h 6254 -6251 0
h 6254 -4635 0
h 6254 -6252 0
h 6254 -6253 0
h 6255 -3796 -3796 0
h -6255 3796 0
h -6255 3796 0
h -6256 3803 6255 0
h 6256 -3803 0
h 6256 -6255 0
h 6257 -3796 -3808 0
h -6257 3796 0
h -6257 3808 0
h -954 3810 6257 0
h 954 -3810 0
h 954 -6257 0
h 6258 -3796 -3814 0
h -6258 3796 0
h -6258 3814 0
h -952 3817 6258 0
h 952 -3817 0
h 952 -6258 0
h 6259 -3819 -3814 0
h -6259 3819 0
h -6259 3814 0
h -955 3824 6259 0
h 955 -3824 0
h 955 -6259 0
h 6260 -3808 -3819 0
h -6260 3808 0
h -6260 3819 0
h -953 3829 6260 0
h 953 -3829 0
h 953 -6260 0
h 6261 -3808 -3808 0
h -6261 3808 0
h -6261 3808 0
h -6262 3835 6261 0
h 6262 -3835 0
h 6262 -6261 0
h 6263 -3511 -5061 0
h -6263 3511 0
h -6263 5061 0
h 5690 -5061 -5061 0
h -5690 5061 0
h -5690 5061 0
h 6264 -5061 -3511 0
h -6264 5061 0
h -6264 3511 0
h 6265 -3511 -3511 -3127 0
h -6265 3511 0
h -6265 3511 0
h -6265 3127 0
h -6266 3513 6263 5690 6264 6265 0
h 6266 -3513 0
h 6266 -6263 0
h 6266 -5690 0
h 6266 -6264 0
h 6266 -6265 0
h 6267 -3511 -3130 0
h -6267 3511 0
h -6267 3130 0
h 6268 -5061 -3130 0
h -6268 5061 0
h -6268 3130 0
h 6269 -5061 -3138 0
h -6269 5061 0
h -6269 3138 0
h 6270 -3511 -3138 -3127 0
h -6270 3511 0
h -6270 3138 0
h -6270 3127 0
h -554 3515 6267 6268 6269 6270 0
h 554 -3515 0
h 554 -6267 0
h 554 -6268 0
h 554 -6269 0
h 554 -6270 0
h 6271 -3511 -3133 0
h -6271 3511 0
h -6271 3133 0
h 6272 -5061 -3136 0
h -6272 5061 0
h -6272 3136 0
h 6273 -5061 -3133 0
h -6273 5061 0
h -6273 3133 0
h 6274 -3511 -3136 -3127 0
h -6274 3511 0
h -6274 3136 0
h -6274 3127 0
h -552 3517 6271 6272 6273 6274 0
h 552 -3517 0
h 552 -6271 0
h 552 -6272 0
h 552 -6273 0
h 552 -6274 0
h 6275 -3135 -3133 0
h -6275 3135 0
h -6275 3133 0
h 6276 -3125 -3133 0
h -6276 3125 0
h -6276 3133 0
h 6277 -3125 -3136 0
h -6277 3125 0
h -6277 3136 0
h 6278 -3135 -3136 -3127 0
h -6278 3135 0
h -6278 3136 0
h -6278 3127 0
h -555 3132 6275 6276 6277 6278 0
h 555 -3132 0
h 555 -6275 0
h 555 -6276 0
h 555 -6277 0
h 555 -6278 0
h 6279 -3138 -3125 0
h -6279 3138 0
h -6279 3125 0
h 6280 -3130 -3135 0
h -6280 3130 0
h -6280 3135 0
h 6281 -3130 -3125 0
h -6281 3130 0
h -6281 3125 0
h 6282 -3138 -3135 -3127 0
h -6282 3138 0
h -6282 3135 0
h -6282 3127 0
h -553 3129 6279 6280 6281 6282 0
h 553 -3129 0
h 553 -6279 0
h 553 -6280 0
h 553 -6281 0
h 553 -6282 0
h 6283 -3138 -3130 0
h -6283 3138 0
h -6283 3130 0
h 5894 -3130 -3130 0
h -5894 3130 0
h -5894 3130 0
h 6284 -3130 -3138 0
h -6284 3130 0
h -6284 3138 0
h 6285 -3138 -3138 -3127 0
h -6285 3138 0
h -6285 3138 0
h -6285 3127 0
h -6286 3141 6283 5894 6284 6285 0
h 6286 -3141 0
h 6286 -6283 0
h 6286 -5894 0
h 6286 -6284 0
h 6286 -6285 0
h 6287 -4648 -4648 0
h -6287 4648 0
h -6287 4648 0
h -6288 4655 6287 0
h 6288 -4655 0
h 6288 -6287 0
h 6289 -4648 -4660 0
h -6289 4648 0
h -6289 4660 0
h -1009 4662 6289 0
h 1009 -4662 0
h 1009 -6289 0
h 6290 -4648 -4666 0
h -6290 4648 0
h -6290 4666 0
h -1007 4669 6290 0
h 1007 -4669 0
h 1007 -6290 0
h 6291 -4671 -4666 0
h -6291 4671 0
h -6291 4666 0
h -1010 4676 6291 0
h 1010 -4676 0
h 1010 -6291 0
h 6292 -4660 -4671 0
h -6292 4660 0
h -6292 4671 0
h -1008 4681 6292 0
h 1008 -4681 0
h 1008 -6292 0
h 6293 -4660 -4660 0
h -6293 4660 0
h -6293 4660 0
h -6294 4687 6293 0
h 6294 -4687 0
h 6294 -6293 0
h 6295 -3613 -3613 0
h -6295 3613 0
h -6295 3613 0
h -6296 3620 6295 0
h 6296 -3620 0
h 6296 -6295 0
h 6297 -3613 -3625 0
h -6297 3613 0
h -6297 3625 0
h -769 3627 6297 0
h 769 -3627 0
h 769 -6297 0
h 6298 -3613 -3631 0
h -6298 3613 0
h -6298 3631 0
h -767 3634 6298 0
h 767 -3634 0
h 767 -6298 0
h 6299 -3636 -3631 0
h -6299 3636 0
h -6299 3631 0
h -770 3641 6299 0
h 770 -3641 0
h 770 -6299 0
h 6300 -3625 -3636 0
h -6300 3625 0
h -6300 3636 0
h -768 3646 6300 0
h 768 -3646 0
h 768 -6300 0
h 6301 -3625 -3625 0
h -6301 3625 0
h -6301 3625 0
h -6302 3652 6301 0
h 6302 -3652 0
h 6302 -6301 0
h 6303 -1743 -1743 0
h -6303 1743 0
h -6303 1743 0
h -6304 1723 6303 0
h 6304 -1723 0
h 6304 -6303 0
h 6305 -1743 -1751 0
h -6305 1743 0
h -6305 1751 0
h -899 1727 6305 0
h 899 -1727 0
h 899 -6305 0
h 6306 -1743 -1746 0
h -6306 1743 0
h -6306 1746 0
h -897 1734 6306 0
h 897 -1734 0
h 897 -6306 0
h 6307 -1741 -1746 0
h -6307 1741 0
h -6307 1746 0
h -900 1736 6307 0
h 900 -1736 0
h 900 -6307 0
h 6308 -1751 -1741 0
h -6308 1751 0
h -6308 1741 0
h -898 1730 6308 0
h 898 -1730 0
h 898 -6308 0
h 6309 -1751 -1751 0
h -6309 1751 0
h -6309 1751 0
h -6310 1757 6309 0
h 6310 -1757 0
h 6310 -6309 0
h 6311 -3739 -3739 0
h -6311 3739 0
h -6311 3739 0
h -6312 3746 6311 0
h 6312 -3746 0
h 6312 -6311 0
h 6313 -3739 -3751 0
h -6313 3739 0
h -6313 3751 0
h -1114 3753 6313 0
h 1114 -3753 0
h 1114 -6313 0
h 6314 -3739 -3757 0
h -6314 3739 0
h -6314 3757 0
h -1112 3760 6314 0
h 1112 -3760 0
h 1112 -6314 0
h 6315 -3762 -3757 0
h -6315 3762 0
h -6315 3757 0
h -1115 3767 6315 0
h 1115 -3767 0
h 1115 -6315 0
h 6316 -3751 -3762 0
h -6316 3751 0
h -6316 3762 0
h -1113 3772 6316 0
h 1113 -3772 0
h 1113 -6316 0
h 6317 -3751 -3751 0
h -6317 3751 0
h -6317 3751 0
h -6318 3778 6317 0
h 6318 -3778 0
h 6318 -6317 0
h 6319 -2060 -2060 0
h -6319 2060 0
h -6319 2060 0
h -6320 2040 6319 0
h 6320 -2040 0
h 6320 -6319 0
h 6321 -2060 -2068 0
h -6321 2060 0
h -6321 2068 0
h -894 2044 6321 0
h 894 -2044 0
h 894 -6321 0
h 6322 -2060 -2063 0
h -6322 2060 0
h -6322 2063 0
h -892 2051 6322 0
h 892 -2051 0
h 892 -6322 0
h 6323 -2058 -2063 0
h -6323 2058 0
h -6323 2063 0
h -895 2053 6323 0
h 895 -2053 0
h 895 -6323 0
h 6324 -2068 -2058 0
h -6324 2068 0
h -6324 2058 0
h -893 2047 6324 0
h 893 -2047 0
h 893 -6324 0
h 6325 -2068 -2068 0
h -6325 2068 0
h -6325 2068 0
h -6326 2074 6325 0
h 6326 -2074 0
h 6326 -6325 0
h 6327 -3072 -4228 0
h -6327 3072 0
h -6327 4228 0
h 4245 -4228 -4228 0
h -4245 4228 0
h -4245 4228 0
h 6328 -4228 -3072 0
h -6328 4228 0
h -6328 3072 0
h 6329 -3072 -3072 -2848 0
h -6329 3072 0
h -6329 3072 0
h -6329 2848 0
h -6330 3074 6327 4245 6328 6329 0
h 6330 -3074 0
h 6330 -6327 0
h 6330 -4245 0
h 6330 -6328 0
h 6330 -6329 0
h 6331 -3072 -2837 0
h -6331 3072 0
h -6331 2837 0
h 6332 -4228 -2837 0
h -6332 4228 0
h -6332 2837 0
h 6333 -4228 -2840 0
h -6333 4228 0
h -6333 2840 0
h 6334 -3072 -2840 -2848 0
h -6334 3072 0
h -6334 2840 0
h -6334 2848 0
h -89 3076 6331 6332 6333 6334 0
h 89 -3076 0
h 89 -6331 0
h 89 -6332 0
h 89 -6333 0
h 89 -6334 0
h 6335 -3072 -2845 0
h -6335 3072 0
h -6335 2845 0
h 6336 -4228 -2843 0
h -6336 4228 0
h -6336 2843 0
h 6337 -4228 -2845 0
h -6337 4228 0
h -6337 2845 0
h 6338 -3072 -2843 -2848 0
h -6338 3072 0
h -6338 2843 0
h -6338 2848 0
h -87 3078 6335 6336 6337 6338 0
h 87 -3078 0
h 87 -6335 0
h 87 -6336 0
h 87 -6337 0
h 87 -6338 0
h 6339 -2839 -2845 0
h -6339 2839 0
h -6339 2845 0
h 6340 -2836 -2845 0
h -6340 2836 0
h -6340 2845 0
h 6341 -2836 -2843 0
h -6341 2836 0
h -6341 2843 0
h 6342 -2839 -2843 -2848 0
h -6342 2839 0
h -6342 2843 0
h -6342 2848 0
h -90 2842 6339 6340 6341 6342 0
h 90 -2842 0
h 90 -6339 0
h 90 -6340 0
h 90 -6341 0
h 90 -6342 0
h 6343 -2840 -2836 0
h -6343 2840 0
h -6343 2836 0
h 6344 -2837 -2839 0
h -6344 2837 0
h -6344 2839 0
h 6345 -2837 -2836 0
h -6345 2837 0
h -6345 2836 0
h 6346 -2840 -2839 -2848 0
h -6346 2840 0
h -6346 2839 0
h -6346 2848 0
h -88 2832 6343 6344 6345 6346 0
h 88 -2832 0
h 88 -6343 0
h 88 -6344 0
h 88 -6345 0
h 88 -6346 0
h 6347 -2840 -2837 0
h -6347 2840 0
h -6347 2837 0
h 5630 -2837 -2837 0
h -5630 2837 0
h -5630 2837 0
h 6348 -2837 -2840 0
h -6348 2837 0
h -6348 2840 0
h 6349 -2840 -2840 -2848 0
h -6349 2840 0
h -6349 2840 0
h -6349 2848 0
h -6350 2834 6347 5630 6348 6349 0
h 6350 -2834 0
h 6350 -6347 0
h 6350 -5630 0
h 6350 -6348 0
h 6350 -6349 0
h 6351 -1590 -1590 0
h -6351 1590 0
h -6351 1590 0
h -6352 1584 6351 0
h 6352 -1584 0
h 6352 -6351 0
h 6353 -1590 -2737 0
h -6353 1590 0
h -6353 2737 0
h -99 2989 6353 0
h 99 -2989 0
h 99 -6353 0
h 6354 -1590 -1589 0
h -6354 1590 0
h -6354 1589 0
h -97 1582 6354 0
h 97 -1582 0
h 97 -6354 0
h 6355 -1593 -1589 0
h -6355 1593 0
h -6355 1589 0
h -100 1592 6355 0
h 100 -1592 0
h 100 -6355 0
h 6356 -2737 -1593 0
h -6356 2737 0
h -6356 1593 0
h -98 2732 6356 0
h 98 -2732 0
h 98 -6356 0
h 6357 -2737 -2737 0
h -6357 2737 0
h -6357 2737 0
h -6358 2740 6357 0
h 6358 -2740 0
h 6358 -6357 0
h 6359 -1590 -1587 0
h -6359 1590 0
h -6359 1587 0
h 4877 -1587 -1587 0
h -4877 1587 0
h -4877 1587 0
h 6360 -1587 -1590 0
h -6360 1587 0
h -6360 1590 0
h 6361 -1590 -1590 -1598 0
h -6361 1590 0
h -6361 1590 0
h -6361 1598 0
h -6362 1584 6359 4877 6360 6361 0
h 6362 -1584 0
h 6362 -6359 0
h 6362 -4877 0
h 6362 -6360 0
h 6362 -6361 0
h 6363 -1590 -2733 0
h -6363 1590 0
h -6363 2733 0
h 6364 -1587 -2733 0
h -6364 1587 0
h -6364 2733 0
h 6365 -1587 -2737 0
h -6365 1587 0
h -6365 2737 0
h 6366 -1590 -2737 -1598 0
h -6366 1590 0
h -6366 2737 0
h -6366 1598 0
h -9 2989 6363 6364 6365 6366 0
h 9 -2989 0
h 9 -6363 0
h 9 -6364 0
h 9 -6365 0
h 9 -6366 0
h 6367 -1590 -1586 0
h -6367 1590 0
h -6367 1586 0
h 6368 -1587 -1589 0
h -6368 1587 0
h -6368 1589 0
h 6369 -1587 -1586 0
h -6369 1587 0
h -6369 1586 0
h 6370 -1590 -1589 -1598 0
h -6370 1590 0
h -6370 1589 0
h -6370 1598 0
h -7 1582 6367 6368 6369 6370 0
h 7 -1582 0
h 7 -6367 0
h 7 -6368 0
h 7 -6369 0
h 7 -6370 0
h 6371 -1593 -1586 0
h -6371 1593 0
h -6371 1586 0
h 6372 -1595 -1586 0
h -6372 1595 0
h -6372 1586 0
h 6373 -1595 -1589 0
h -6373 1595 0
h -6373 1589 0
h 6374 -1593 -1589 -1598 0
h -6374 1593 0
h -6374 1589 0
h -6374 1598 0
h -10 1592 6371 6372 6373 6374 0
h 10 -1592 0
h 10 -6371 0
h 10 -6372 0
h 10 -6373 0
h 10 -6374 0
h 6375 -2737 -1595 0
h -6375 2737 0
h -6375 1595 0
h 6376 -2733 -1593 0
h -6376 2733 0
h -6376 1593 0
h 6377 -2733 -1595 0
h -6377 2733 0
h -6377 1595 0
h 6378 -2737 -1593 -1598 0
h -6378 2737 0
h -6378 1593 0
h -6378 1598 0
h -8 2732 6375 6376 6377 6378 0
h 8 -2732 0
h 8 -6375 0
h 8 -6376 0
h 8 -6377 0
h 8 -6378 0
h 6379 -2737 -2733 0
h -6379 2737 0
h -6379 2733 0
h 3011 -2733 -2733 0
h -3011 2733 0
h -3011 2733 0
h 6380 -2733 -2737 0
h -6380 2733 0
h -6380 2737 0
h 6381 -2737 -2737 -1598 0
h -6381 2737 0
h -6381 2737 0
h -6381 1598 0
h -6382 2740 6379 3011 6380 6381 0
h 6382 -2740 0
h 6382 -6379 0
h 6382 -3011 0
h 6382 -6380 0
h 6382 -6381 0
h 6383 -4747 -4747 0
h -6383 4747 0
h -6383 4747 0
h -6384 4754 6383 0
h 6384 -4754 0
h 6384 -6383 0
h 6385 -4747 -4759 0
h -6385 4747 0
h -6385 4759 0
h -1019 4761 6385 0
h 1019 -4761 0
h 1019 -6385 0
h 6386 -4747 -4765 0
h -6386 4747 0
h -6386 4765 0
h -1017 4768 6386 0
h 1017 -4768 0
h 1017 -6386 0
h 6387 -4770 -4765 0
h -6387 4770 0
h -6387 4765 0
h -1020 4775 6387 0
h 1020 -4775 0
h 1020 -6387 0
h 6388 -4759 -4770 0
h -6388 4759 0
h -6388 4770 0
h -1018 4780 6388 0
h 1018 -4780 0
h 1018 -6388 0
h 6389 -4759 -4759 0
h -6389 4759 0
h -6389 4759 0
h -6390 4786 6389 0
h 6390 -4786 0
h 6390 -6389 0
h 6391 -2581 -2581 0
h -6391 2581 0
h -6391 2581 0
h -6392 2588 6391 0
h 6392 -2588 0
h 6392 -6391 0
h 6393 -2581 -2593 0
h -6393 2581 0
h -6393 2593 0
h -559 2595 6393 0
h 559 -2595 0
h 559 -6393 0
h 6394 -2581 -2599 0
h -6394 2581 0
h -6394 2599 0
h -557 2602 6394 0
h 557 -2602 0
h 557 -6394 0
h 6395 -2604 -2599 0
h -6395 2604 0
h -6395 2599 0
h -560 2609 6395 0
h 560 -2609 0
h 560 -6395 0
h 6396 -2593 -2604 0
h -6396 2593 0
h -6396 2604 0
h -558 2614 6396 0
h 558 -2614 0
h 558 -6396 0
h 6397 -2593 -2593 0
h -6397 2593 0
h -6397 2593 0
h -6398 2620 6397 0
h 6398 -2620 0
h 6398 -6397 0
h 6399 -4943 -4943 0
h -6399 4943 0
h -6399 4943 0
h -6400 4950 6399 0
h 6400 -4950 0
h 6400 -6399 0
h 6401 -4943 -4955 0
h -6401 4943 0
h -6401 4955 0
h -649 4957 6401 0
h 649 -4957 0
h 649 -6401 0
h 6402 -4943 -4961 0
h -6402 4943 0
h -6402 4961 0
h -647 4964 6402 0
h 647 -4964 0
h 647 -6402 0
h 6403 -4966 -4961 0
h -6403 4966 0
h -6403 4961 0
h -650 4971 6403 0
h 650 -4971 0
h 650 -6403 0
h 6404 -4955 -4966 0
h -6404 4955 0
h -6404 4966 0
h -648 4976 6404 0
h 648 -4976 0
h 648 -6404 0
h 6405 -4955 -4955 0
h -6405 4955 0
h -6405 4955 0
h -6406 4982 6405 0
h 6406 -4982 0
h 6406 -6405 0
h 6407 -1680 -1680 0
h -6407 1680 0
h -6407 1680 0
h -6408 1666 6407 0
h 6408 -1666 0
h 6408 -6407 0
h 6409 -1680 -1675 0
h -6409 1680 0
h -6409 1675 0
h -394 1660 6409 0
h 394 -1660 0
h 394 -6409 0
h 6410 -1680 -1677 0
h -6410 1680 0
h -6410 1677 0
h -392 1659 6410 0
h 392 -1659 0
h 392 -6410 0
h 6411 -1687 -1677 0
h -6411 1687 0
h -6411 1677 0
h -395 1682 6411 0
h 395 -1682 0
h 395 -6411 0
h 6412 -1675 -1687 0
h -6412 1675 0
h -6412 1687 0
h -393 1684 6412 0
h 393 -1684 0
h 393 -6412 0
h 6413 -1675 -1675 0
h -6413 1675 0
h -6413 1675 0
h -6414 1664 6413 0
h 6414 -1664 0
h 6414 -6413 0
h 6415 -3292 -6416 0
h -6415 3292 0
h -6415 6416 0
h 6417 -6416 -6416 0
h -6417 6416 0
h -6417 6416 0
h 6418 -6416 -3292 0
h -6418 6416 0
h -6418 3292 0
h 6419 -3292 -3292 -6420 0
h -6419 3292 0
h -6419 3292 0
h -6419 6420 0
h -6421 3294 6415 6417 6418 6419 0
h 6421 -3294 0
h 6421 -6415 0
h 6421 -6417 0
h 6421 -6418 0
h 6421 -6419 0
h 6422 -3292 -6423 0
h -6422 3292 0
h -6422 6423 0
h 6424 -6416 -6423 0
h -6424 6416 0
h -6424 6423 0
h 6425 -6416 -3296 0
h -6425 6416 0
h -6425 3296 0
h 6426 -3292 -3296 -6420 0
h -6426 3292 0
h -6426 3296 0
h -6426 6420 0
h -794 3297 6422 6424 6425 6426 0
h 794 -3297 0
h 794 -6422 0
h 794 -6424 0
h 794 -6425 0
h 794 -6426 0
h 6427 -3292 -6428 0
h -6427 3292 0
h -6427 6428 0
h 6429 -6416 -3299 0
h -6429 6416 0
h -6429 3299 0
h 6430 -6416 -6428 0
h -6430 6416 0
h -6430 6428 0
h 6431 -3292 -3299 -6420 0
h -6431 3292 0
h -6431 3299 0
h -6431 6420 0
h -792 3300 6427 6429 6430 6431 0
h 792 -3300 0
h 792 -6427 0
h 792 -6429 0
h 792 -6430 0
h 792 -6431 0
h 6432 -3302 -6428 0
h -6432 3302 0
h -6432 6428 0
h 6433 -6434 -6428 0
h -6433 6434 0
h -6433 6428 0
h 6435 -6434 -3299 0
h -6435 6434 0
h -6435 3299 0
h 6436 -3302 -3299 -6420 0
h -6436 3302 0
h -6436 3299 0
h -6436 6420 0
h -795 3303 6432 6433 6435 6436 0
h 795 -3303 0
h 795 -6432 0
h 795 -6433 0
h 795 -6435 0
h 795 -6436 0
h 6437 -3296 -6434 0
h -6437 3296 0
h -6437 6434 0
h 6438 -6423 -3302 0
h -6438 6423 0
h -6438 3302 0
h 6439 -6423 -6434 0
h -6439 6423 0
h -6439 6434 0
h 6440 -3296 -3302 -6420 0
h -6440 3296 0
h -6440 3302 0
h -6440 6420 0
h -793 3305 6437 6438 6439 6440 0
h 793 -3305 0
h 793 -6437 0
h 793 -6438 0
h 793 -6439 0
h 793 -6440 0
h 6441 -3296 -6423 0
h -6441 3296 0
h -6441 6423 0
h 6442 -6423 -6423 0
h -6442 6423 0
h -6442 6423 0
h 6443 -6423 -3296 0
h -6443 6423 0
h -6443 3296 0
h 6444 -3296 -3296 -6420 0
h -6444 3296 0
h -6444 3296 0
h -6444 6420 0
h -6445 3308 6441 6442 6443 6444 0
h 6445 -3308 0
h 6445 -6441 0
h 6445 -6442 0
h 6445 -6443 0
h 6445 -6444 0
h 6446 -2392 -2392 0
h -6446 2392 0
h -6446 2392 0
h -6447 2386 6446 0
h 6447 -2386 0
h 6447 -6446 0
h 6448 -2392 -3963 0
h -6448 2392 0
h -6448 3963 0
h -834 4250 6448 0
h 834 -4250 0
h 834 -6448 0
h 6449 -2392 -2391 0
h -6449 2392 0
h -6449 2391 0
h -832 2384 6449 0
h 832 -2384 0
h 832 -6449 0
h 6450 -2395 -2391 0
h -6450 2395 0
h -6450 2391 0
h -835 2394 6450 0
h 835 -2394 0
h 835 -6450 0
h 6451 -3963 -2395 0
h -6451 3963 0
h -6451 2395 0
h -833 3957 6451 0
h 833 -3957 0
h 833 -6451 0
h 6452 -3963 -3963 0
h -6452 3963 0
h -6452 3963 0
h -6453 3959 6452 0
h 6453 -3959 0
h 6453 -6452 0
h 6454 -6455 -6456 0
h -6454 6455 0
h -6454 6456 0
h 6457 -6456 -6456 0
h -6457 6456 0
h -6457 6456 0
h 6458 -6456 -6455 0
h -6458 6456 0
h -6458 6455 0
h 6459 -6455 -6455 -6460 0
h -6459 6455 0
h -6459 6455 0
h -6459 6460 0
h -3659 6461 6454 6457 6458 6459 0
h 3659 -6461 0
h 3659 -6454 0
h 3659 -6457 0
h 3659 -6458 0
h 3659 -6459 0
h 6462 -6455 -6463 0
h -6462 6455 0
h -6462 6463 0
h 6464 -6456 -6463 0
h -6464 6456 0
h -6464 6463 0
h 6465 -6456 -6466 0
h -6465 6456 0
h -6465 6466 0
h 6467 -6455 -6466 -6460 0
h -6467 6455 0
h -6467 6466 0
h -6467 6460 0
h -3655 6468 6462 6464 6465 6467 0
h 3655 -6468 0
h 3655 -6462 0
h 3655 -6464 0
h 3655 -6465 0
h 3655 -6467 0
h 6469 -6455 -6470 0
h -6469 6455 0
h -6469 6470 0
h 6471 -6456 -6472 0
h -6471 6456 0
h -6471 6472 0
h 6473 -6456 -6470 0
h -6473 6456 0
h -6473 6470 0
h 6474 -6455 -6472 -6460 0
h -6474 6455 0
h -6474 6472 0
h -6474 6460 0
h -3679 6475 6469 6471 6473 6474 0
h 3679 -6475 0
h 3679 -6469 0
h 3679 -6471 0
h 3679 -6473 0
h 3679 -6474 0
h 6476 -6477 -6470 0
h -6476 6477 0
h -6476 6470 0
h 6478 -6479 -6470 0
h -6478 6479 0
h -6478 6470 0
h 6480 -6479 -6472 0
h -6480 6479 0
h -6480 6472 0
h 6481 -6477 -6472 -6460 0
h -6481 6477 0
h -6481 6472 0
h -6481 6460 0
h -3677 6482 6476 6478 6480 6481 0
h 3677 -6482 0
h 3677 -6476 0
h 3677 -6478 0
h 3677 -6480 0
h 3677 -6481 0
h 6483 -6455 -6484 0
h -6483 6455 0
h -6483 6484 0
h 6485 -6456 -6484 0
h -6485 6456 0
h -6485 6484 0
h 6486 -6456 -6487 0
h -6486 6456 0
h -6486 6487 0
h 6488 -6455 -6487 -6460 0
h -6488 6455 0
h -6488 6487 0
h -6488 6460 0
h -3663 6489 6483 6485 6486 6488 0
h 3663 -6489 0
h 3663 -6483 0
h 3663 -6485 0
h 3663 -6486 0
h 3663 -6488 0
h 6490 -6455 -6491 0
h -6490 6455 0
h -6490 6491 0
h 6492 -6456 -6493 0
h -6492 6456 0
h -6492 6493 0
h 6494 -6456 -6491 0
h -6494 6456 0
h -6494 6491 0
h 6495 -6455 -6493 -6460 0
h -6495 6455 0
h -6495 6493 0
h -6495 6460 0
h -3670 6496 6490 6492 6494 6495 0
h 3670 -6496 0
h 3670 -6490 0
h 3670 -6492 0
h 3670 -6494 0
h 3670 -6495 0
h 6497 -6477 -6491 0
h -6497 6477 0
h -6497 6491 0
h 6498 -6479 -6491 0
h -6498 6479 0
h -6498 6491 0
h 6499 -6479 -6493 0
h -6499 6479 0
h -6499 6493 0
h 6500 -6477 -6493 -6460 0
h -6500 6477 0
h -6500 6493 0
h -6500 6460 0
h -3672 6501 6497 6498 6499 6500 0
h 3672 -6501 0
h 3672 -6497 0
h 3672 -6498 0
h 3672 -6499 0
h 3672 -6500 0
h 6502 -6466 -6479 0
h -6502 6466 0
h -6502 6479 0
h 6503 -6463 -6477 0
h -6503 6463 0
h -6503 6477 0
h 6504 -6463 -6479 0
h -6504 6463 0
h -6504 6479 0
h 6505 -6466 -6477 -6460 0
h -6505 6466 0
h -6505 6477 0
h -6505 6460 0
h -3654 6506 6502 6503 6504 6505 0
h 3654 -6506 0
h 3654 -6502 0
h 3654 -6503 0
h 3654 -6504 0
h 3654 -6505 0
h 6507 -6466 -6463 0
h -6507 6466 0
h -6507 6463 0
h 6508 -6463 -6463 0
h -6508 6463 0
h -6508 6463 0
h 6509 -6463 -6466 0
h -6509 6463 0
h -6509 6466 0
h 6510 -6466 -6466 -6460 0
h -6510 6466 0
h -6510 6466 0
h -6510 6460 0
h -3661 6511 6507 6508 6509 6510 0
h 3661 -6511 0
h 3661 -6507 0
h 3661 -6508 0
h 3661 -6509 0
h 3661 -6510 0
h 6512 -6466 -6484 0
h -6512 6466 0
h -6512 6484 0
h 6513 -6463 -6484 0
h -6513 6463 0
h -6513 6484 0
h 6514 -6463 -6487 0
h -6514 6463 0
h -6514 6487 0
h 6515 -6466 -6487 -6460 0
h -6515 6466 0
h -6515 6487 0
h -6515 6460 0
h -3668 6516 6512 6513 6514 6515 0
h 3668 -6516 0
h 3668 -6512 0
h 3668 -6513 0
h 3668 -6514 0
h 3668 -6515 0
h 6517 -6466 -6491 0
h -6517 6466 0
h -6517 6491 0
h 6518 -6463 -6493 0
h -6518 6463 0
h -6518 6493 0
h 6519 -6463 -6491 0
h -6519 6463 0
h -6519 6491 0
h 6520 -6466 -6493 -6460 0
h -6520 6466 0
h -6520 6493 0
h -6520 6460 0
h -3675 6521 6517 6518 6519 6520 0
h 3675 -6521 0
h 3675 -6517 0
h 3675 -6518 0
h 3675 -6519 0
h 3675 -6520 0
h 6522 -6472 -6491 0
h -6522 6472 0
h -6522 6491 0
h 6523 -6470 -6491 0
h -6523 6470 0
h -6523 6491 0
h 6524 -6470 -6493 0
h -6524 6470 0
h -6524 6493 0
h 6525 -6472 -6493 -6460 0
h -6525 6472 0
h -6525 6493 0
h -6525 6460 0
h -3682 6526 6522 6523 6524 6525 0
h 3682 -6526 0
h 3682 -6522 0
h 3682 -6523 0
h 3682 -6524 0
h 3682 -6525 0
h 6527 -6487 -6479 0
h -6527 6487 0
h -6527 6479 0
h 6528 -6484 -6477 0
h -6528 6484 0
h -6528 6477 0
h 6529 -6484 -6479 0
h -6529 6484 0
h -6529 6479 0
h 6530 -6487 -6477 -6460 0
h -6530 6487 0
h -6530 6477 0
h -6530 6460 0
h -3666 6531 6527 6528 6529 6530 0
h 3666 -6531 0
h 3666 -6527 0
h 3666 -6528 0
h 3666 -6529 0
h 3666 -6530 0
h 6532 -6487 -6470 0
h -6532 6487 0
h -6532 6470 0
h 6533 -6484 -6472 0
h -6533 6484 0
h -6533 6472 0
h 6534 -6484 -6470 0
h -6534 6484 0
h -6534 6470 0
h 6535 -6487 -6472 -6460 0
h -6535 6487 0
h -6535 6472 0
h -6535 6460 0
h -3687 6536 6532 6533 6534 6535 0
h 3687 -6536 0
h 3687 -6532 0
h 3687 -6533 0
h 3687 -6534 0
h 3687 -6535 0
h 6537 -6487 -6484 0
h -6537 6487 0
h -6537 6484 0
h 6538 -6484 -6484 0
h -6538 6484 0
h -6538 6484 0
h 6539 -6484 -6487 0
h -6539 6484 0
h -6539 6487 0
h 6540 -6487 -6487 -6460 0
h -6540 6487 0
h -6540 6487 0
h -6540 6460 0
h -3693 6541 6537 6538 6539 6540 0
h 3693 -6541 0
h 3693 -6537 0
h 3693 -6538 0
h 3693 -6539 0
h 3693 -6540 0
h 6542 -6543 -6543 0
h -6542 6543 0
h -6542 6543 0
h -4907 6544 6542 0
h 4907 -6544 0
h 4907 -6542 0
h 6545 -6543 -6546 0
h -6545 6543 0
h -6545 6546 0
h -4903 6547 6545 0
h 4903 -6547 0
h 4903 -6545 0
h 6548 -6543 -6549 0
h -6548 6543 0
h -6548 6549 0
h -4927 6550 6548 0
h 4927 -6550 0
h 4927 -6548 0
h 6551 -6552 -6549 0
h -6551 6552 0
h -6551 6549 0
h -4925 6553 6551 0
h 4925 -6553 0
h 4925 -6551 0
h 6554 -6543 -6555 0
h -6554 6543 0
h -6554 6555 0
h -4911 6556 6554 0
h 4911 -6556 0
h 4911 -6554 0
h 6557 -6543 -6558 0
h -6557 6543 0
h -6557 6558 0
h -4918 6559 6557 0
h 4918 -6559 0
h 4918 -6557 0
h 6560 -6552 -6558 0
h -6560 6552 0
h -6560 6558 0
h -4920 6561 6560 0
h 4920 -6561 0
h 4920 -6560 0
h 6562 -6546 -6552 0
h -6562 6546 0
h -6562 6552 0
h -4902 6563 6562 0
h 4902 -6563 0
h 4902 -6562 0
h 6564 -6546 -6546 0
h -6564 6546 0
h -6564 6546 0
h -4909 6565 6564 0
h 4909 -6565 0
h 4909 -6564 0
h 6566 -6546 -6555 0
h -6566 6546 0
h -6566 6555 0
h -4916 6567 6566 0
h 4916 -6567 0
h 4916 -6566 0
h 6568 -6546 -6558 0
h -6568 6546 0
h -6568 6558 0
h -4923 6569 6568 0
h 4923 -6569 0
h 4923 -6568 0
h 6570 -6549 -6558 0
h -6570 6549 0
h -6570 6558 0
h -4930 6571 6570 0
h 4930 -6571 0
h 4930 -6570 0
h 6572 -6555 -6552 0
h -6572 6555 0
h -6572 6552 0
h -4914 6573 6572 0
h 4914 -6573 0
h 4914 -6572 0
h 6574 -6555 -6549 0
h -6574 6555 0
h -6574 6549 0
h -4935 6575 6574 0
h 4935 -6575 0
h 4935 -6574 0
h 6576 -6555 -6555 0
h -6576 6555 0
h -6576 6555 0
h -4941 6577 6576 0
h 4941 -6577 0
h 4941 -6576 0
h 6578 -6579 -6580 0
h -6578 6579 0
h -6578 6580 0
h 6581 -6580 -6580 0
h -6581 6580 0
h -6581 6580 0
h 6582 -6580 -6579 0
h -6582 6580 0
h -6582 6579 0
h 6583 -6579 -6579 -6584 0
h -6583 6579 0
h -6583 6579 0
h -6583 6584 0
h -5155 6585 6578 6581 6582 6583 0
h 5155 -6585 0
h 5155 -6578 0
h 5155 -6581 0
h 5155 -6582 0
h 5155 -6583 0
h 6586 -6579 -6587 0
h -6586 6579 0
h -6586 6587 0
h 6588 -6580 -6587 0
h -6588 6580 0
h -6588 6587 0
h 6589 -6580 -6590 0
h -6589 6580 0
h -6589 6590 0
h 6591 -6579 -6590 -6584 0
h -6591 6579 0
h -6591 6590 0
h -6591 6584 0
h -5151 6592 6586 6588 6589 6591 0
h 5151 -6592 0
h 5151 -6586 0
h 5151 -6588 0
h 5151 -6589 0
h 5151 -6591 0
h 6593 -6579 -6594 0
h -6593 6579 0
h -6593 6594 0
h 6595 -6580 -6596 0
h -6595 6580 0
h -6595 6596 0
h 6597 -6580 -6594 0
h -6597 6580 0
h -6597 6594 0
h 6598 -6579 -6596 -6584 0
h -6598 6579 0
h -6598 6596 0
h -6598 6584 0
h -5175 6599 6593 6595 6597 6598 0
h 5175 -6599 0
h 5175 -6593 0
h 5175 -6595 0
h 5175 -6597 0
h 5175 -6598 0
h 6600 -6601 -6594 0
h -6600 6601 0
h -6600 6594 0
h 6602 -6603 -6594 0
h -6602 6603 0
h -6602 6594 0
h 6604 -6603 -6596 0
h -6604 6603 0
h -6604 6596 0
h 6605 -6601 -6596 -6584 0
h -6605 6601 0
h -6605 6596 0
h -6605 6584 0
h -5173 6606 6600 6602 6604 6605 0
h 5173 -6606 0
h 5173 -6600 0
h 5173 -6602 0
h 5173 -6604 0
h 5173 -6605 0
h 6607 -6579 -6608 0
h -6607 6579 0
h -6607 6608 0
h 6609 -6580 -6608 0
h -6609 6580 0
h -6609 6608 0
h 6610 -6580 -6611 0
h -6610 6580 0
h -6610 6611 0
h 6612 -6579 -6611 -6584 0
h -6612 6579 0
h -6612 6611 0
h -6612 6584 0
h -5159 6613 6607 6609 6610 6612 0
h 5159 -6613 0
h 5159 -6607 0
h 5159 -6609 0
h 5159 -6610 0
h 5159 -6612 0
h 6614 -6579 -6615 0
h -6614 6579 0
h -6614 6615 0
h 6616 -6580 -6617 0
h -6616 6580 0
h -6616 6617 0
h 6618 -6580 -6615 0
h -6618 6580 0
h -6618 6615 0
h 6619 -6579 -6617 -6584 0
h -6619 6579 0
h -6619 6617 0
h -6619 6584 0
h -5166 6620 6614 6616 6618 6619 0
h 5166 -6620 0
h 5166 -6614 0
h 5166 -6616 0
h 5166 -6618 0
h 5166 -6619 0
h 6621 -6601 -6615 0
h -6621 6601 0
h -6621 6615 0
h 6622 -6603 -6615 0
h -6622 6603 0
h -6622 6615 0
h 6623 -6603 -6617 0
h -6623 6603 0
h -6623 6617 0
h 6624 -6601 -6617 -6584 0
h -6624 6601 0
h -6624 6617 0
h -6624 6584 0
h -5168 6625 6621 6622 6623 6624 0
h 5168 -6625 0
h 5168 -6621 0
h 5168 -6622 0
h 5168 -6623 0
h 5168 -6624 0
h 6626 -6590 -6603 0
h -6626 6590 0
h -6626 6603 0
h 6627 -6587 -6601 0
h -6627 6587 0
h -6627 6601 0
h 6628 -6587 -6603 0
h -6628 6587 0
h -6628 6603 0
h 6629 -6590 -6601 -6584 0
h -6629 6590 0
h -6629 6601 0
h -6629 6584 0
h -5150 6630 6626 6627 6628 6629 0
h 5150 -6630 0
h 5150 -6626 0
h 5150 -6627 0
h 5150 -6628 0
h 5150 -6629 0
h 6631 -6590 -6587 0
h -6631 6590 0
h -6631 6587 0
h 6632 -6587 -6587 0
h -6632 6587 0
h -6632 6587 0
h 6633 -6587 -6590 0
h -6633 6587 0
h -6633 6590 0
h 6634 -6590 -6590 -6584 0
h -6634 6590 0
h -6634 6590 0
h -6634 6584 0
h -5157 6635 6631 6632 6633 6634 0
h 5157 -6635 0
h 5157 -6631 0
h 5157 -6632 0
h 5157 -6633 0
h 5157 -6634 0
h 6636 -6590 -6608 0
h -6636 6590 0
h -6636 6608 0
h 6637 -6587 -6608 0
h -6637 6587 0
h -6637 6608 0
h 6638 -6587 -6611 0
h -6638 6587 0
h -6638 6611 0
h 6639 -6590 -6611 -6584 0
h -6639 6590 0
h -6639 6611 0
h -6639 6584 0
h -5164 6640 6636 6637 6638 6639 0
h 5164 -6640 0
h 5164 -6636 0
h 5164 -6637 0
h 5164 -6638 0
h 5164 -6639 0
h 6641 -6590 -6615 0
h -6641 6590 0
h -6641 6615 0
h 6642 -6587 -6617 0
h -6642 6587 0
h -6642 6617 0
h 6643 -6587 -6615 0
h -6643 6587 0
h -6643 6615 0
h 6644 -6590 -6617 -6584 0
h -6644 6590 0
h -6644 6617 0
h -6644 6584 0
h -5171 6645 6641 6642 6643 6644 0
h 5171 -6645 0
h 5171 -6641 0
h 5171 -6642 0
h 5171 -6643 0
h 5171 -6644 0
h 6646 -6596 -6615 0
h -6646 6596 0
h -6646 6615 0
h 6647 -6594 -6615 0
h -6647 6594 0
h -6647 6615 0
h 6648 -6594 -6617 0
h -6648 6594 0
h -6648 6617 0
h 6649 -6596 -6617 -6584 0
h -6649 6596 0
h -6649 6617 0
h -6649 6584 0
h -5178 6650 6646 6647 6648 6649 0
h 5178 -6650 0
h 5178 -6646 0
h 5178 -6647 0
h 5178 -6648 0
h 5178 -6649 0
h 6651 -6611 -6603 0
h -6651 6611 0
h -6651 6603 0
h 6652 -6608 -6601 0
h -6652 6608 0
h -6652 6601 0
h 6653 -6608 -6603 0
h -6653 6608 0
h -6653 6603 0
h 6654 -6611 -6601 -6584 0
h -6654 6611 0
h -6654 6601 0
h -6654 6584 0
h -5162 6655 6651 6652 6653 6654 0
h 5162 -6655 0
h 5162 -6651 0
h 5162 -6652 0
h 5162 -6653 0
h 5162 -6654 0
h 6656 -6611 -6594 0
h -6656 6611 0
h -6656 6594 0
h 6657 -6608 -6596 0
h -6657 6608 0
h -6657 6596 0
h 6658 -6608 -6594 0
h -6658 6608 0
h -6658 6594 0
h 6659 -6611 -6596 -6584 0
h -6659 6611 0
h -6659 6596 0
h -6659 6584 0
h -5183 6660 6656 6657 6658 6659 0
h 5183 -6660 0
h 5183 -6656 0
h 5183 -6657 0
h 5183 -6658 0
h 5183 -6659 0
h 6661 -6611 -6608 0
h -6661 6611 0
h -6661 6608 0
h 6662 -6608 -6608 0
h -6662 6608 0
h -6662 6608 0
h 6663 -6608 -6611 0
h -6663 6608 0
h -6663 6611 0
h 6664 -6611 -6611 -6584 0
h -6664 6611 0
h -6664 6611 0
h -6664 6584 0
h -5189 6665 6661 6662 6663 6664 0
h 5189 -6665 0
h 5189 -6661 0
h 5189 -6662 0
h 5189 -6663 0
h 5189 -6664 0
h 6666 -6667 -6668 0
h -6666 6667 0
h -6666 6668 0
h 6669 -6668 -6668 0
h -6669 6668 0
h -6669 6668 0
h 6670 -6668 -6667 0
h -6670 6668 0
h -6670 6667 0
h 6671 -6667 -6667 -6672 0
h -6671 6667 0
h -6671 6667 0
h -6671 6672 0
h -2764 6673 6666 6669 6670 6671 0
h 2764 -6673 0
h 2764 -6666 0
h 2764 -6669 0
h 2764 -6670 0
h 2764 -6671 0
h 6674 -6667 -6675 0
h -6674 6667 0
h -6674 6675 0
h 6676 -6668 -6675 0
h -6676 6668 0
h -6676 6675 0
h 6677 -6668 -6678 0
h -6677 6668 0
h -6677 6678 0
h 6679 -6667 -6678 -6672 0
h -6679 6667 0
h -6679 6678 0
h -6679 6672 0
h -2760 6680 6674 6676 6677 6679 0
h 2760 -6680 0
h 2760 -6674 0
h 2760 -6676 0
h 2760 -6677 0
h 2760 -6679 0
h 6681 -6667 -6682 0
h -6681 6667 0
h -6681 6682 0
h 6683 -6668 -6684 0
h -6683 6668 0
h -6683 6684 0
h 6685 -6668 -6682 0
h -6685 6668 0
h -6685 6682 0
h 6686 -6667 -6684 -6672 0
h -6686 6667 0
h -6686 6684 0
h -6686 6672 0
h -2778 6687 6681 6683 6685 6686 0
h 2778 -6687 0
h 2778 -6681 0
h 2778 -6683 0
h 2778 -6685 0
h 2778 -6686 0
h 6688 -6689 -6682 0
h -6688 6689 0
h -6688 6682 0
h 6690 -6691 -6682 0
h -6690 6691 0
h -6690 6682 0
h 6692 -6691 -6684 0
h -6692 6691 0
h -6692 6684 0
h 6693 -6689 -6684 -6672 0
h -6693 6689 0
h -6693 6684 0
h -6693 6672 0
h -1574 6694 6688 6690 6692 6693 0
h 1574 -6694 0
h 1574 -6688 0
h 1574 -6690 0
h 1574 -6692 0
h 1574 -6693 0
h 6695 -6667 -6696 0
h -6695 6667 0
h -6695 6696 0
h 6697 -6668 -6696 0
h -6697 6668 0
h -6697 6696 0
h 6698 -6668 -6699 0
h -6698 6668 0
h -6698 6699 0
h 6700 -6667 -6699 -6672 0
h -6700 6667 0
h -6700 6699 0
h -6700 6672 0
h -2767 6701 6695 6697 6698 6700 0
h 2767 -6701 0
h 2767 -6695 0
h 2767 -6697 0
h 2767 -6698 0
h 2767 -6700 0
h 6702 -6667 -6703 0
h -6702 6667 0
h -6702 6703 0
h 6704 -6668 -6705 0
h -6704 6668 0
h -6704 6705 0
h 6706 -6668 -6703 0
h -6706 6668 0
h -6706 6703 0
h 6707 -6667 -6705 -6672 0
h -6707 6667 0
h -6707 6705 0
h -6707 6672 0
h -2772 6708 6702 6704 6706 6707 0
h 2772 -6708 0
h 2772 -6702 0
h 2772 -6704 0
h 2772 -6706 0
h 2772 -6707 0
h 6709 -6689 -6703 0
h -6709 6689 0
h -6709 6703 0
h 6710 -6691 -6703 0
h -6710 6691 0
h -6710 6703 0
h 6711 -6691 -6705 0
h -6711 6691 0
h -6711 6705 0
h 6712 -6689 -6705 -6672 0
h -6712 6689 0
h -6712 6705 0
h -6712 6672 0
h -1571 6713 6709 6710 6711 6712 0
h 1571 -6713 0
h 1571 -6709 0
h 1571 -6710 0
h 1571 -6711 0
h 1571 -6712 0
h 6714 -6678 -6691 0
h -6714 6678 0
h -6714 6691 0
h 6715 -6675 -6689 0
h -6715 6675 0
h -6715 6689 0
h 6716 -6675 -6691 0
h -6716 6675 0
h -6716 6691 0
h 6717 -6678 -6689 -6672 0
h -6717 6678 0
h -6717 6689 0
h -6717 6672 0
h -1564 6718 6714 6715 6716 6717 0
h 1564 -6718 0
h 1564 -6714 0
h 1564 -6715 0
h 1564 -6716 0
h 1564 -6717 0
h 6719 -6678 -6675 0
h -6719 6678 0
h -6719 6675 0
h 6720 -6675 -6675 0
h -6720 6675 0
h -6720 6675 0
h 6721 -6675 -6678 0
h -6721 6675 0
h -6721 6678 0
h 6722 -6678 -6678 -6672 0
h -6722 6678 0
h -6722 6678 0
h -6722 6672 0
h -1566 6723 6719 6720 6721 6722 0
h 1566 -6723 0
h 1566 -6719 0
h 1566 -6720 0
h 1566 -6721 0
h 1566 -6722 0
h 6724 -6678 -6696 0
h -6724 6678 0
h -6724 6696 0
h 6725 -6675 -6696 0
h -6725 6675 0
h -6725 6696 0
h 6726 -6675 -6699 0
h -6726 6675 0
h -6726 6699 0
h 6727 -6678 -6699 -6672 0
h -6727 6678 0
h -6727 6699 0
h -6727 6672 0
h -1569 6728 6724 6725 6726 6727 0
h 1569 -6728 0
h 1569 -6724 0
h 1569 -6725 0
h 1569 -6726 0
h 1569 -6727 0
h 6729 -6678 -6703 0
h -6729 6678 0
h -6729 6703 0
h 6730 -6675 -6705 0
h -6730 6675 0
h -6730 6705 0
h 6731 -6675 -6703 0
h -6731 6675 0
h -6731 6703 0
h 6732 -6678 -6705 -6672 0
h -6732 6678 0
h -6732 6705 0
h -6732 6672 0
h -1572 6733 6729 6730 6731 6732 0
h 1572 -6733 0
h 1572 -6729 0
h 1572 -6730 0
h 1572 -6731 0
h 1572 -6732 0
h 6734 -6684 -6703 0
h -6734 6684 0
h -6734 6703 0
h 6735 -6682 -6703 0
h -6735 6682 0
h -6735 6703 0
h 6736 -6682 -6705 0
h -6736 6682 0
h -6736 6705 0
h 6737 -6684 -6705 -6672 0
h -6737 6684 0
h -6737 6705 0
h -6737 6672 0
h -1575 6738 6734 6735 6736 6737 0
h 1575 -6738 0
h 1575 -6734 0
h 1575 -6735 0
h 1575 -6736 0
h 1575 -6737 0
h 6739 -6699 -6691 0
h -6739 6699 0
h -6739 6691 0
h 6740 -6696 -6689 0
h -6740 6696 0
h -6740 6689 0
h 6741 -6696 -6691 0
h -6741 6696 0
h -6741 6691 0
h 6742 -6699 -6689 -6672 0
h -6742 6699 0
h -6742 6689 0
h -6742 6672 0
h -1568 6743 6739 6740 6741 6742 0
h 1568 -6743 0
h 1568 -6739 0
h 1568 -6740 0
h 1568 -6741 0
h 1568 -6742 0
h 6744 -6699 -6682 0
h -6744 6699 0
h -6744 6682 0
h 6745 -6696 -6684 0
h -6745 6696 0
h -6745 6684 0
h 6746 -6696 -6682 0
h -6746 6696 0
h -6746 6682 0
h 6747 -6699 -6684 -6672 0
h -6747 6699 0
h -6747 6684 0
h -6747 6672 0
h -1577 6748 6744 6745 6746 6747 0
h 1577 -6748 0
h 1577 -6744 0
h 1577 -6745 0
h 1577 -6746 0
h 1577 -6747 0
h 6749 -6699 -6696 0
h -6749 6699 0
h -6749 6696 0
h 6750 -6696 -6696 0
h -6750 6696 0
h -6750 6696 0
h 6751 -6696 -6699 0
h -6751 6696 0
h -6751 6699 0
h 6752 -6699 -6699 -6672 0
h -6752 6699 0
h -6752 6699 0
h -6752 6672 0
h -1580 6753 6749 6750 6751 6752 0
h 1580 -6753 0
h 1580 -6749 0
h 1580 -6750 0
h 1580 -6751 0
h 1580 -6752 0
h 6754 -6755 -6756 0
h -6754 6755 0
h -6754 6756 0
h 6757 -6756 -6756 0
h -6757 6756 0
h -6757 6756 0
h 6758 -6756 -6755 0
h -6758 6756 0
h -6758 6755 0
h 6759 -6755 -6755 -6760 0
h -6759 6755 0
h -6759 6755 0
h -6759 6760 0
h -2694 6761 6754 6757 6758 6759 0
h 2694 -6761 0
h 2694 -6754 0
h 2694 -6757 0
h 2694 -6758 0
h 2694 -6759 0
h 6762 -6755 -6763 0
h -6762 6755 0
h -6762 6763 0
h 6764 -6756 -6763 0
h -6764 6756 0
h -6764 6763 0
h 6765 -6756 -6766 0
h -6765 6756 0
h -6765 6766 0
h 6767 -6755 -6766 -6760 0
h -6767 6755 0
h -6767 6766 0
h -6767 6760 0
h -2690 6768 6762 6764 6765 6767 0
h 2690 -6768 0
h 2690 -6762 0
h 2690 -6764 0
h 2690 -6765 0
h 2690 -6767 0
h 6769 -6755 -6770 0
h -6769 6755 0
h -6769 6770 0
h 6771 -6756 -6772 0
h -6771 6756 0
h -6771 6772 0
h 6773 -6756 -6770 0
h -6773 6756 0
h -6773 6770 0
h 6774 -6755 -6772 -6760 0
h -6774 6755 0
h -6774 6772 0
h -6774 6760 0
h -2714 6775 6769 6771 6773 6774 0
h 2714 -6775 0
h 2714 -6769 0
h 2714 -6771 0
h 2714 -6773 0
h 2714 -6774 0
h 6776 -6777 -6770 0
h -6776 6777 0
h -6776 6770 0
h 6778 -6779 -6770 0
h -6778 6779 0
h -6778 6770 0
h 6780 -6779 -6772 0
h -6780 6779 0
h -6780 6772 0
h 6781 -6777 -6772 -6760 0
h -6781 6777 0
h -6781 6772 0
h -6781 6760 0
h -2712 6782 6776 6778 6780 6781 0
h 2712 -6782 0
h 2712 -6776 0
h 2712 -6778 0
h 2712 -6780 0
h 2712 -6781 0
h 6783 -6755 -6784 0
h -6783 6755 0
h -6783 6784 0
h 6785 -6756 -6784 0
h -6785 6756 0
h -6785 6784 0
h 6786 -6756 -6787 0
h -6786 6756 0
h -6786 6787 0
h 6788 -6755 -6787 -6760 0
h -6788 6755 0
h -6788 6787 0
h -6788 6760 0
h -2698 6789 6783 6785 6786 6788 0
h 2698 -6789 0
h 2698 -6783 0
h 2698 -6785 0
h 2698 -6786 0
h 2698 -6788 0
h 6790 -6755 -6791 0
h -6790 6755 0
h -6790 6791 0
h 6792 -6756 -6793 0
h -6792 6756 0
h -6792 6793 0
h 6794 -6756 -6791 0
h -6794 6756 0
h -6794 6791 0
h 6795 -6755 -6793 -6760 0
h -6795 6755 0
h -6795 6793 0
h -6795 6760 0
h -2705 6796 6790 6792 6794 6795 0
h 2705 -6796 0
h 2705 -6790 0
h 2705 -6792 0
h 2705 -6794 0
h 2705 -6795 0
h 6797 -6777 -6791 0
h -6797 6777 0
h -6797 6791 0
h 6798 -6779 -6791 0
h -6798 6779 0
h -6798 6791 0
h 6799 -6779 -6793 0
h -6799 6779 0
h -6799 6793 0
h 6800 -6777 -6793 -6760 0
h -6800 6777 0
h -6800 6793 0
h -6800 6760 0
h -2707 6801 6797 6798 6799 6800 0
h 2707 -6801 0
h 2707 -6797 0
h 2707 -6798 0
h 2707 -6799 0
h 2707 -6800 0
h 6802 -6766 -6779 0
h -6802 6766 0
h -6802 6779 0
h 6803 -6763 -6777 0
h -6803 6763 0
h -6803 6777 0
h 6804 -6763 -6779 0
h -6804 6763 0
h -6804 6779 0
h 6805 -6766 -6777 -6760 0
h -6805 6766 0
h -6805 6777 0
h -6805 6760 0
h -2689 6806 6802 6803 6804 6805 0
h 2689 -6806 0
h 2689 -6802 0
h 2689 -6803 0
h 2689 -6804 0
h 2689 -6805 0
h 6807 -6766 -6763 0
h -6807 6766 0
h -6807 6763 0
h 6808 -6763 -6763 0
h -6808 6763 0
h -6808 6763 0
h 6809 -6763 -6766 0
h -6809 6763 0
h -6809 6766 0
h 6810 -6766 -6766 -6760 0
h -6810 6766 0
h -6810 6766 0
h -6810 6760 0
h -2696 6811 6807 6808 6809 6810 0
h 2696 -6811 0
h 2696 -6807 0
h 2696 -6808 0
h 2696 -6809 0
h 2696 -6810 0
h 6812 -6766 -6784 0
h -6812 6766 0
h -6812 6784 0
h 6813 -6763 -6784 0
h -6813 6763 0
h -6813 6784 0
h 6814 -6763 -6787 0
h -6814 6763 0
h -6814 6787 0
h 6815 -6766 -6787 -6760 0
h -6815 6766 0
h -6815 6787 0
h -6815 6760 0
h -2703 6816 6812 6813 6814 6815 0
h 2703 -6816 0
h 2703 -6812 0
h 2703 -6813 0
h 2703 -6814 0
h 2703 -6815 0
h 6817 -6766 -6791 0
h -6817 6766 0
h -6817 6791 0
h 6818 -6763 -6793 0
h -6818 6763 0
h -6818 6793 0
h 6819 -6763 -6791 0
h -6819 6763 0
h -6819 6791 0
h 6820 -6766 -6793 -6760 0
h -6820 6766 0
h -6820 6793 0
h -6820 6760 0
h -2710 6821 6817 6818 6819 6820 0
h 2710 -6821 0
h 2710 -6817 0
h 2710 -6818 0
h 2710 -6819 0
h 2710 -6820 0
h 6822 -6772 -6791 0
h -6822 6772 0
h -6822 6791 0
h 6823 -6770 -6791 0
h -6823 6770 0
h -6823 6791 0
h 6824 -6770 -6793 0
h -6824 6770 0
h -6824 6793 0
h 6825 -6772 -6793 -6760 0
h -6825 6772 0
h -6825 6793 0
h -6825 6760 0
h -2717 6826 6822 6823 6824 6825 0
h 2717 -6826 0
h 2717 -6822 0
h 2717 -6823 0
h 2717 -6824 0
h 2717 -6825 0
h 6827 -6787 -6779 0
h -6827 6787 0
h -6827 6779 0
h 6828 -6784 -6777 0
h -6828 6784 0
h -6828 6777 0
h 6829 -6784 -6779 0
h -6829 6784 0
h -6829 6779 0
h 6830 -6787 -6777 -6760 0
h -6830 6787 0
h -6830 6777 0
h -6830 6760 0
h -2701 6831 6827 6828 6829 6830 0
h 2701 -6831 0
h 2701 -6827 0
h 2701 -6828 0
h 2701 -6829 0
h 2701 -6830 0
h 6832 -6787 -6770 0
h -6832 6787 0
h -6832 6770 0
h 6833 -6784 -6772 0
h -6833 6784 0
h -6833 6772 0
h 6834 -6784 -6770 0
h -6834 6784 0
h -6834 6770 0
h 6835 -6787 -6772 -6760 0
h -6835 6787 0
h -6835 6772 0
h -6835 6760 0
h -2722 6836 6832 6833 6834 6835 0
h 2722 -6836 0
h 2722 -6832 0
h 2722 -6833 0
h 2722 -6834 0
h 2722 -6835 0
h 6837 -6787 -6784 0
h -6837 6787 0
h -6837 6784 0
h 6838 -6784 -6784 0
h -6838 6784 0
h -6838 6784 0
h 6839 -6784 -6787 0
h -6839 6784 0
h -6839 6787 0
h 6840 -6787 -6787 -6760 0
h -6840 6787 0
h -6840 6787 0
h -6840 6760 0
h -2728 6841 6837 6838 6839 6840 0
h 2728 -6841 0
h 2728 -6837 0
h 2728 -6838 0
h 2728 -6839 0
h 2728 -6840 0
h 6842 -6843 -6844 0
h -6842 6843 0
h -6842 6844 0
h 6845 -6844 -6844 0
h -6845 6844 0
h -6845 6844 0
h 6846 -6844 -6843 0
h -6846 6844 0
h -6846 6843 0
h 6847 -6843 -6843 -6848 0
h -6847 6843 0
h -6847 6843 0
h -6847 6848 0
h -3197 6849 6842 6845 6846 6847 0
h 3197 -6849 0
h 3197 -6842 0
h 3197 -6845 0
h 3197 -6846 0
h 3197 -6847 0
h 6850 -6843 -6851 0
h -6850 6843 0
h -6850 6851 0
h 6852 -6844 -6851 0
h -6852 6844 0
h -6852 6851 0
h 6853 -6844 -6854 0
h -6853 6844 0
h -6853 6854 0
h 6855 -6843 -6854 -6848 0
h -6855 6843 0
h -6855 6854 0
h -6855 6848 0
h -3193 6856 6850 6852 6853 6855 0
h 3193 -6856 0
h 3193 -6850 0
h 3193 -6852 0
h 3193 -6853 0
h 3193 -6855 0
h 6857 -6843 -6858 0
h -6857 6843 0
h -6857 6858 0
h 6859 -6844 -6860 0
h -6859 6844 0
h -6859 6860 0
h 6861 -6844 -6858 0
h -6861 6844 0
h -6861 6858 0
h 6862 -6843 -6860 -6848 0
h -6862 6843 0
h -6862 6860 0
h -6862 6848 0
h -3211 6863 6857 6859 6861 6862 0
h 3211 -6863 0
h 3211 -6857 0
h 3211 -6859 0
h 3211 -6861 0
h 3211 -6862 0
h 6864 -6865 -6858 0
h -6864 6865 0
h -6864 6858 0
h 6866 -6867 -6858 0
h -6866 6867 0
h -6866 6858 0
h 6868 -6867 -6860 0
h -6868 6867 0
h -6868 6860 0
h 6869 -6865 -6860 -6848 0
h -6869 6865 0
h -6869 6860 0
h -6869 6848 0
h -2143 6870 6864 6866 6868 6869 0
h 2143 -6870 0
h 2143 -6864 0
h 2143 -6866 0
h 2143 -6868 0
h 2143 -6869 0
h 6871 -6843 -6872 0
h -6871 6843 0
h -6871 6872 0
h 6873 -6844 -6872 0
h -6873 6844 0
h -6873 6872 0
h 6874 -6844 -6875 0
h -6874 6844 0
h -6874 6875 0
h 6876 -6843 -6875 -6848 0
h -6876 6843 0
h -6876 6875 0
h -6876 6848 0
h -3200 6877 6871 6873 6874 6876 0
h 3200 -6877 0
h 3200 -6871 0
h 3200 -6873 0
h 3200 -6874 0
h 3200 -6876 0
h 6878 -6843 -6879 0
h -6878 6843 0
h -6878 6879 0
h 6880 -6844 -6881 0
h -6880 6844 0
h -6880 6881 0
h 6882 -6844 -6879 0
h -6882 6844 0
h -6882 6879 0
h 6883 -6843 -6881 -6848 0
h -6883 6843 0
h -6883 6881 0
h -6883 6848 0
h -3205 6884 6878 6880 6882 6883 0
h 3205 -6884 0
h 3205 -6878 0
h 3205 -6880 0
h 3205 -6882 0
h 3205 -6883 0
h 6885 -6865 -6879 0
h -6885 6865 0
h -6885 6879 0
h 6886 -6867 -6879 0
h -6886 6867 0
h -6886 6879 0
h 6887 -6867 -6881 0
h -6887 6867 0
h -6887 6881 0
h 6888 -6865 -6881 -6848 0
h -6888 6865 0
h -6888 6881 0
h -6888 6848 0
h -2140 6889 6885 6886 6887 6888 0
h 2140 -6889 0
h 2140 -6885 0
h 2140 -6886 0
h 2140 -6887 0
h 2140 -6888 0
h 6890 -6854 -6867 0
h -6890 6854 0
h -6890 6867 0
h 6891 -6851 -6865 0
h -6891 6851 0
h -6891 6865 0
h 6892 -6851 -6867 0
h -6892 6851 0
h -6892 6867 0
h 6893 -6854 -6865 -6848 0
h -6893 6854 0
h -6893 6865 0
h -6893 6848 0
h -2133 6894 6890 6891 6892 6893 0
h 2133 -6894 0
h 2133 -6890 0
h 2133 -6891 0
h 2133 -6892 0
h 2133 -6893 0
h 6895 -6854 -6851 0
h -6895 6854 0
h -6895 6851 0
h 6896 -6851 -6851 0
h -6896 6851 0
h -6896 6851 0
h 6897 -6851 -6854 0
h -6897 6851 0
h -6897 6854 0
h 6898 -6854 -6854 -6848 0
h -6898 6854 0
h -6898 6854 0
h -6898 6848 0
h -2135 6899 6895 6896 6897 6898 0
h 2135 -6899 0
h 2135 -6895 0
h 2135 -6896 0
h 2135 -6897 0
h 2135 -6898 0
h 6900 -6854 -6872 0
h -6900 6854 0
h -6900 6872 0
h 6901 -6851 -6872 0
h -6901 6851 0
h -6901 6872 0
h 6902 -6851 -6875 0
h -6902 6851 0
h -6902 6875 0
h 6903 -6854 -6875 -6848 0
h -6903 6854 0
h -6903 6875 0
h -6903 6848 0
h -2138 6904 6900 6901 6902 6903 0
h 2138 -6904 0
h 2138 -6900 0
h 2138 -6901 0
h 2138 -6902 0
h 2138 -6903 0
h 6905 -6854 -6879 0
h -6905 6854 0
h -6905 6879 0
h 6906 -6851 -6881 0
h -6906 6851 0
h -6906 6881 0
h 6907 -6851 -6879 0
h -6907 6851 0
h -6907 6879 0
h 6908 -6854 -6881 -6848 0
h -6908 6854 0
h -6908 6881 0
h -6908 6848 0
h -2141 6909 6905 6906 6907 6908 0
h 2141 -6909 0
h 2141 -6905 0
h 2141 -6906 0
h 2141 -6907 0
h 2141 -6908 0
h 6910 -6860 -6879 0
h -6910 6860 0
h -6910 6879 0
h 6911 -6858 -6879 0
h -6911 6858 0
h -6911 6879 0
h 6912 -6858 -6881 0
h -6912 6858 0
h -6912 6881 0
h 6913 -6860 -6881 -6848 0
h -6913 6860 0
h -6913 6881 0
h -6913 6848 0
h -2144 6914 6910 6911 6912 6913 0
h 2144 -6914 0
h 2144 -6910 0
h 2144 -6911 0
h 2144 -6912 0
h 2144 -6913 0
h 6915 -6875 -6867 0
h -6915 6875 0
h -6915 6867 0
h 6916 -6872 -6865 0
h -6916 6872 0
h -6916 6865 0
h 6917 -6872 -6867 0
h -6917 6872 0
h -6917 6867 0
h 6918 -6875 -6865 -6848 0
h -6918 6875 0
h -6918 6865 0
h -6918 6848 0
h -2137 6919 6915 6916 6917 6918 0
h 2137 -6919 0
h 2137 -6915 0
h 2137 -6916 0
h 2137 -6917 0
h 2137 -6918 0
h 6920 -6875 -6858 0
h -6920 6875 0
h -6920 6858 0
h 6921 -6872 -6860 0
h -6921 6872 0
h -6921 6860 0
h 6922 -6872 -6858 0
h -6922 6872 0
h -6922 6858 0
h 6923 -6875 -6860 -6848 0
h -6923 6875 0
h -6923 6860 0
h -6923 6848 0
h -2146 6924 6920 6921 6922 6923 0
h 2146 -6924 0
h 2146 -6920 0
h 2146 -6921 0
h 2146 -6922 0
h 2146 -6923 0
h 6925 -6875 -6872 0
h -6925 6875 0
h -6925 6872 0
h 6926 -6872 -6872 0
h -6926 6872 0
h -6926 6872 0
h 6927 -6872 -6875 0
h -6927 6872 0
h -6927 6875 0
h 6928 -6875 -6875 -6848 0
h -6928 6875 0
h -6928 6875 0
h -6928 6848 0
h -2149 6929 6925 6926 6927 6928 0
h 2149 -6929 0
h 2149 -6925 0
h 2149 -6926 0
h 2149 -6927 0
h 2149 -6928 0
h 6930 -6931 -6931 0
h -6930 6931 0
h -6930 6931 0
h -5972 6932 6930 0
h 5972 -6932 0
h 5972 -6930 0
h 6933 -6931 -6934 0
h -6933 6931 0
h -6933 6934 0
h -5968 6935 6933 0
h 5968 -6935 0
h 5968 -6933 0
h 6936 -6931 -6937 0
h -6936 6931 0
h -6936 6937 0
h -5986 6938 6936 0
h 5986 -6938 0
h 5986 -6936 0
h 6939 -6940 -6937 0
h -6939 6940 0
h -6939 6937 0
h -4062 6941 6939 0
h 4062 -6941 0
h 4062 -6939 0
h 6942 -6931 -6943 0
h -6942 6931 0
h -6942 6943 0
h -5975 6944 6942 0
h 5975 -6944 0
h 5975 -6942 0
h 6945 -6931 -6946 0
h -6945 6931 0
h -6945 6946 0
h -5980 6947 6945 0
h 5980 -6947 0
h 5980 -6945 0
h 6948 -6940 -6946 0
h -6948 6940 0
h -6948 6946 0
h -4059 6949 6948 0
h 4059 -6949 0
h 4059 -6948 0
h 6950 -6934 -6940 0
h -6950 6934 0
h -6950 6940 0
h -4052 6951 6950 0
h 4052 -6951 0
h 4052 -6950 0
h 6952 -6934 -6934 0
h -6952 6934 0
h -6952 6934 0
h -4054 6953 6952 0
h 4054 -6953 0
h 4054 -6952 0
h 6954 -6934 -6943 0
h -6954 6934 0
h -6954 6943 0
h -4057 6955 6954 0
h 4057 -6955 0
h 4057 -6954 0
h 6956 -6934 -6946 0
h -6956 6934 0
h -6956 6946 0
h -4060 6957 6956 0
h 4060 -6957 0
h 4060 -6956 0
h 6958 -6937 -6946 0
h -6958 6937 0
h -6958 6946 0
h -4063 6959 6958 0
h 4063 -6959 0
h 4063 -6958 0
h 6960 -6943 -6940 0
h -6960 6943 0
h -6960 6940 0
h -4056 6961 6960 0
h 4056 -6961 0
h 4056 -6960 0
h 6962 -6943 -6937 0
h -6962 6943 0
h -6962 6937 0
h -4065 6963 6962 0
h 4065 -6963 0
h 4065 -6962 0
h 6964 -6943 -6943 0
h -6964 6943 0
h -6964 6943 0
h -4068 6965 6964 0
h 4068 -6965 0
h 4068 -6964 0
h 6966 -6967 -6967 0
h -6966 6967 0
h -6966 6967 0
h -4653 6968 6966 0
h 4653 -6968 0
h 4653 -6966 0
h 6969 -6967 -6970 0
h -6969 6967 0
h -6969 6970 0
h -4649 6971 6969 0
h 4649 -6971 0
h 4649 -6969 0
h 6972 -6967 -6973 0
h -6972 6967 0
h -6972 6973 0
h -4673 6974 6972 0
h 4673 -6974 0
h 4673 -6972 0
h 6975 -6976 -6973 0
h -6975 6976 0
h -6975 6973 0
h -4671 6977 6975 0
h 4671 -6977 0
h 4671 -6975 0
h 6978 -6967 -6979 0
h -6978 6967 0
h -6978 6979 0
h -4657 6980 6978 0
h 4657 -6980 0
h 4657 -6978 0
h 6981 -6967 -6982 0
h -6981 6967 0
h -6981 6982 0
h -4664 6983 6981 0
h 4664 -6983 0
h 4664 -6981 0
h 6984 -6976 -6982 0
h -6984 6976 0
h -6984 6982 0
h -4666 6985 6984 0
h 4666 -6985 0
h 4666 -6984 0
h 6986 -6970 -6976 0
h -6986 6970 0
h -6986 6976 0
h -4648 6987 6986 0
h 4648 -6987 0
h 4648 -6986 0
h 6988 -6970 -6970 0
h -6988 6970 0
h -6988 6970 0
h -4655 6989 6988 0
h 4655 -6989 0
h 4655 -6988 0
h 6990 -6970 -6979 0
h -6990 6970 0
h -6990 6979 0
h -4662 6991 6990 0
h 4662 -6991 0
h 4662 -6990 0
h 6992 -6970 -6982 0
h -6992 6970 0
h -6992 6982 0
h -4669 6993 6992 0
h 4669 -6993 0
h 4669 -6992 0
h 6994 -6973 -6982 0
h -6994 6973 0
h -6994 6982 0
h -4676 6995 6994 0
h 4676 -6995 0
h 4676 -6994 0
h 6996 -6979 -6976 0
h -6996 6979 0
h -6996 6976 0
h -4660 6997 6996 0
h 4660 -6997 0
h 4660 -6996 0
h 6998 -6979 -6973 0
h -6998 6979 0
h -6998 6973 0
h -4681 6999 6998 0
h 4681 -6999 0
h 4681 -6998 0
h 7000 -6979 -6979 0
h -7000 6979 0
h -7000 6979 0
h -4687 7001 7000 0
h 4687 -7001 0
h 4687 -7000 0
h 7002 -6599 -6599 0
h -7002 6599 0
h -7002 6599 0
h -2301 6585 7002 0
h 2301 -6585 0
h 2301 -7002 0
h 7003 -6599 -6594 0
h -7003 6599 0
h -7003 6594 0
h -2295 6580 7003 0
h 2295 -6580 0
h 2295 -7003 0
h 7004 -6599 -6596 0
h -7004 6599 0
h -7004 6596 0
h -2294 6579 7004 0
h 2294 -6579 0
h 2294 -7004 0
h 7005 -6606 -6596 0
h -7005 6606 0
h -7005 6596 0
h -2317 6601 7005 0
h 2317 -6601 0
h 2317 -7005 0
h 7006 -6599 -6660 0
h -7006 6599 0
h -7006 6660 0
h -2308 6613 7006 0
h 2308 -6613 0
h 2308 -7006 0
h 7007 -6599 -6650 0
h -7007 6599 0
h -7007 6650 0
h -2315 6620 7007 0
h 2315 -6620 0
h 2315 -7007 0
h 7008 -6606 -6650 0
h -7008 6606 0
h -7008 6650 0
h -2322 6625 7008 0
h 2322 -6625 0
h 2322 -7008 0
h 7009 -6594 -6606 0
h -7009 6594 0
h -7009 6606 0
h -2319 6603 7009 0
h 2319 -6603 0
h 2319 -7009 0
h 7010 -6594 -6594 0
h -7010 6594 0
h -7010 6594 0
h -2299 6584 7010 0
h 2299 -6584 0
h 2299 -7010 0
h 7011 -6594 -6660 0
h -7011 6594 0
h -7011 6660 0
h -2303 6608 7011 0
h 2303 -6608 0
h 2303 -7011 0
h 7012 -6594 -6650 0
h -7012 6594 0
h -7012 6650 0
h -2310 6615 7012 0
h 2310 -6615 0
h 2310 -7012 0
h 7013 -6596 -6650 0
h -7013 6596 0
h -7013 6650 0
h -2312 6617 7013 0
h 2312 -6617 0
h 2312 -7013 0
h 7014 -6660 -6606 0
h -7014 6660 0
h -7014 6606 0
h -2327 6655 7014 0
h 2327 -6655 0
h 2327 -7014 0
h 7015 -6660 -6596 0
h -7015 6660 0
h -7015 6596 0
h -2306 6611 7015 0
h 2306 -6611 0
h 2306 -7015 0
h 7016 -6660 -6660 0
h -7016 6660 0
h -7016 6660 0
h -2333 6665 7016 0
h 2333 -6665 0
h 2333 -7016 0
h 7017 -7018 -7018 0
h -7017 7018 0
h -7017 7018 0
h -3341 7019 7017 0
h 3341 -7019 0
h 3341 -7017 0
h 7020 -7018 -7021 0
h -7020 7018 0
h -7020 7021 0
h -3337 7022 7020 0
h 3337 -7022 0
h 3337 -7020 0
h 7023 -7018 -7024 0
h -7023 7018 0
h -7023 7024 0
h -3361 7025 7023 0
h 3361 -7025 0
h 3361 -7023 0
h 7026 -7027 -7024 0
h -7026 7027 0
h -7026 7024 0
h -3359 7028 7026 0
h 3359 -7028 0
h 3359 -7026 0
h 7029 -7018 -7030 0
h -7029 7018 0
h -7029 7030 0
h -3345 7031 7029 0
h 3345 -7031 0
h 3345 -7029 0
h 7032 -7018 -7033 0
h -7032 7018 0
h -7032 7033 0
h -3352 7034 7032 0
h 3352 -7034 0
h 3352 -7032 0
h 7035 -7027 -7033 0
h -7035 7027 0
h -7035 7033 0
h -3354 7036 7035 0
h 3354 -7036 0
h 3354 -7035 0
h 7037 -7021 -7027 0
h -7037 7021 0
h -7037 7027 0
h -3336 7038 7037 0
h 3336 -7038 0
h 3336 -7037 0
h 7039 -7021 -7021 0
h -7039 7021 0
h -7039 7021 0
h -3343 7040 7039 0
h 3343 -7040 0
h 3343 -7039 0
h 7041 -7021 -7030 0
h -7041 7021 0
h -7041 7030 0
h -3350 7042 7041 0
h 3350 -7042 0
h 3350 -7041 0
h 7043 -7021 -7033 0
h -7043 7021 0
h -7043 7033 0
h -3357 7044 7043 0
h 3357 -7044 0
h 3357 -7043 0
h 7045 -7024 -7033 0
h -7045 7024 0
h -7045 7033 0
h -3364 7046 7045 0
h 3364 -7046 0
h 3364 -7045 0
h 7047 -7030 -7027 0
h -7047 7030 0
h -7047 7027 0
h -3348 7048 7047 0
h 3348 -7048 0
h 3348 -7047 0
h 7049 -7030 -7024 0
h -7049 7030 0
h -7049 7024 0
h -3369 7050 7049 0
h 3369 -7050 0
h 3369 -7049 0
h 7051 -7030 -7030 0
h -7051 7030 0
h -7051 7030 0
h -3375 7052 7051 0
h 3375 -7052 0
h 3375 -7051 0
h 7053 -7054 -7055 0
h -7053 7054 0
h -7053 7055 0
h 7056 -7055 -7055 0
h -7056 7055 0
h -7056 7055 0
h 7057 -7055 -7054 0
h -7057 7055 0
h -7057 7054 0
h 7058 -7054 -7054 -7059 0
h -7058 7054 0
h -7058 7054 0
h -7058 7059 0
h -4283 7060 7053 7056 7057 7058 0
h 4283 -7060 0
h 4283 -7053 0
h 4283 -7056 0
h 4283 -7057 0
h 4283 -7058 0
h 7061 -7054 -7062 0
h -7061 7054 0
h -7061 7062 0
h 7063 -7055 -7062 0
h -7063 7055 0
h -7063 7062 0
h 7064 -7055 -7065 0
h -7064 7055 0
h -7064 7065 0
h 7066 -7054 -7065 -7059 0
h -7066 7054 0
h -7066 7065 0
h -7066 7059 0
h -4278 7067 7061 7063 7064 7066 0
h 4278 -7067 0
h 4278 -7061 0
h 4278 -7063 0
h 4278 -7064 0
h 4278 -7066 0
h 7068 -7054 -7069 0
h -7068 7054 0
h -7068 7069 0
h 7070 -7055 -7071 0
h -7070 7055 0
h -7070 7071 0
h 7072 -7055 -7069 0
h -7072 7055 0
h -7072 7069 0
h 7073 -7054 -7071 -7059 0
h -7073 7054 0
h -7073 7071 0
h -7073 7059 0
h -4277 7074 7068 7070 7072 7073 0
h 4277 -7074 0
h 4277 -7068 0
h 4277 -7070 0
h 4277 -7072 0
h 4277 -7073 0
h 7075 -7076 -7069 0
h -7075 7076 0
h -7075 7069 0
h 7077 -7078 -7069 0
h -7077 7078 0
h -7077 7069 0
h 7079 -7078 -7071 0
h -7079 7078 0
h -7079 7071 0
h 7080 -7076 -7071 -7059 0
h -7080 7076 0
h -7080 7071 0
h -7080 7059 0
h -4044 7081 7075 7077 7079 7080 0
h 4044 -7081 0
h 4044 -7075 0
h 4044 -7077 0
h 4044 -7079 0
h 4044 -7080 0
h 7082 -7054 -7083 0
h -7082 7054 0
h -7082 7083 0
h 7084 -7055 -7083 0
h -7084 7055 0
h -7084 7083 0
h 7085 -7055 -7086 0
h -7085 7055 0
h -7085 7086 0
h 7087 -7054 -7086 -7059 0
h -7087 7054 0
h -7087 7086 0
h -7087 7059 0
h -4288 7088 7082 7084 7085 7087 0
h 4288 -7088 0
h 4288 -7082 0
h 4288 -7084 0
h 4288 -7085 0
h 4288 -7087 0
h 7089 -7054 -7090 0
h -7089 7054 0
h -7089 7090 0
h 7091 -7055 -7092 0
h -7091 7055 0
h -7091 7092 0
h 7093 -7055 -7090 0
h -7093 7055 0
h -7093 7090 0
h 7094 -7054 -7092 -7059 0
h -7094 7054 0
h -7094 7092 0
h -7094 7059 0
h -4293 7095 7089 7091 7093 7094 0
h 4293 -7095 0
h 4293 -7089 0
h 4293 -7091 0
h 4293 -7093 0
h 4293 -7094 0
h 7096 -7076 -7090 0
h -7096 7076 0
h -7096 7090 0
h 7097 -7078 -7090 0
h -7097 7078 0
h -7097 7090 0
h 7098 -7078 -7092 0
h -7098 7078 0
h -7098 7092 0
h 7099 -7076 -7092 -7059 0
h -7099 7076 0
h -7099 7092 0
h -7099 7059 0
h -4041 7100 7096 7097 7098 7099 0
h 4041 -7100 0
h 4041 -7096 0
h 4041 -7097 0
h 4041 -7098 0
h 4041 -7099 0
h 7101 -7065 -7078 0
h -7101 7065 0
h -7101 7078 0
h 7102 -7062 -7076 0
h -7102 7062 0
h -7102 7076 0
h 7103 -7062 -7078 0
h -7103 7062 0
h -7103 7078 0
h 7104 -7065 -7076 -7059 0
h -7104 7065 0
h -7104 7076 0
h -7104 7059 0
h -4034 7105 7101 7102 7103 7104 0
h 4034 -7105 0
h 4034 -7101 0
h 4034 -7102 0
h 4034 -7103 0
h 4034 -7104 0
h 7106 -7065 -7062 0
h -7106 7065 0
h -7106 7062 0
h 7107 -7062 -7062 0
h -7107 7062 0
h -7107 7062 0
h 7108 -7062 -7065 0
h -7108 7062 0
h -7108 7065 0
h 7109 -7065 -7065 -7059 0
h -7109 7065 0
h -7109 7065 0
h -7109 7059 0
h -4036 7110 7106 7107 7108 7109 0
h 4036 -7110 0
h 4036 -7106 0
h 4036 -7107 0
h 4036 -7108 0
h 4036 -7109 0
h 7111 -7065 -7083 0
h -7111 7065 0
h -7111 7083 0
h 7112 -7062 -7083 0
h -7112 7062 0
h -7112 7083 0
h 7113 -7062 -7086 0
h -7113 7062 0
h -7113 7086 0
h 7114 -7065 -7086 -7059 0
h -7114 7065 0
h -7114 7086 0
h -7114 7059 0
h -4039 7115 7111 7112 7113 7114 0
h 4039 -7115 0
h 4039 -7111 0
h 4039 -7112 0
h 4039 -7113 0
h 4039 -7114 0
h 7116 -7065 -7090 0
h -7116 7065 0
h -7116 7090 0
h 7117 -7062 -7092 0
h -7117 7062 0
h -7117 7092 0
h 7118 -7062 -7090 0
h -7118 7062 0
h -7118 7090 0
h 7119 -7065 -7092 -7059 0
h -7119 7065 0
h -7119 7092 0
h -7119 7059 0
h -4042 7120 7116 7117 7118 7119 0
h 4042 -7120 0
h 4042 -7116 0
h 4042 -7117 0
h 4042 -7118 0
h 4042 -7119 0
h 7121 -7071 -7090 0
h -7121 7071 0
h -7121 7090 0
h 7122 -7069 -7090 0
h -7122 7069 0
h -7122 7090 0
h 7123 -7069 -7092 0
h -7123 7069 0
h -7123 7092 0
h 7124 -7071 -7092 -7059 0
h -7124 7071 0
h -7124 7092 0
h -7124 7059 0
h -4045 7125 7121 7122 7123 7124 0
h 4045 -7125 0
h 4045 -7121 0
h 4045 -7122 0
h 4045 -7123 0
h 4045 -7124 0
h 7126 -7086 -7078 0
h -7126 7086 0
h -7126 7078 0
h 7127 -7083 -7076 0
h -7127 7083 0
h -7127 7076 0
h 7128 -7083 -7078 0
h -7128 7083 0
h -7128 7078 0
h 7129 -7086 -7076 -7059 0
h -7129 7086 0
h -7129 7076 0
h -7129 7059 0
h -4038 7130 7126 7127 7128 7129 0
h 4038 -7130 0
h 4038 -7126 0
h 4038 -7127 0
h 4038 -7128 0
h 4038 -7129 0
h 7131 -7086 -7069 0
h -7131 7086 0
h -7131 7069 0
h 7132 -7083 -7071 0
h -7132 7083 0
h -7132 7071 0
h 7133 -7083 -7069 0
h -7133 7083 0
h -7133 7069 0
h 7134 -7086 -7071 -7059 0
h -7134 7086 0
h -7134 7071 0
h -7134 7059 0
h -4047 7135 7131 7132 7133 7134 0
h 4047 -7135 0
h 4047 -7131 0
h 4047 -7132 0
h 4047 -7133 0
h 4047 -7134 0
h 7136 -7086 -7083 0
h -7136 7086 0
h -7136 7083 0
h 7137 -7083 -7083 0
h -7137 7083 0
h -7137 7083 0
h 7138 -7083 -7086 0
h -7138 7083 0
h -7138 7086 0
h 7139 -7086 -7086 -7059 0
h -7139 7086 0
h -7139 7086 0
h -7139 7059 0
h -4050 7140 7136 7137 7138 7139 0
h 4050 -7140 0
h 4050 -7136 0
h 4050 -7137 0
h 4050 -7138 0
h 4050 -7139 0
h 7141 -7142 -7143 0
h -7141 7142 0
h -7141 7143 0
h 7144 -7143 -7143 0
h -7144 7143 0
h -7144 7143 0
h 7145 -7143 -7142 0
h -7145 7143 0
h -7145 7142 0
h 7146 -7142 -7142 -7147 0
h -7146 7142 0
h -7146 7142 0
h -7146 7147 0
h -4752 7148 7141 7144 7145 7146 0
h 4752 -7148 0
h 4752 -7141 0
h 4752 -7144 0
h 4752 -7145 0
h 4752 -7146 0
h 7149 -7142 -7150 0
h -7149 7142 0
h -7149 7150 0
h 7151 -7143 -7150 0
h -7151 7143 0
h -7151 7150 0
h 7152 -7143 -7153 0
h -7152 7143 0
h -7152 7153 0
h 7154 -7142 -7153 -7147 0
h -7154 7142 0
h -7154 7153 0
h -7154 7147 0
h -4748 7155 7149 7151 7152 7154 0
h 4748 -7155 0
h 4748 -7149 0
h 4748 -7151 0
h 4748 -7152 0
h 4748 -7154 0
h 7156 -7142 -7157 0
h -7156 7142 0
h -7156 7157 0
h 7158 -7143 -7159 0
h -7158 7143 0
h -7158 7159 0
h 7160 -7143 -7157 0
h -7160 7143 0
h -7160 7157 0
h 7161 -7142 -7159 -7147 0
h -7161 7142 0
h -7161 7159 0
h -7161 7147 0
h -4772 7162 7156 7158 7160 7161 0
h 4772 -7162 0
h 4772 -7156 0
h 4772 -7158 0
h 4772 -7160 0
h 4772 -7161 0
h 7163 -7164 -7157 0
h -7163 7164 0
h -7163 7157 0
h 7165 -7166 -7157 0
h -7165 7166 0
h -7165 7157 0
h 7167 -7166 -7159 0
h -7167 7166 0
h -7167 7159 0
h 7168 -7164 -7159 -7147 0
h -7168 7164 0
h -7168 7159 0
h -7168 7147 0
h -4770 7169 7163 7165 7167 7168 0
h 4770 -7169 0
h 4770 -7163 0
h 4770 -7165 0
h 4770 -7167 0
h 4770 -7168 0
h 7170 -7142 -7171 0
h -7170 7142 0
h -7170 7171 0
h 7172 -7143 -7171 0
h -7172 7143 0
h -7172 7171 0
h 7173 -7143 -7174 0
h -7173 7143 0
h -7173 7174 0
h 7175 -7142 -7174 -7147 0
h -7175 7142 0
h -7175 7174 0
h -7175 7147 0
h -4756 7176 7170 7172 7173 7175 0
h 4756 -7176 0
h 4756 -7170 0
h 4756 -7172 0
h 4756 -7173 0
h 4756 -7175 0
h 7177 -7142 -7178 0
h -7177 7142 0
h -7177 7178 0
h 7179 -7143 -7180 0
h -7179 7143 0
h -7179 7180 0
h 7181 -7143 -7178 0
h -7181 7143 0
h -7181 7178 0
h 7182 -7142 -7180 -7147 0
h -7182 7142 0
h -7182 7180 0
h -7182 7147 0
h -4763 7183 7177 7179 7181 7182 0
h 4763 -7183 0
h 4763 -7177 0
h 4763 -7179 0
h 4763 -7181 0
h 4763 -7182 0
h 7184 -7164 -7178 0
h -7184 7164 0
h -7184 7178 0
h 7185 -7166 -7178 0
h -7185 7166 0
h -7185 7178 0
h 7186 -7166 -7180 0
h -7186 7166 0
h -7186 7180 0
h 7187 -7164 -7180 -7147 0
h -7187 7164 0
h -7187 7180 0
h -7187 7147 0
h -4765 7188 7184 7185 7186 7187 0
h 4765 -7188 0
h 4765 -7184 0
h 4765 -7185 0
h 4765 -7186 0
h 4765 -7187 0
h 7189 -7153 -7166 0
h -7189 7153 0
h -7189 7166 0
h 7190 -7150 -7164 0
h -7190 7150 0
h -7190 7164 0
h 7191 -7150 -7166 0
h -7191 7150 0
h -7191 7166 0
h 7192 -7153 -7164 -7147 0
h -7192 7153 0
h -7192 7164 0
h -7192 7147 0
h -4747 7193 7189 7190 7191 7192 0
h 4747 -7193 0
h 4747 -7189 0
h 4747 -7190 0
h 4747 -7191 0
h 4747 -7192 0
h 7194 -7153 -7150 0
h -7194 7153 0
h -7194 7150 0
h 7195 -7150 -7150 0
h -7195 7150 0
h -7195 7150 0
h 7196 -7150 -7153 0
h -7196 7150 0
h -7196 7153 0
h 7197 -7153 -7153 -7147 0
h -7197 7153 0
h -7197 7153 0
h -7197 7147 0
h -4754 7198 7194 7195 7196 7197 0
h 4754 -7198 0
h 4754 -7194 0
h 4754 -7195 0
h 4754 -7196 0
h 4754 -7197 0
h 7199 -7153 -7171 0
h -7199 7153 0
h -7199 7171 0
h 7200 -7150 -7171 0
h -7200 7150 0
h -7200 7171 0
h 7201 -7150 -7174 0
h -7201 7150 0
h -7201 7174 0
h 7202 -7153 -7174 -7147 0
h -7202 7153 0
h -7202 7174 0
h -7202 7147 0
h -4761 7203 7199 7200 7201 7202 0
h 4761 -7203 0
h 4761 -7199 0
h 4761 -7200 0
h 4761 -7201 0
h 4761 -7202 0
h 7204 -7153 -7178 0
h -7204 7153 0
h -7204 7178 0
h 7205 -7150 -7180 0
h -7205 7150 0
h -7205 7180 0
h 7206 -7150 -7178 0
h -7206 7150 0
h -7206 7178 0
h 7207 -7153 -7180 -7147 0
h -7207 7153 0
h -7207 7180 0
h -7207 7147 0
h -4768 7208 7204 7205 7206 7207 0
h 4768 -7208 0
h 4768 -7204 0
h 4768 -7205 0
h 4768 -7206 0
h 4768 -7207 0
h 7209 -7159 -7178 0
h -7209 7159 0
h -7209 7178 0
h 7210 -7157 -7178 0
h -7210 7157 0
h -7210 7178 0
h 7211 -7157 -7180 0
h -7211 7157 0
h -7211 7180 0
h 7212 -7159 -7180 -7147 0
h -7212 7159 0
h -7212 7180 0
h -7212 7147 0
h -4775 7213 7209 7210 7211 7212 0
h 4775 -7213 0
h 4775 -7209 0
h 4775 -7210 0
h 4775 -7211 0
h 4775 -7212 0
h 7214 -7174 -7166 0
h -7214 7174 0
h -7214 7166 0
h 7215 -7171 -7164 0
h -7215 7171 0
h -7215 7164 0
h 7216 -7171 -7166 0
h -7216 7171 0
h -7216 7166 0
h 7217 -7174 -7164 -7147 0
h -7217 7174 0
h -7217 7164 0
h -7217 7147 0
h -4759 7218 7214 7215 7216 7217 0
h 4759 -7218 0
h 4759 -7214 0
h 4759 -7215 0
h 4759 -7216 0
h 4759 -7217 0
h 7219 -7174 -7157 0
h -7219 7174 0
h -7219 7157 0
h 7220 -7171 -7159 0
h -7220 7171 0
h -7220 7159 0
h 7221 -7171 -7157 0
h -7221 7171 0
h -7221 7157 0
h 7222 -7174 -7159 -7147 0
h -7222 7174 0
h -7222 7159 0
h -7222 7147 0
h -4780 7223 7219 7220 7221 7222 0
h 4780 -7223 0
h 4780 -7219 0
h 4780 -7220 0
h 4780 -7221 0
h 4780 -7222 0
h 7224 -7174 -7171 0
h -7224 7174 0
h -7224 7171 0
h 7225 -7171 -7171 0
h -7225 7171 0
h -7225 7171 0
h 7226 -7171 -7174 0
h -7226 7171 0
h -7226 7174 0
h 7227 -7174 -7174 -7147 0
h -7227 7174 0
h -7227 7174 0
h -7227 7147 0
h -4786 7228 7224 7225 7226 7227 0
h 4786 -7228 0
h 4786 -7224 0
h 4786 -7225 0
h 4786 -7226 0
h 4786 -7227 0
h 7229 -7230 -7231 0
h -7229 7230 0
h -7229 7231 0
h 7232 -7231 -7231 0
h -7232 7231 0
h -7232 7231 0
h 7233 -7231 -7230 0
h -7233 7231 0
h -7233 7230 0
h 7234 -7230 -7230 -7235 0
h -7234 7230 0
h -7234 7230 0
h -7234 7235 0
h -2904 7236 7229 7232 7233 7234 0
h 2904 -7236 0
h 2904 -7229 0
h 2904 -7232 0
h 2904 -7233 0
h 2904 -7234 0
h 7237 -7230 -7238 0
h -7237 7230 0
h -7237 7238 0
h 7239 -7231 -7238 0
h -7239 7231 0
h -7239 7238 0
h 7240 -7231 -7241 0
h -7240 7231 0
h -7240 7241 0
h 7242 -7230 -7241 -7235 0
h -7242 7230 0
h -7242 7241 0
h -7242 7235 0
h -2900 7243 7237 7239 7240 7242 0
h 2900 -7243 0
h 2900 -7237 0
h 2900 -7239 0
h 2900 -7240 0
h 2900 -7242 0
h 7244 -7230 -7245 0
h -7244 7230 0
h -7244 7245 0
h 7246 -7231 -7247 0
h -7246 7231 0
h -7246 7247 0
h 7248 -7231 -7245 0
h -7248 7231 0
h -7248 7245 0
h 7249 -7230 -7247 -7235 0
h -7249 7230 0
h -7249 7247 0
h -7249 7235 0
h -2924 7250 7244 7246 7248 7249 0
h 2924 -7250 0
h 2924 -7244 0
h 2924 -7246 0
h 2924 -7248 0
h 2924 -7249 0
h 7251 -7252 -7245 0
h -7251 7252 0
h -7251 7245 0
h 7253 -7254 -7245 0
h -7253 7254 0
h -7253 7245 0
h 7255 -7254 -7247 0
h -7255 7254 0
h -7255 7247 0
h 7256 -7252 -7247 -7235 0
h -7256 7252 0
h -7256 7247 0
h -7256 7235 0
h -2922 7257 7251 7253 7255 7256 0
h 2922 -7257 0
h 2922 -7251 0
h 2922 -7253 0
h 2922 -7255 0
h 2922 -7256 0
h 7258 -7230 -7259 0
h -7258 7230 0
h -7258 7259 0
h 7260 -7231 -7259 0
h -7260 7231 0
h -7260 7259 0
h 7261 -7231 -7262 0
h -7261 7231 0
h -7261 7262 0
h 7263 -7230 -7262 -7235 0
h -7263 7230 0
h -7263 7262 0
h -7263 7235 0
h -2908 7264 7258 7260 7261 7263 0
h 2908 -7264 0
h 2908 -7258 0
h 2908 -7260 0
h 2908 -7261 0
h 2908 -7263 0
h 7265 -7230 -7266 0
h -7265 7230 0
h -7265 7266 0
h 7267 -7231 -7268 0
h -7267 7231 0
h -7267 7268 0
h 7269 -7231 -7266 0
h -7269 7231 0
h -7269 7266 0
h 7270 -7230 -7268 -7235 0
h -7270 7230 0
h -7270 7268 0
h -7270 7235 0
h -2915 7271 7265 7267 7269 7270 0
h 2915 -7271 0
h 2915 -7265 0
h 2915 -7267 0
h 2915 -7269 0
h 2915 -7270 0
h 7272 -7252 -7266 0
h -7272 7252 0
h -7272 7266 0
h 7273 -7254 -7266 0
h -7273 7254 0
h -7273 7266 0
h 7274 -7254 -7268 0
h -7274 7254 0
h -7274 7268 0
h 7275 -7252 -7268 -7235 0
h -7275 7252 0
h -7275 7268 0
h -7275 7235 0
h -2917 7276 7272 7273 7274 7275 0
h 2917 -7276 0
h 2917 -7272 0
h 2917 -7273 0
h 2917 -7274 0
h 2917 -7275 0
h 7277 -7241 -7254 0
h -7277 7241 0
h -7277 7254 0
h 7278 -7238 -7252 0
h -7278 7238 0
h -7278 7252 0
h 7279 -7238 -7254 0
h -7279 7238 0
h -7279 7254 0
h 7280 -7241 -7252 -7235 0
h -7280 7241 0
h -7280 7252 0
h -7280 7235 0
h -2899 7281 7277 7278 7279 7280 0
h 2899 -7281 0
h 2899 -7277 0
h 2899 -7278 0
h 2899 -7279 0
h 2899 -7280 0
h 7282 -7241 -7238 0
h -7282 7241 0
h -7282 7238 0
h 7283 -7238 -7238 0
h -7283 7238 0
h -7283 7238 0
h 7284 -7238 -7241 0
h -7284 7238 0
h -7284 7241 0
h 7285 -7241 -7241 -7235 0
h -7285 7241 0
h -7285 7241 0
h -7285 7235 0
h -2906 7286 7282 7283 7284 7285 0
h 2906 -7286 0
h 2906 -7282 0
h 2906 -7283 0
h 2906 -7284 0
h 2906 -7285 0
h 7287 -7241 -7259 0
h -7287 7241 0
h -7287 7259 0
h 7288 -7238 -7259 0
h -7288 7238 0
h -7288 7259 0
h 7289 -7238 -7262 0
h -7289 7238 0
h -7289 7262 0
h 7290 -7241 -7262 -7235 0
h -7290 7241 0
h -7290 7262 0
h -7290 7235 0
h -2913 7291 7287 7288 7289 7290 0
h 2913 -7291 0
h 2913 -7287 0
h 2913 -7288 0
h 2913 -7289 0
h 2913 -7290 0
h 7292 -7241 -7266 0
h -7292 7241 0
h -7292 7266 0
h 7293 -7238 -7268 0
h -7293 7238 0
h -7293 7268 0
h 7294 -7238 -7266 0
h -7294 7238 0
h -7294 7266 0
h 7295 -7241 -7268 -7235 0
h -7295 7241 0
h -7295 7268 0
h -7295 7235 0
h -2920 7296 7292 7293 7294 7295 0
h 2920 -7296 0
h 2920 -7292 0
h 2920 -7293 0
h 2920 -7294 0
h 2920 -7295 0
h 7297 -7247 -7266 0
h -7297 7247 0
h -7297 7266 0
h 7298 -7245 -7266 0
h -7298 7245 0
h -7298 7266 0
h 7299 -7245 -7268 0
h -7299 7245 0
h -7299 7268 0
h 7300 -7247 -7268 -7235 0
h -7300 7247 0
h -7300 7268 0
h -7300 7235 0
h -2927 7301 7297 7298 7299 7300 0
h 2927 -7301 0
h 2927 -7297 0
h 2927 -7298 0
h 2927 -7299 0
h 2927 -7300 0
h 7302 -7262 -7254 0
h -7302 7262 0
h -7302 7254 0
h 7303 -7259 -7252 0
h -7303 7259 0
h -7303 7252 0
h 7304 -7259 -7254 0
h -7304 7259 0
h -7304 7254 0
h 7305 -7262 -7252 -7235 0
h -7305 7262 0
h -7305 7252 0
h -7305 7235 0
h -2911 7306 7302 7303 7304 7305 0
h 2911 -7306 0
h 2911 -7302 0
h 2911 -7303 0
h 2911 -7304 0
h 2911 -7305 0
h 7307 -7262 -7245 0
h -7307 7262 0
h -7307 7245 0
h 7308 -7259 -7247 0
h -7308 7259 0
h -7308 7247 0
h 7309 -7259 -7245 0
h -7309 7259 0
h -7309 7245 0
h 7310 -7262 -7247 -7235 0
h -7310 7262 0
h -7310 7247 0
h -7310 7235 0
h -2932 7311 7307 7308 7309 7310 0
h 2932 -7311 0
h 2932 -7307 0
h 2932 -7308 0
h 2932 -7309 0
h 2932 -7310 0
h 7312 -7262 -7259 0
h -7312 7262 0
h -7312 7259 0
h 7313 -7259 -7259 0
h -7313 7259 0
h -7313 7259 0
h 7314 -7259 -7262 0
h -7314 7259 0
h -7314 7262 0
h 7315 -7262 -7262 -7235 0
h -7315 7262 0
h -7315 7262 0
h -7315 7235 0
h -2938 7316 7312 7313 7314 7315 0
h 2938 -7316 0
h 2938 -7312 0
h 2938 -7313 0
h 2938 -7314 0
h 2938 -7315 0
h 7317 -7318 -7318 0
h -7317 7318 0
h -7317 7318 0
h -1623 7319 7317 0
h 1623 -7319 0
h 1623 -7317 0
h 7320 -7318 -7321 0
h -7320 7318 0
h -7320 7321 0
h -1619 7322 7320 0
h 1619 -7322 0
h 1619 -7320 0
h 7323 -7318 -7324 0
h -7323 7318 0
h -7323 7324 0
h -1643 7325 7323 0
h 1643 -7325 0
h 1643 -7323 0
h 7326 -7327 -7324 0
h -7326 7327 0
h -7326 7324 0
h -1641 7328 7326 0
h 1641 -7328 0
h 1641 -7326 0
h 7329 -7318 -7330 0
h -7329 7318 0
h -7329 7330 0
h -1627 7331 7329 0
h 1627 -7331 0
h 1627 -7329 0
h 7332 -7318 -7333 0
h -7332 7318 0
h -7332 7333 0
h -1634 7334 7332 0
h 1634 -7334 0
h 1634 -7332 0
h 7335 -7327 -7333 0
h -7335 7327 0
h -7335 7333 0
h -1636 7336 7335 0
h 1636 -7336 0
h 1636 -7335 0
h 7337 -7321 -7327 0
h -7337 7321 0
h -7337 7327 0
h -1618 7338 7337 0
h 1618 -7338 0
h 1618 -7337 0
h 7339 -7321 -7321 0
h -7339 7321 0
h -7339 7321 0
h -1625 7340 7339 0
h 1625 -7340 0
h 1625 -7339 0
h 7341 -7321 -7330 0
h -7341 7321 0
h -7341 7330 0
h -1632 7342 7341 0
h 1632 -7342 0
h 1632 -7341 0
h 7343 -7321 -7333 0
h -7343 7321 0
h -7343 7333 0
h -1639 7344 7343 0
h 1639 -7344 0
h 1639 -7343 0
h 7345 -7324 -7333 0
h -7345 7324 0
h -7345 7333 0
h -1646 7346 7345 0
h 1646 -7346 0
h 1646 -7345 0
h 7347 -7330 -7327 0
h -7347 7330 0
h -7347 7327 0
h -1630 7348 7347 0
h 1630 -7348 0
h 1630 -7347 0
h 7349 -7330 -7324 0
h -7349 7330 0
h -7349 7324 0
h -1651 7350 7349 0
h 1651 -7350 0
h 1651 -7349 0
h 7351 -7330 -7330 0
h -7351 7330 0
h -7351 7330 0
h -1657 7352 7351 0
h 1657 -7352 0
h 1657 -7351 0
h 7353 -7318 -7354 0
h -7353 7318 0
h -7353 7354 0
h 7355 -7354 -7354 0
h -7355 7354 0
h -7355 7354 0
h 7356 -7354 -7318 0
h -7356 7354 0
h -7356 7318 0
h 7357 -7318 -7318 -7358 0
h -7357 7318 0
h -7357 7318 0
h -7357 7358 0
h -3921 7319 7353 7355 7356 7357 0
h 3921 -7319 0
h 3921 -7353 0
h 3921 -7355 0
h 3921 -7356 0
h 3921 -7357 0
h 7359 -7318 -7360 0
h -7359 7318 0
h -7359 7360 0
h 7361 -7354 -7360 0
h -7361 7354 0
h -7361 7360 0
h 7362 -7354 -7321 0
h -7362 7354 0
h -7362 7321 0
h 7363 -7318 -7321 -7358 0
h -7363 7318 0
h -7363 7321 0
h -7363 7358 0
h -3917 7322 7359 7361 7362 7363 0
h 3917 -7322 0
h 3917 -7359 0
h 3917 -7361 0
h 3917 -7362 0
h 3917 -7363 0
h 7364 -7318 -7365 0
h -7364 7318 0
h -7364 7365 0
h 7366 -7354 -7324 0
h -7366 7354 0
h -7366 7324 0
h 7367 -7354 -7365 0
h -7367 7354 0
h -7367 7365 0
h 7368 -7318 -7324 -7358 0
h -7368 7318 0
h -7368 7324 0
h -7368 7358 0
h -3941 7325 7364 7366 7367 7368 0
h 3941 -7325 0
h 3941 -7364 0
h 3941 -7366 0
h 3941 -7367 0
h 3941 -7368 0
h 7369 -7327 -7365 0
h -7369 7327 0
h -7369 7365 0
h 7370 -7371 -7365 0
h -7370 7371 0
h -7370 7365 0
h 7372 -7371 -7324 0
h -7372 7371 0
h -7372 7324 0
h 7373 -7327 -7324 -7358 0
h -7373 7327 0
h -7373 7324 0
h -7373 7358 0
h -3939 7328 7369 7370 7372 7373 0
h 3939 -7328 0
h 3939 -7369 0
h 3939 -7370 0
h 3939 -7372 0
h 3939 -7373 0
h 7374 -7318 -7375 0
h -7374 7318 0
h -7374 7375 0
h 7376 -7354 -7375 0
h -7376 7354 0
h -7376 7375 0
h 7377 -7354 -7330 0
h -7377 7354 0
h -7377 7330 0
h 7378 -7318 -7330 -7358 0
h -7378 7318 0
h -7378 7330 0
h -7378 7358 0
h -3925 7331 7374 7376 7377 7378 0
h 3925 -7331 0
h 3925 -7374 0
h 3925 -7376 0
h 3925 -7377 0
h 3925 -7378 0
h 7379 -7318 -7380 0
h -7379 7318 0
h -7379 7380 0
h 7381 -7354 -7333 0
h -7381 7354 0
h -7381 7333 0
h 7382 -7354 -7380 0
h -7382 7354 0
h -7382 7380 0
h 7383 -7318 -7333 -7358 0
h -7383 7318 0
h -7383 7333 0
h -7383 7358 0
h -3932 7334 7379 7381 7382 7383 0
h 3932 -7334 0
h 3932 -7379 0
h 3932 -7381 0
h 3932 -7382 0
h 3932 -7383 0
h 7384 -7327 -7380 0
h -7384 7327 0
h -7384 7380 0
h 7385 -7371 -7380 0
h -7385 7371 0
h -7385 7380 0
h 7386 -7371 -7333 0
h -7386 7371 0
h -7386 7333 0
h 7387 -7327 -7333 -7358 0
h -7387 7327 0
h -7387 7333 0
h -7387 7358 0
h -3934 7336 7384 7385 7386 7387 0
h 3934 -7336 0
h 3934 -7384 0
h 3934 -7385 0
h 3934 -7386 0
h 3934 -7387 0
h 7388 -7321 -7371 0
h -7388 7321 0
h -7388 7371 0
h 7389 -7360 -7327 0
h -7389 7360 0
h -7389 7327 0
h 7390 -7360 -7371 0
h -7390 7360 0
h -7390 7371 0
h 7391 -7321 -7327 -7358 0
h -7391 7321 0
h -7391 7327 0
h -7391 7358 0
h -3916 7338 7388 7389 7390 7391 0
h 3916 -7338 0
h 3916 -7388 0
h 3916 -7389 0
h 3916 -7390 0
h 3916 -7391 0
h 7392 -7321 -7360 0
h -7392 7321 0
h -7392 7360 0
h 7393 -7360 -7360 0
h -7393 7360 0
h -7393 7360 0
h 7394 -7360 -7321 0
h -7394 7360 0
h -7394 7321 0
h 7395 -7321 -7321 -7358 0
h -7395 7321 0
h -7395 7321 0
h -7395 7358 0
h -3923 7340 7392 7393 7394 7395 0
h 3923 -7340 0
h 3923 -7392 0
h 3923 -7393 0
h 3923 -7394 0
h 3923 -7395 0
h 7396 -7321 -7375 0
h -7396 7321 0
h -7396 7375 0
h 7397 -7360 -7375 0
h -7397 7360 0
h -7397 7375 0
h 7398 -7360 -7330 0
h -7398 7360 0
h -7398 7330 0
h 7399 -7321 -7330 -7358 0
h -7399 7321 0
h -7399 7330 0
h -7399 7358 0
h -3930 7342 7396 7397 7398 7399 0
h 3930 -7342 0
h 3930 -7396 0
h 3930 -7397 0
h 3930 -7398 0
h 3930 -7399 0
h 7400 -7321 -7380 0
h -7400 7321 0
h -7400 7380 0
h 7401 -7360 -7333 0
h -7401 7360 0
h -7401 7333 0
h 7402 -7360 -7380 0
h -7402 7360 0
h -7402 7380 0
h 7403 -7321 -7333 -7358 0
h -7403 7321 0
h -7403 7333 0
h -7403 7358 0
h -3937 7344 7400 7401 7402 7403 0
h 3937 -7344 0
h 3937 -7400 0
h 3937 -7401 0
h 3937 -7402 0
h 3937 -7403 0
h 7404 -7324 -7380 0
h -7404 7324 0
h -7404 7380 0
h 7405 -7365 -7380 0
h -7405 7365 0
h -7405 7380 0
h 7406 -7365 -7333 0
h -7406 7365 0
h -7406 7333 0
h 7407 -7324 -7333 -7358 0
h -7407 7324 0
h -7407 7333 0
h -7407 7358 0
h -3944 7346 7404 7405 7406 7407 0
h 3944 -7346 0
h 3944 -7404 0
h 3944 -7405 0
h 3944 -7406 0
h 3944 -7407 0
h 7408 -7330 -7371 0
h -7408 7330 0
h -7408 7371 0
h 7409 -7375 -7327 0
h -7409 7375 0
h -7409 7327 0
h 7410 -7375 -7371 0
h -7410 7375 0
h -7410 7371 0
h 7411 -7330 -7327 -7358 0
h -7411 7330 0
h -7411 7327 0
h -7411 7358 0
h -3928 7348 7408 7409 7410 7411 0
h 3928 -7348 0
h 3928 -7408 0
h 3928 -7409 0
h 3928 -7410 0
h 3928 -7411 0
h 7412 -7330 -7365 0
h -7412 7330 0
h -7412 7365 0
h 7413 -7375 -7324 0
h -7413 7375 0
h -7413 7324 0
h 7414 -7375 -7365 0
h -7414 7375 0
h -7414 7365 0
h 7415 -7330 -7324 -7358 0
h -7415 7330 0
h -7415 7324 0
h -7415 7358 0
h -3949 7350 7412 7413 7414 7415 0
h 3949 -7350 0
h 3949 -7412 0
h 3949 -7413 0
h 3949 -7414 0
h 3949 -7415 0
h 7416 -7330 -7375 0
h -7416 7330 0
h -7416 7375 0
h 7417 -7375 -7375 0
h -7417 7375 0
h -7417 7375 0
h 7418 -7375 -7330 0
h -7418 7375 0
h -7418 7330 0
h 7419 -7330 -7330 -7358 0
h -7419 7330 0
h -7419 7330 0
h -7419 7358 0
h -3955 7352 7416 7417 7418 7419 0
h 3955 -7352 0
h 3955 -7416 0
h 3955 -7417 0
h 3955 -7418 0
h 3955 -7419 0
h 7420 -7421 -7422 0
h -7420 7421 0
h -7420 7422 0
h 7423 -7422 -7422 0
h -7423 7422 0
h -7423 7422 0
h 7424 -7422 -7421 0
h -7424 7422 0
h -7424 7421 0
h 7425 -7421 -7421 -7426 0
h -7425 7421 0
h -7425 7421 0
h -7425 7426 0
h -2504 7427 7420 7423 7424 7425 0
h 2504 -7427 0
h 2504 -7420 0
h 2504 -7423 0
h 2504 -7424 0
h 2504 -7425 0
h 7428 -7421 -7429 0
h -7428 7421 0
h -7428 7429 0
h 7430 -7422 -7429 0
h -7430 7422 0
h -7430 7429 0
h 7431 -7422 -7432 0
h -7431 7422 0
h -7431 7432 0
h 7433 -7421 -7432 -7426 0
h -7433 7421 0
h -7433 7432 0
h -7433 7426 0
h -2500 7434 7428 7430 7431 7433 0
h 2500 -7434 0
h 2500 -7428 0
h 2500 -7430 0
h 2500 -7431 0
h 2500 -7433 0
h 7435 -7421 -7436 0
h -7435 7421 0
h -7435 7436 0
h 7437 -7422 -7438 0
h -7437 7422 0
h -7437 7438 0
h 7439 -7422 -7436 0
h -7439 7422 0
h -7439 7436 0
h 7440 -7421 -7438 -7426 0
h -7440 7421 0
h -7440 7438 0
h -7440 7426 0
h -2524 7441 7435 7437 7439 7440 0
h 2524 -7441 0
h 2524 -7435 0
h 2524 -7437 0
h 2524 -7439 0
h 2524 -7440 0
h 7442 -7443 -7436 0
h -7442 7443 0
h -7442 7436 0
h 7444 -7445 -7436 0
h -7444 7445 0
h -7444 7436 0
h 7446 -7445 -7438 0
h -7446 7445 0
h -7446 7438 0
h 7447 -7443 -7438 -7426 0
h -7447 7443 0
h -7447 7438 0
h -7447 7426 0
h -2522 7448 7442 7444 7446 7447 0
h 2522 -7448 0
h 2522 -7442 0
h 2522 -7444 0
h 2522 -7446 0
h 2522 -7447 0
h 7449 -7421 -7450 0
h -7449 7421 0
h -7449 7450 0
h 7451 -7422 -7450 0
h -7451 7422 0
h -7451 7450 0
h 7452 -7422 -7453 0
h -7452 7422 0
h -7452 7453 0
h 7454 -7421 -7453 -7426 0
h -7454 7421 0
h -7454 7453 0
h -7454 7426 0
h -2508 7455 7449 7451 7452 7454 0
h 2508 -7455 0
h 2508 -7449 0
h 2508 -7451 0
h 2508 -7452 0
h 2508 -7454 0
h 7456 -7421 -7457 0
h -7456 7421 0
h -7456 7457 0
h 7458 -7422 -7459 0
h -7458 7422 0
h -7458 7459 0
h 7460 -7422 -7457 0
h -7460 7422 0
h -7460 7457 0
h 7461 -7421 -7459 -7426 0
h -7461 7421 0
h -7461 7459 0
h -7461 7426 0
h -2515 7462 7456 7458 7460 7461 0
h 2515 -7462 0
h 2515 -7456 0
h 2515 -7458 0
h 2515 -7460 0
h 2515 -7461 0
h 7463 -7443 -7457 0
h -7463 7443 0
h -7463 7457 0
h 7464 -7445 -7457 0
h -7464 7445 0
h -7464 7457 0
h 7465 -7445 -7459 0
h -7465 7445 0
h -7465 7459 0
h 7466 -7443 -7459 -7426 0
h -7466 7443 0
h -7466 7459 0
h -7466 7426 0
h -2517 7467 7463 7464 7465 7466 0
h 2517 -7467 0
h 2517 -7463 0
h 2517 -7464 0
h 2517 -7465 0
h 2517 -7466 0
h 7468 -7432 -7445 0
h -7468 7432 0
h -7468 7445 0
h 7469 -7429 -7443 0
h -7469 7429 0
h -7469 7443 0
h 7470 -7429 -7445 0
h -7470 7429 0
h -7470 7445 0
h 7471 -7432 -7443 -7426 0
h -7471 7432 0
h -7471 7443 0
h -7471 7426 0
h -2499 7472 7468 7469 7470 7471 0
h 2499 -7472 0
h 2499 -7468 0
h 2499 -7469 0
h 2499 -7470 0
h 2499 -7471 0
h 7473 -7432 -7429 0
h -7473 7432 0
h -7473 7429 0
h 7474 -7429 -7429 0
h -7474 7429 0
h -7474 7429 0
h 7475 -7429 -7432 0
h -7475 7429 0
h -7475 7432 0
h 7476 -7432 -7432 -7426 0
h -7476 7432 0
h -7476 7432 0
h -7476 7426 0
h -2506 7477 7473 7474 7475 7476 0
h 2506 -7477 0
h 2506 -7473 0
h 2506 -7474 0
h 2506 -7475 0
h 2506 -7476 0
h 7478 -7432 -7450 0
h -7478 7432 0
h -7478 7450 0
h 7479 -7429 -7450 0
h -7479 7429 0
h -7479 7450 0
h 7480 -7429 -7453 0
h -7480 7429 0
h -7480 7453 0
h 7481 -7432 -7453 -7426 0
h -7481 7432 0
h -7481 7453 0
h -7481 7426 0
h -2513 7482 7478 7479 7480 7481 0
h 2513 -7482 0
h 2513 -7478 0
h 2513 -7479 0
h 2513 -7480 0
h 2513 -7481 0
h 7483 -7432 -7457 0
h -7483 7432 0
h -7483 7457 0
h 7484 -7429 -7459 0
h -7484 7429 0
h -7484 7459 0
h 7485 -7429 -7457 0
h -7485 7429 0
h -7485 7457 0
h 7486 -7432 -7459 -7426 0
h -7486 7432 0
h -7486 7459 0
h -7486 7426 0
h -2520 7487 7483 7484 7485 7486 0
h 2520 -7487 0
h 2520 -7483 0
h 2520 -7484 0
h 2520 -7485 0
h 2520 -7486 0
h 7488 -7438 -7457 0
h -7488 7438 0
h -7488 7457 0
h 7489 -7436 -7457 0
h -7489 7436 0
h -7489 7457 0
h 7490 -7436 -7459 0
h -7490 7436 0
h -7490 7459 0
h 7491 -7438 -7459 -7426 0
h -7491 7438 0
h -7491 7459 0
h -7491 7426 0
h -2527 7492 7488 7489 7490 7491 0
h 2527 -7492 0
h 2527 -7488 0
h 2527 -7489 0
h 2527 -7490 0
h 2527 -7491 0
h 7493 -7453 -7445 0
h -7493 7453 0
h -7493 7445 0
h 7494 -7450 -7443 0
h -7494 7450 0
h -7494 7443 0
h 7495 -7450 -7445 0
h -7495 7450 0
h -7495 7445 0
h 7496 -7453 -7443 -7426 0
h -7496 7453 0
h -7496 7443 0
h -7496 7426 0
h -2511 7497 7493 7494 7495 7496 0
h 2511 -7497 0
h 2511 -7493 0
h 2511 -7494 0
h 2511 -7495 0
h 2511 -7496 0
h 7498 -7453 -7436 0
h -7498 7453 0
h -7498 7436 0
h 7499 -7450 -7438 0
h -7499 7450 0
h -7499 7438 0
h 7500 -7450 -7436 0
h -7500 7450 0
h -7500 7436 0
h 7501 -7453 -7438 -7426 0
h -7501 7453 0
h -7501 7438 0
h -7501 7426 0
h -2532 7502 7498 7499 7500 7501 0
h 2532 -7502 0
h 2532 -7498 0
h 2532 -7499 0
h 2532 -7500 0
h 2532 -7501 0
h 7503 -7453 -7450 0
h -7503 7453 0
h -7503 7450 0
h 7504 -7450 -7450 0
h -7504 7450 0
h -7504 7450 0
h 7505 -7450 -7453 0
h -7505 7450 0
h -7505 7453 0
h 7506 -7453 -7453 -7426 0
h -7506 7453 0
h -7506 7453 0
h -7506 7426 0
h -2538 7507 7503 7504 7505 7506 0
h 2538 -7507 0
h 2538 -7503 0
h 2538 -7504 0
h 2538 -7505 0
h 2538 -7506 0
h 7508 -7230 -7230 0
h -7508 7230 0
h -7508 7230 0
h -3841 7236 7508 0
h 3841 -7236 0
h 3841 -7508 0
h 7509 -7230 -7241 0
h -7509 7230 0
h -7509 7241 0
h -3837 7243 7509 0
h 3837 -7243 0
h 3837 -7509 0
h 7510 -7230 -7247 0
h -7510 7230 0
h -7510 7247 0
h -3855 7250 7510 0
h 3855 -7250 0
h 3855 -7510 0
h 7511 -7252 -7247 0
h -7511 7252 0
h -7511 7247 0
h -3056 7257 7511 0
h 3056 -7257 0
h 3056 -7511 0
h 7512 -7230 -7262 0
h -7512 7230 0
h -7512 7262 0
h -3844 7264 7512 0
h 3844 -7264 0
h 3844 -7512 0
h 7513 -7230 -7268 0
h -7513 7230 0
h -7513 7268 0
h -3849 7271 7513 0
h 3849 -7271 0
h 3849 -7513 0
h 7514 -7252 -7268 0
h -7514 7252 0
h -7514 7268 0
h -3053 7276 7514 0
h 3053 -7276 0
h 3053 -7514 0
h 7515 -7241 -7252 0
h -7515 7241 0
h -7515 7252 0
h -3046 7281 7515 0
h 3046 -7281 0
h 3046 -7515 0
h 7516 -7241 -7241 0
h -7516 7241 0
h -7516 7241 0
h -3048 7286 7516 0
h 3048 -7286 0
h 3048 -7516 0
h 7517 -7241 -7262 0
h -7517 7241 0
h -7517 7262 0
h -3051 7291 7517 0
h 3051 -7291 0
h 3051 -7517 0
h 7518 -7241 -7268 0
h -7518 7241 0
h -7518 7268 0
h -3054 7296 7518 0
h 3054 -7296 0
h 3054 -7518 0
h 7519 -7247 -7268 0
h -7519 7247 0
h -7519 7268 0
h -3057 7301 7519 0
h 3057 -7301 0
h 3057 -7519 0
h 7520 -7262 -7252 0
h -7520 7262 0
h -7520 7252 0
h -3050 7306 7520 0
h 3050 -7306 0
h 3050 -7520 0
h 7521 -7262 -7247 0
h -7521 7262 0
h -7521 7247 0
h -3059 7311 7521 0
h 3059 -7311 0
h 3059 -7521 0
h 7522 -7262 -7262 0
h -7522 7262 0
h -7522 7262 0
h -3062 7316 7522 0
h 3062 -7316 0
h 3062 -7522 0
h 7523 -7524 -7525 0
h -7523 7524 0
h -7523 7525 0
h 7526 -7525 -7525 0
h -7526 7525 0
h -7526 7525 0
h 7527 -7525 -7524 0
h -7527 7525 0
h -7527 7524 0
h 7528 -7524 -7524 -7529 0
h -7528 7524 0
h -7528 7524 0
h -7528 7529 0
h -4312 7530 7523 7526 7527 7528 0
h 4312 -7530 0
h 4312 -7523 0
h 4312 -7526 0
h 4312 -7527 0
h 4312 -7528 0
h 7531 -7524 -7532 0
h -7531 7524 0
h -7531 7532 0
h 7533 -7525 -7532 0
h -7533 7525 0
h -7533 7532 0
h 7534 -7525 -7535 0
h -7534 7525 0
h -7534 7535 0
h 7536 -7524 -7535 -7529 0
h -7536 7524 0
h -7536 7535 0
h -7536 7529 0
h -4308 7537 7531 7533 7534 7536 0
h 4308 -7537 0
h 4308 -7531 0
h 4308 -7533 0
h 4308 -7534 0
h 4308 -7536 0
h 7538 -7524 -7539 0
h -7538 7524 0
h -7538 7539 0
h 7540 -7525 -7541 0
h -7540 7525 0
h -7540 7541 0
h 7542 -7525 -7539 0
h -7542 7525 0
h -7542 7539 0
h 7543 -7524 -7541 -7529 0
h -7543 7524 0
h -7543 7541 0
h -7543 7529 0
h -4326 7544 7538 7540 7542 7543 0
h 4326 -7544 0
h 4326 -7538 0
h 4326 -7540 0
h 4326 -7542 0
h 4326 -7543 0
h 7545 -7546 -7539 0
h -7545 7546 0
h -7545 7539 0
h 7547 -7548 -7539 0
h -7547 7548 0
h -7547 7539 0
h 7549 -7548 -7541 0
h -7549 7548 0
h -7549 7541 0
h 7550 -7546 -7541 -7529 0
h -7550 7546 0
h -7550 7541 0
h -7550 7529 0
h -2027 7551 7545 7547 7549 7550 0
h 2027 -7551 0
h 2027 -7545 0
h 2027 -7547 0
h 2027 -7549 0
h 2027 -7550 0
h 7552 -7524 -7553 0
h -7552 7524 0
h -7552 7553 0
h 7554 -7525 -7553 0
h -7554 7525 0
h -7554 7553 0
h 7555 -7525 -7556 0
h -7555 7525 0
h -7555 7556 0
h 7557 -7524 -7556 -7529 0
h -7557 7524 0
h -7557 7556 0
h -7557 7529 0
h -4315 7558 7552 7554 7555 7557 0
h 4315 -7558 0
h 4315 -7552 0
h 4315 -7554 0
h 4315 -7555 0
h 4315 -7557 0
h 7559 -7524 -7560 0
h -7559 7524 0
h -7559 7560 0
h 7561 -7525 -7562 0
h -7561 7525 0
h -7561 7562 0
h 7563 -7525 -7560 0
h -7563 7525 0
h -7563 7560 0
h 7564 -7524 -7562 -7529 0
h -7564 7524 0
h -7564 7562 0
h -7564 7529 0
h -4320 7565 7559 7561 7563 7564 0
h 4320 -7565 0
h 4320 -7559 0
h 4320 -7561 0
h 4320 -7563 0
h 4320 -7564 0
h 7566 -7546 -7560 0
h -7566 7546 0
h -7566 7560 0
h 7567 -7548 -7560 0
h -7567 7548 0
h -7567 7560 0
h 7568 -7548 -7562 0
h -7568 7548 0
h -7568 7562 0
h 7569 -7546 -7562 -7529 0
h -7569 7546 0
h -7569 7562 0
h -7569 7529 0
h -2024 7570 7566 7567 7568 7569 0
h 2024 -7570 0
h 2024 -7566 0
h 2024 -7567 0
h 2024 -7568 0
h 2024 -7569 0
h 7571 -7535 -7548 0
h -7571 7535 0
h -7571 7548 0
h 7572 -7532 -7546 0
h -7572 7532 0
h -7572 7546 0
h 7573 -7532 -7548 0
h -7573 7532 0
h -7573 7548 0
h 7574 -7535 -7546 -7529 0
h -7574 7535 0
h -7574 7546 0
h -7574 7529 0
h -2017 7575 7571 7572 7573 7574 0
h 2017 -7575 0
h 2017 -7571 0
h 2017 -7572 0
h 2017 -7573 0
h 2017 -7574 0
h 7576 -7535 -7532 0
h -7576 7535 0
h -7576 7532 0
h 7577 -7532 -7532 0
h -7577 7532 0
h -7577 7532 0
h 7578 -7532 -7535 0
h -7578 7532 0
h -7578 7535 0
h 7579 -7535 -7535 -7529 0
h -7579 7535 0
h -7579 7535 0
h -7579 7529 0
h -2019 7580 7576 7577 7578 7579 0
h 2019 -7580 0
h 2019 -7576 0
h 2019 -7577 0
h 2019 -7578 0
h 2019 -7579 0
h 7581 -7535 -7553 0
h -7581 7535 0
h -7581 7553 0
h 7582 -7532 -7553 0
h -7582 7532 0
h -7582 7553 0
h 7583 -7532 -7556 0
h -7583 7532 0
h -7583 7556 0
h 7584 -7535 -7556 -7529 0
h -7584 7535 0
h -7584 7556 0
h -7584 7529 0
h -2022 7585 7581 7582 7583 7584 0
h 2022 -7585 0
h 2022 -7581 0
h 2022 -7582 0
h 2022 -7583 0
h 2022 -7584 0
h 7586 -7535 -7560 0
h -7586 7535 0
h -7586 7560 0
h 7587 -7532 -7562 0
h -7587 7532 0
h -7587 7562 0
h 7588 -7532 -7560 0
h -7588 7532 0
h -7588 7560 0
h 7589 -7535 -7562 -7529 0
h -7589 7535 0
h -7589 7562 0
h -7589 7529 0
h -2025 7590 7586 7587 7588 7589 0
h 2025 -7590 0
h 2025 -7586 0
h 2025 -7587 0
h 2025 -7588 0
h 2025 -7589 0
h 7591 -7541 -7560 0
h -7591 7541 0
h -7591 7560 0
h 7592 -7539 -7560 0
h -7592 7539 0
h -7592 7560 0
h 7593 -7539 -7562 0
h -7593 7539 0
h -7593 7562 0
h 7594 -7541 -7562 -7529 0
h -7594 7541 0
h -7594 7562 0
h -7594 7529 0
h -2028 7595 7591 7592 7593 7594 0
h 2028 -7595 0
h 2028 -7591 0
h 2028 -7592 0
h 2028 -7593 0
h 2028 -7594 0
h 7596 -7556 -7548 0
h -7596 7556 0
h -7596 7548 0
h 7597 -7553 -7546 0
h -7597 7553 0
h -7597 7546 0
h 7598 -7553 -7548 0
h -7598 7553 0
h -7598 7548 0
h 7599 -7556 -7546 -7529 0
h -7599 7556 0
h -7599 7546 0
h -7599 7529 0
h -2021 7600 7596 7597 7598 7599 0
h 2021 -7600 0
h 2021 -7596 0
h 2021 -7597 0
h 2021 -7598 0
h 2021 -7599 0
h 7601 -7556 -7539 0
h -7601 7556 0
h -7601 7539 0
h 7602 -7553 -7541 0
h -7602 7553 0
h -7602 7541 0
h 7603 -7553 -7539 0
h -7603 7553 0
h -7603 7539 0
h 7604 -7556 -7541 -7529 0
h -7604 7556 0
h -7604 7541 0
h -7604 7529 0
h -2030 7605 7601 7602 7603 7604 0
h 2030 -7605 0
h 2030 -7601 0
h 2030 -7602 0
h 2030 -7603 0
h 2030 -7604 0
h 7606 -7556 -7553 0
h -7606 7556 0
h -7606 7553 0
h 7607 -7553 -7553 0
h -7607 7553 0
h -7607 7553 0
h 7608 -7553 -7556 0
h -7608 7553 0
h -7608 7556 0
h 7609 -7556 -7556 -7529 0
h -7609 7556 0
h -7609 7556 0
h -7609 7529 0
h -2033 7610 7606 7607 7608 7609 0
h 2033 -7610 0
h 2033 -7606 0
h 2033 -7607 0
h 2033 -7608 0
h 2033 -7609 0
h 7611 -7612 -7612 0
h -7611 7612 0
h -7611 7612 0
h -3618 7613 7611 0
h 3618 -7613 0
h 3618 -7611 0
h 7614 -7612 -7615 0
h -7614 7612 0
h -7614 7615 0
h -3614 7616 7614 0
h 3614 -7616 0
h 3614 -7614 0
h 7617 -7612 -7618 0
h -7617 7612 0
h -7617 7618 0
h -3638 7619 7617 0
h 3638 -7619 0
h 3638 -7617 0
h 7620 -7621 -7618 0
h -7620 7621 0
h -7620 7618 0
h -3636 7622 7620 0
h 3636 -7622 0
h 3636 -7620 0
h 7623 -7612 -7624 0
h -7623 7612 0
h -7623 7624 0
h -3622 7625 7623 0
h 3622 -7625 0
h 3622 -7623 0
h 7626 -7612 -7627 0
h -7626 7612 0
h -7626 7627 0
h -3629 7628 7626 0
h 3629 -7628 0
h 3629 -7626 0
h 7629 -7621 -7627 0
h -7629 7621 0
h -7629 7627 0
h -3631 7630 7629 0
h 3631 -7630 0
h 3631 -7629 0
h 7631 -7615 -7621 0
h -7631 7615 0
h -7631 7621 0
h -3613 7632 7631 0
h 3613 -7632 0
h 3613 -7631 0
h 7633 -7615 -7615 0
h -7633 7615 0
h -7633 7615 0
h -3620 7634 7633 0
h 3620 -7634 0
h 3620 -7633 0
h 7635 -7615 -7624 0
h -7635 7615 0
h -7635 7624 0
h -3627 7636 7635 0
h 3627 -7636 0
h 3627 -7635 0
h 7637 -7615 -7627 0
h -7637 7615 0
h -7637 7627 0
h -3634 7638 7637 0
h 3634 -7638 0
h 3634 -7637 0
h 7639 -7618 -7627 0
h -7639 7618 0
h -7639 7627 0
h -3641 7640 7639 0
h 3641 -7640 0
h 3641 -7639 0
h 7641 -7624 -7621 0
h -7641 7624 0
h -7641 7621 0
h -3625 7642 7641 0
h 3625 -7642 0
h 3625 -7641 0
h 7643 -7624 -7618 0
h -7643 7624 0
h -7643 7618 0
h -3646 7644 7643 0
h 3646 -7644 0
h 3646 -7643 0
h 7645 -7624 -7624 0
h -7645 7624 0
h -7645 7624 0
h -3652 7646 7645 0
h 3652 -7646 0
h 3652 -7645 0
h 7647 -7648 -7648 0
h -7647 7648 0
h -7647 7648 0
h -1310 7649 7647 0
h 1310 -7649 0
h 1310 -7647 0
h 7650 -7648 -7651 0
h -7650 7648 0
h -7650 7651 0
h -1306 7652 7650 0
h 1306 -7652 0
h 1306 -7650 0
h 7653 -7648 -7654 0
h -7653 7648 0
h -7653 7654 0
h -1330 7655 7653 0
h 1330 -7655 0
h 1330 -7653 0
h 7656 -7657 -7654 0
h -7656 7657 0
h -7656 7654 0
h -1328 7658 7656 0
h 1328 -7658 0
h 1328 -7656 0
h 7659 -7648 -7660 0
h -7659 7648 0
h -7659 7660 0
h -1314 7661 7659 0
h 1314 -7661 0
h 1314 -7659 0
h 7662 -7648 -7663 0
h -7662 7648 0
h -7662 7663 0
h -1321 7664 7662 0
h 1321 -7664 0
h 1321 -7662 0
h 7665 -7657 -7663 0
h -7665 7657 0
h -7665 7663 0
h -1323 7666 7665 0
h 1323 -7666 0
h 1323 -7665 0
h 7667 -7651 -7657 0
h -7667 7651 0
h -7667 7657 0
h -1305 7668 7667 0
h 1305 -7668 0
h 1305 -7667 0
h 7669 -7651 -7651 0
h -7669 7651 0
h -7669 7651 0
h -1312 7670 7669 0
h 1312 -7670 0
h 1312 -7669 0
h 7671 -7651 -7660 0
h -7671 7651 0
h -7671 7660 0
h -1319 7672 7671 0
h 1319 -7672 0
h 1319 -7671 0
h 7673 -7651 -7663 0
h -7673 7651 0
h -7673 7663 0
h -1326 7674 7673 0
h 1326 -7674 0
h 1326 -7673 0
h 7675 -7654 -7663 0
h -7675 7654 0
h -7675 7663 0
h -1333 7676 7675 0
h 1333 -7676 0
h 1333 -7675 0
h 7677 -7660 -7657 0
h -7677 7660 0
h -7677 7657 0
h -1317 7678 7677 0
h 1317 -7678 0
h 1317 -7677 0
h 7679 -7660 -7654 0
h -7679 7660 0
h -7679 7654 0
h -1338 7680 7679 0
h 1338 -7680 0
h 1338 -7679 0
h 7681 -7660 -7660 0
h -7681 7660 0
h -7681 7660 0
h -1344 7682 7681 0
h 1344 -7682 0
h 1344 -7681 0
h 7683 -6863 -6856 0
h -7683 6863 0
h -7683 6856 0
h 7684 -6856 -6856 0
h -7684 6856 0
h -7684 6856 0
h 7685 -6856 -6863 0
h -7685 6856 0
h -7685 6863 0
h 7686 -6863 -6863 -6899 0
h -7686 6863 0
h -7686 6863 0
h -7686 6899 0
h -5487 6849 7683 7684 7685 7686 0
h 5487 -6849 0
h 5487 -7683 0
h 5487 -7684 0
h 5487 -7685 0
h 5487 -7686 0
h 7687 -6863 -6851 0
h -7687 6863 0
h -7687 6851 0
h 7688 -6856 -6851 0
h -7688 6856 0
h -7688 6851 0
h 7689 -6856 -6858 0
h -7689 6856 0
h -7689 6858 0
h 7690 -6863 -6858 -6899 0
h -7690 6863 0
h -7690 6858 0
h -7690 6899 0
h -5483 6844 7687 7688 7689 7690 0
h 5483 -6844 0
h 5483 -7687 0
h 5483 -7688 0
h 5483 -7689 0
h 5483 -7690 0
h 7691 -6863 -6854 0
h -7691 6863 0
h -7691 6854 0
h 7692 -6856 -6860 0
h -7692 6856 0
h -7692 6860 0
h 7693 -6856 -6854 0
h -7693 6856 0
h -7693 6854 0
h 7694 -6863 -6860 -6899 0
h -7694 6863 0
h -7694 6860 0
h -7694 6899 0
h -5501 6843 7691 7692 7693 7694 0
h 5501 -6843 0
h 5501 -7691 0
h 5501 -7692 0
h 5501 -7693 0
h 5501 -7694 0
h 7695 -6870 -6854 0
h -7695 6870 0
h -7695 6854 0
h 7696 -6894 -6854 0
h -7696 6894 0
h -7696 6854 0
h 7697 -6894 -6860 0
h -7697 6894 0
h -7697 6860 0
h 7698 -6870 -6860 -6899 0
h -7698 6870 0
h -7698 6860 0
h -7698 6899 0
h -3731 6865 7695 7696 7697 7698 0
h 3731 -6865 0
h 3731 -7695 0
h 3731 -7696 0
h 3731 -7697 0
h 3731 -7698 0
h 7699 -6863 -6904 0
h -7699 6863 0
h -7699 6904 0
h 7700 -6856 -6904 0
h -7700 6856 0
h -7700 6904 0
h 7701 -6856 -6924 0
h -7701 6856 0
h -7701 6924 0
h 7702 -6863 -6924 -6899 0
h -7702 6863 0
h -7702 6924 0
h -7702 6899 0
h -5490 6877 7699 7700 7701 7702 0
h 5490 -6877 0
h 5490 -7699 0
h 5490 -7700 0
h 5490 -7701 0
h 5490 -7702 0
h 7703 -6863 -6909 0
h -7703 6863 0
h -7703 6909 0
h 7704 -6856 -6914 0
h -7704 6856 0
h -7704 6914 0
h 7705 -6856 -6909 0
h -7705 6856 0
h -7705 6909 0
h 7706 -6863 -6914 -6899 0
h -7706 6863 0
h -7706 6914 0
h -7706 6899 0
h -5495 6884 7703 7704 7705 7706 0
h 5495 -6884 0
h 5495 -7703 0
h 5495 -7704 0
h 5495 -7705 0
h 5495 -7706 0
h 7707 -6870 -6909 0
h -7707 6870 0
h -7707 6909 0
h 7708 -6894 -6909 0
h -7708 6894 0
h -7708 6909 0
h 7709 -6894 -6914 0
h -7709 6894 0
h -7709 6914 0
h 7710 -6870 -6914 -6899 0
h -7710 6870 0
h -7710 6914 0
h -7710 6899 0
h -3728 6889 7707 7708 7709 7710 0
h 3728 -6889 0
h 3728 -7707 0
h 3728 -7708 0
h 3728 -7709 0
h 3728 -7710 0
h 7711 -6858 -6894 0
h -7711 6858 0
h -7711 6894 0
h 7712 -6851 -6870 0
h -7712 6851 0
h -7712 6870 0
h 7713 -6851 -6894 0
h -7713 6851 0
h -7713 6894 0
h 7714 -6858 -6870 -6899 0
h -7714 6858 0
h -7714 6870 0
h -7714 6899 0
h -3721 6867 7711 7712 7713 7714 0
h 3721 -6867 0
h 3721 -7711 0
h 3721 -7712 0
h 3721 -7713 0
h 3721 -7714 0
h 7715 -6858 -6851 0
h -7715 6858 0
h -7715 6851 0
h 6896 -6851 -6851 0
h -6896 6851 0
h -6896 6851 0
h 7716 -6851 -6858 0
h -7716 6851 0
h -7716 6858 0
h 7717 -6858 -6858 -6899 0
h -7717 6858 0
h -7717 6858 0
h -7717 6899 0
h -3723 6848 7715 6896 7716 7717 0
h 3723 -6848 0
h 3723 -7715 0
h 3723 -6896 0
h 3723 -7716 0
h 3723 -7717 0
h 7718 -6858 -6904 0
h -7718 6858 0
h -7718 6904 0
h 7719 -6851 -6904 0
h -7719 6851 0
h -7719 6904 0
h 7720 -6851 -6924 0
h -7720 6851 0
h -7720 6924 0
h 7721 -6858 -6924 -6899 0
h -7721 6858 0
h -7721 6924 0
h -7721 6899 0
h -3726 6872 7718 7719 7720 7721 0
h 3726 -6872 0
h 3726 -7718 0
h 3726 -7719 0
h 3726 -7720 0
h 3726 -7721 0
h 7722 -6858 -6909 0
h -7722 6858 0
h -7722 6909 0
h 7723 -6851 -6914 0
h -7723 6851 0
h -7723 6914 0
h 7724 -6851 -6909 0
h -7724 6851 0
h -7724 6909 0
h 7725 -6858 -6914 -6899 0
h -7725 6858 0
h -7725 6914 0
h -7725 6899 0
h -3729 6879 7722 7723 7724 7725 0
h 3729 -6879 0
h 3729 -7722 0
h 3729 -7723 0
h 3729 -7724 0
h 3729 -7725 0
h 7726 -6860 -6909 0
h -7726 6860 0
h -7726 6909 0
h 7727 -6854 -6909 0
h -7727 6854 0
h -7727 6909 0
h 7728 -6854 -6914 0
h -7728 6854 0
h -7728 6914 0
h 7729 -6860 -6914 -6899 0
h -7729 6860 0
h -7729 6914 0
h -7729 6899 0
h -3732 6881 7726 7727 7728 7729 0
h 3732 -6881 0
h 3732 -7726 0
h 3732 -7727 0
h 3732 -7728 0
h 3732 -7729 0
h 7730 -6924 -6894 0
h -7730 6924 0
h -7730 6894 0
h 7731 -6904 -6870 0
h -7731 6904 0
h -7731 6870 0
h 7732 -6904 -6894 0
h -7732 6904 0
h -7732 6894 0
h 7733 -6924 -6870 -6899 0
h -7733 6924 0
h -7733 6870 0
h -7733 6899 0
h -3725 6919 7730 7731 7732 7733 0
h 3725 -6919 0
h 3725 -7730 0
h 3725 -7731 0
h 3725 -7732 0
h 3725 -7733 0
h 7734 -6924 -6854 0
h -7734 6924 0
h -7734 6854 0
h 7735 -6904 -6860 0
h -7735 6904 0
h -7735 6860 0
h 7736 -6904 -6854 0
h -7736 6904 0
h -7736 6854 0
h 7737 -6924 -6860 -6899 0
h -7737 6924 0
h -7737 6860 0
h -7737 6899 0
h -3734 6875 7734 7735 7736 7737 0
h 3734 -6875 0
h 3734 -7734 0
h 3734 -7735 0
h 3734 -7736 0
h 3734 -7737 0
h 7738 -6924 -6904 0
h -7738 6924 0
h -7738 6904 0
h 7739 -6904 -6904 0
h -7739 6904 0
h -7739 6904 0
h 7740 -6904 -6924 0
h -7740 6904 0
h -7740 6924 0
h 7741 -6924 -6924 -6899 0
h -7741 6924 0
h -7741 6924 0
h -7741 6899 0
h -3737 6929 7738 7739 7740 7741 0
h 3737 -6929 0
h 3737 -7738 0
h 3737 -7739 0
h 3737 -7740 0
h 3737 -7741 0
h 7742 -7743 -7744 0
h -7742 7743 0
h -7742 7744 0
h 7745 -7744 -7744 0
h -7745 7744 0
h -7745 7744 0
h 7746 -7744 -7743 0
h -7746 7744 0
h -7746 7743 0
h 7747 -7743 -7743 -7748 0
h -7747 7743 0
h -7747 7743 0
h -7747 7748 0
h -3444 7749 7742 7745 7746 7747 0
h 3444 -7749 0
h 3444 -7742 0
h 3444 -7745 0
h 3444 -7746 0
h 3444 -7747 0
h 7750 -7743 -7751 0
h -7750 7743 0
h -7750 7751 0
h 7752 -7744 -7751 0
h -7752 7744 0
h -7752 7751 0
h 7753 -7744 -7754 0
h -7753 7744 0
h -7753 7754 0
h 7755 -7743 -7754 -7748 0
h -7755 7743 0
h -7755 7754 0
h -7755 7748 0
h -3440 7756 7750 7752 7753 7755 0
h 3440 -7756 0
h 3440 -7750 0
h 3440 -7752 0
h 3440 -7753 0
h 3440 -7755 0
h 7757 -7743 -7758 0
h -7757 7743 0
h -7757 7758 0
h 7759 -7744 -7760 0
h -7759 7744 0
h -7759 7760 0
h 7761 -7744 -7758 0
h -7761 7744 0
h -7761 7758 0
h 7762 -7743 -7760 -7748 0
h -7762 7743 0
h -7762 7760 0
h -7762 7748 0
h -3464 7763 7757 7759 7761 7762 0
h 3464 -7763 0
h 3464 -7757 0
h 3464 -7759 0
h 3464 -7761 0
h 3464 -7762 0
h 7764 -7765 -7758 0
h -7764 7765 0
h -7764 7758 0
h 7766 -7767 -7758 0
h -7766 7767 0
h -7766 7758 0
h 7768 -7767 -7760 0
h -7768 7767 0
h -7768 7760 0
h 7769 -7765 -7760 -7748 0
h -7769 7765 0
h -7769 7760 0
h -7769 7748 0
h -3462 7770 7764 7766 7768 7769 0
h 3462 -7770 0
h 3462 -7764 0
h 3462 -7766 0
h 3462 -7768 0
h 3462 -7769 0
h 7771 -7743 -7772 0
h -7771 7743 0
h -7771 7772 0
h 7773 -7744 -7772 0
h -7773 7744 0
h -7773 7772 0
h 7774 -7744 -7775 0
h -7774 7744 0
h -7774 7775 0
h 7776 -7743 -7775 -7748 0
h -7776 7743 0
h -7776 7775 0
h -7776 7748 0
h -3448 7777 7771 7773 7774 7776 0
h 3448 -7777 0
h 3448 -7771 0
h 3448 -7773 0
h 3448 -7774 0
h 3448 -7776 0
h 7778 -7743 -7779 0
h -7778 7743 0
h -7778 7779 0
h 7780 -7744 -7781 0
h -7780 7744 0
h -7780 7781 0
h 7782 -7744 -7779 0
h -7782 7744 0
h -7782 7779 0
h 7783 -7743 -7781 -7748 0
h -7783 7743 0
h -7783 7781 0
h -7783 7748 0
h -3455 7784 7778 7780 7782 7783 0
h 3455 -7784 0
h 3455 -7778 0
h 3455 -7780 0
h 3455 -7782 0
h 3455 -7783 0
h 7785 -7765 -7779 0
h -7785 7765 0
h -7785 7779 0
h 7786 -7767 -7779 0
h -7786 7767 0
h -7786 7779 0
h 7787 -7767 -7781 0
h -7787 7767 0
h -7787 7781 0
h 7788 -7765 -7781 -7748 0
h -7788 7765 0
h -7788 7781 0
h -7788 7748 0
h -3457 7789 7785 7786 7787 7788 0
h 3457 -7789 0
h 3457 -7785 0
h 3457 -7786 0
h 3457 -7787 0
h 3457 -7788 0
h 7790 -7754 -7767 0
h -7790 7754 0
h -7790 7767 0
h 7791 -7751 -7765 0
h -7791 7751 0
h -7791 7765 0
h 7792 -7751 -7767 0
h -7792 7751 0
h -7792 7767 0
h 7793 -7754 -7765 -7748 0
h -7793 7754 0
h -7793 7765 0
h -7793 7748 0
h -3439 7794 7790 7791 7792 7793 0
h 3439 -7794 0
h 3439 -7790 0
h 3439 -7791 0
h 3439 -7792 0
h 3439 -7793 0
h 7795 -7754 -7751 0
h -7795 7754 0
h -7795 7751 0
h 7796 -7751 -7751 0
h -7796 7751 0
h -7796 7751 0
h 7797 -7751 -7754 0
h -7797 7751 0
h -7797 7754 0
h 7798 -7754 -7754 -7748 0
h -7798 7754 0
h -7798 7754 0
h -7798 7748 0
h -3446 7799 7795 7796 7797 7798 0
h 3446 -7799 0
h 3446 -7795 0
h 3446 -7796 0
h 3446 -7797 0
h 3446 -7798 0
h 7800 -7754 -7772 0
h -7800 7754 0
h -7800 7772 0
h 7801 -7751 -7772 0
h -7801 7751 0
h -7801 7772 0
h 7802 -7751 -7775 0
h -7802 7751 0
h -7802 7775 0
h 7803 -7754 -7775 -7748 0
h -7803 7754 0
h -7803 7775 0
h -7803 7748 0
h -3453 7804 7800 7801 7802 7803 0
h 3453 -7804 0
h 3453 -7800 0
h 3453 -7801 0
h 3453 -7802 0
h 3453 -7803 0
h 7805 -7754 -7779 0
h -7805 7754 0
h -7805 7779 0
h 7806 -7751 -7781 0
h -7806 7751 0
h -7806 7781 0
h 7807 -7751 -7779 0
h -7807 7751 0
h -7807 7779 0
h 7808 -7754 -7781 -7748 0
h -7808 7754 0
h -7808 7781 0
h -7808 7748 0
h -3460 7809 7805 7806 7807 7808 0
h 3460 -7809 0
h 3460 -7805 0
h 3460 -7806 0
h 3460 -7807 0
h 3460 -7808 0
h 7810 -7760 -7779 0
h -7810 7760 0
h -7810 7779 0
h 7811 -7758 -7779 0
h -7811 7758 0
h -7811 7779 0
h 7812 -7758 -7781 0
h -7812 7758 0
h -7812 7781 0
h 7813 -7760 -7781 -7748 0
h -7813 7760 0
h -7813 7781 0
h -7813 7748 0
h -3467 7814 7810 7811 7812 7813 0
h 3467 -7814 0
h 3467 -7810 0
h 3467 -7811 0
h 3467 -7812 0
h 3467 -7813 0
h 7815 -7775 -7767 0
h -7815 7775 0
h -7815 7767 0
h 7816 -7772 -7765 0
h -7816 7772 0
h -7816 7765 0
h 7817 -7772 -7767 0
h -7817 7772 0
h -7817 7767 0
h 7818 -7775 -7765 -7748 0
h -7818 7775 0
h -7818 7765 0
h -7818 7748 0
h -3451 7819 7815 7816 7817 7818 0
h 3451 -7819 0
h 3451 -7815 0
h 3451 -7816 0
h 3451 -7817 0
h 3451 -7818 0
h 7820 -7775 -7758 0
h -7820 7775 0
h -7820 7758 0
h 7821 -7772 -7760 0
h -7821 7772 0
h -7821 7760 0
h 7822 -7772 -7758 0
h -7822 7772 0
h -7822 7758 0
h 7823 -7775 -7760 -7748 0
h -7823 7775 0
h -7823 7760 0
h -7823 7748 0
h -3472 7824 7820 7821 7822 7823 0
h 3472 -7824 0
h 3472 -7820 0
h 3472 -7821 0
h 3472 -7822 0
h 3472 -7823 0
h 7825 -7775 -7772 0
h -7825 7775 0
h -7825 7772 0
h 7826 -7772 -7772 0
h -7826 7772 0
h -7826 7772 0
h 7827 -7772 -7775 0
h -7827 7772 0
h -7827 7775 0
h 7828 -7775 -7775 -7748 0
h -7828 7775 0
h -7828 7775 0
h -7828 7748 0
h -3478 7829 7825 7826 7827 7828 0
h 3478 -7829 0
h 3478 -7825 0
h 3478 -7826 0
h 3478 -7827 0
h 3478 -7828 0
h 7830 -7524 -7524 0
h -7830 7524 0
h -7830 7524 0
h -4588 7530 7830 0
h 4588 -7530 0
h 4588 -7830 0
h 7831 -7524 -7535 0
h -7831 7524 0
h -7831 7535 0
h -4584 7537 7831 0
h 4584 -7537 0
h 4584 -7831 0
h 7832 -7524 -7541 0
h -7832 7524 0
h -7832 7541 0
h -4602 7544 7832 0
h 4602 -7544 0
h 4602 -7832 0
h 7833 -7546 -7541 0
h -7833 7546 0
h -7833 7541 0
h -1433 7551 7833 0
h 1433 -7551 0
h 1433 -7833 0
h 7834 -7524 -7556 0
h -7834 7524 0
h -7834 7556 0
h -4591 7558 7834 0
h 4591 -7558 0
h 4591 -7834 0
h 7835 -7524 -7562 0
h -7835 7524 0
h -7835 7562 0
h -4596 7565 7835 0
h 4596 -7565 0
h 4596 -7835 0
h 7836 -7546 -7562 0
h -7836 7546 0
h -7836 7562 0
h -1430 7570 7836 0
h 1430 -7570 0
h 1430 -7836 0
h 7837 -7535 -7546 0
h -7837 7535 0
h -7837 7546 0
h -1423 7575 7837 0
h 1423 -7575 0
h 1423 -7837 0
h 7838 -7535 -7535 0
h -7838 7535 0
h -7838 7535 0
h -1425 7580 7838 0
h 1425 -7580 0
h 1425 -7838 0
h 7839 -7535 -7556 0
h -7839 7535 0
h -7839 7556 0
h -1428 7585 7839 0
h 1428 -7585 0
h 1428 -7839 0
h 7840 -7535 -7562 0
h -7840 7535 0
h -7840 7562 0
h -1431 7590 7840 0
h 1431 -7590 0
h 1431 -7840 0
h 7841 -7541 -7562 0
h -7841 7541 0
h -7841 7562 0
h -1434 7595 7841 0
h 1434 -7595 0
h 1434 -7841 0
h 7842 -7556 -7546 0
h -7842 7556 0
h -7842 7546 0
h -1427 7600 7842 0
h 1427 -7600 0
h 1427 -7842 0
h 7843 -7556 -7541 0
h -7843 7556 0
h -7843 7541 0
h -1436 7605 7843 0
h 1436 -7605 0
h 1436 -7843 0
h 7844 -7556 -7556 0
h -7844 7556 0
h -7844 7556 0
h -1439 7610 7844 0
h 1439 -7610 0
h 1439 -7844 0
h 7845 -7183 -7176 0
h -7845 7183 0
h -7845 7176 0
h 7846 -7176 -7176 0
h -7846 7176 0
h -7846 7176 0
h 7847 -7176 -7183 0
h -7847 7176 0
h -7847 7183 0
h 7848 -7183 -7183 -7228 0
h -7848 7183 0
h -7848 7183 0
h -7848 7228 0
h -3127 7148 7845 7846 7847 7848 0
h 3127 -7148 0
h 3127 -7845 0
h 3127 -7846 0
h 3127 -7847 0
h 3127 -7848 0
h 7849 -7183 -7171 0
h -7849 7183 0
h -7849 7171 0
h 7850 -7176 -7171 0
h -7850 7176 0
h -7850 7171 0
h 7851 -7176 -7178 0
h -7851 7176 0
h -7851 7178 0
h 7852 -7183 -7178 -7228 0
h -7852 7183 0
h -7852 7178 0
h -7852 7228 0
h -5061 7143 7849 7850 7851 7852 0
h 5061 -7143 0
h 5061 -7849 0
h 5061 -7850 0
h 5061 -7851 0
h 5061 -7852 0
h 7853 -7183 -7174 0
h -7853 7183 0
h -7853 7174 0
h 7854 -7176 -7180 0
h -7854 7176 0
h -7854 7180 0
h 7855 -7176 -7174 0
h -7855 7176 0
h -7855 7174 0
h 7856 -7183 -7180 -7228 0
h -7856 7183 0
h -7856 7180 0
h -7856 7228 0
h -3125 7142 7853 7854 7855 7856 0
h 3125 -7142 0
h 3125 -7853 0
h 3125 -7854 0
h 3125 -7855 0
h 3125 -7856 0
h 7857 -7188 -7174 0
h -7857 7188 0
h -7857 7174 0
h 7858 -7218 -7174 0
h -7858 7218 0
h -7858 7174 0
h 7859 -7218 -7180 0
h -7859 7218 0
h -7859 7180 0
h 7860 -7188 -7180 -7228 0
h -7860 7188 0
h -7860 7180 0
h -7860 7228 0
h -3135 7164 7857 7858 7859 7860 0
h 3135 -7164 0
h 3135 -7857 0
h 3135 -7858 0
h 3135 -7859 0
h 3135 -7860 0
h 7861 -7183 -7203 0
h -7861 7183 0
h -7861 7203 0
h 7862 -7176 -7203 0
h -7862 7176 0
h -7862 7203 0
h 7863 -7176 -7208 0
h -7863 7176 0
h -7863 7208 0
h 7864 -7183 -7208 -7228 0
h -7864 7183 0
h -7864 7208 0
h -7864 7228 0
h -3130 7155 7861 7862 7863 7864 0
h 3130 -7155 0
h 3130 -7861 0
h 3130 -7862 0
h 3130 -7863 0
h 3130 -7864 0
h 7865 -7183 -7223 0
h -7865 7183 0
h -7865 7223 0
h 7866 -7176 -7213 0
h -7866 7176 0
h -7866 7213 0
h 7867 -7176 -7223 0
h -7867 7176 0
h -7867 7223 0
h 7868 -7183 -7213 -7228 0
h -7868 7183 0
h -7868 7213 0
h -7868 7228 0
h -3133 7162 7865 7866 7867 7868 0
h 3133 -7162 0
h 3133 -7865 0
h 3133 -7866 0
h 3133 -7867 0
h 3133 -7868 0
h 7869 -7188 -7223 0
h -7869 7188 0
h -7869 7223 0
h 7870 -7218 -7223 0
h -7870 7218 0
h -7870 7223 0
h 7871 -7218 -7213 0
h -7871 7218 0
h -7871 7213 0
h 7872 -7188 -7213 -7228 0
h -7872 7188 0
h -7872 7213 0
h -7872 7228 0
h -3136 7169 7869 7870 7871 7872 0
h 3136 -7169 0
h 3136 -7869 0
h 3136 -7870 0
h 3136 -7871 0
h 3136 -7872 0
h 7873 -7178 -7218 0
h -7873 7178 0
h -7873 7218 0
h 7874 -7171 -7188 0
h -7874 7171 0
h -7874 7188 0
h 7875 -7171 -7218 0
h -7875 7171 0
h -7875 7218 0
h 7876 -7178 -7188 -7228 0
h -7876 7178 0
h -7876 7188 0
h -7876 7228 0
h -3511 7166 7873 7874 7875 7876 0
h 3511 -7166 0
h 3511 -7873 0
h 3511 -7874 0
h 3511 -7875 0
h 3511 -7876 0
h 7877 -7178 -7171 0
h -7877 7178 0
h -7877 7171 0
h 7225 -7171 -7171 0
h -7225 7171 0
h -7225 7171 0
h 7878 -7171 -7178 0
h -7878 7171 0
h -7878 7178 0
h 7879 -7178 -7178 -7228 0
h -7879 7178 0
h -7879 7178 0
h -7879 7228 0
h -3513 7147 7877 7225 7878 7879 0
h 3513 -7147 0
h 3513 -7877 0
h 3513 -7225 0
h 3513 -7878 0
h 3513 -7879 0
h 7880 -7178 -7203 0
h -7880 7178 0
h -7880 7203 0
h 7881 -7171 -7203 0
h -7881 7171 0
h -7881 7203 0
h 7882 -7171 -7208 0
h -7882 7171 0
h -7882 7208 0
h 7883 -7178 -7208 -7228 0
h -7883 7178 0
h -7883 7208 0
h -7883 7228 0
h -3515 7150 7880 7881 7882 7883 0
h 3515 -7150 0
h 3515 -7880 0
h 3515 -7881 0
h 3515 -7882 0
h 3515 -7883 0
h 7884 -7178 -7223 0
h -7884 7178 0
h -7884 7223 0
h 7885 -7171 -7213 0
h -7885 7171 0
h -7885 7213 0
h 7886 -7171 -7223 0
h -7886 7171 0
h -7886 7223 0
h 7887 -7178 -7213 -7228 0
h -7887 7178 0
h -7887 7213 0
h -7887 7228 0
h -3517 7157 7884 7885 7886 7887 0
h 3517 -7157 0
h 3517 -7884 0
h 3517 -7885 0
h 3517 -7886 0
h 3517 -7887 0
h 7888 -7180 -7223 0
h -7888 7180 0
h -7888 7223 0
h 7889 -7174 -7223 0
h -7889 7174 0
h -7889 7223 0
h 7890 -7174 -7213 0
h -7890 7174 0
h -7890 7213 0
h 7891 -7180 -7213 -7228 0
h -7891 7180 0
h -7891 7213 0
h -7891 7228 0
h -3132 7159 7888 7889 7890 7891 0
h 3132 -7159 0
h 3132 -7888 0
h 3132 -7889 0
h 3132 -7890 0
h 3132 -7891 0
h 7892 -7208 -7218 0
h -7892 7208 0
h -7892 7218 0
h 7893 -7203 -7188 0
h -7893 7203 0
h -7893 7188 0
h 7894 -7203 -7218 0
h -7894 7203 0
h -7894 7218 0
h 7895 -7208 -7188 -7228 0
h -7895 7208 0
h -7895 7188 0
h -7895 7228 0
h -3138 7193 7892 7893 7894 7895 0
h 3138 -7193 0
h 3138 -7892 0
h 3138 -7893 0
h 3138 -7894 0
h 3138 -7895 0
h 7896 -7208 -7174 0
h -7896 7208 0
h -7896 7174 0
h 7897 -7203 -7180 0
h -7897 7203 0
h -7897 7180 0
h 7898 -7203 -7174 0
h -7898 7203 0
h -7898 7174 0
h 7899 -7208 -7180 -7228 0
h -7899 7208 0
h -7899 7180 0
h -7899 7228 0
h -3129 7153 7896 7897 7898 7899 0
h 3129 -7153 0
h 3129 -7896 0
h 3129 -7897 0
h 3129 -7898 0
h 3129 -7899 0
h 7900 -7208 -7203 0
h -7900 7208 0
h -7900 7203 0
h 7901 -7203 -7203 0
h -7901 7203 0
h -7901 7203 0
h 7902 -7203 -7208 0
h -7902 7203 0
h -7902 7208 0
h 7903 -7208 -7208 -7228 0
h -7903 7208 0
h -7903 7208 0
h -7903 7228 0
h -3141 7198 7900 7901 7902 7903 0
h 3141 -7198 0
h 3141 -7900 0
h 3141 -7901 0
h 3141 -7902 0
h 3141 -7903 0
h 7904 -7905 -7905 0
h -7904 7905 0
h -7904 7905 0
h -4344 7906 7904 0
h 4344 -7906 0
h 4344 -7904 0
h 7907 -7905 -7908 0
h -7907 7905 0
h -7907 7908 0
h -4340 7909 7907 0
h 4340 -7909 0
h 4340 -7907 0
h 7910 -7905 -7911 0
h -7910 7905 0
h -7910 7911 0
h -4364 7912 7910 0
h 4364 -7912 0
h 4364 -7910 0
h 7913 -7914 -7911 0
h -7913 7914 0
h -7913 7911 0
h -4362 7915 7913 0
h 4362 -7915 0
h 4362 -7913 0
h 7916 -7905 -7917 0
h -7916 7905 0
h -7916 7917 0
h -4348 7918 7916 0
h 4348 -7918 0
h 4348 -7916 0
h 7919 -7905 -7920 0
h -7919 7905 0
h -7919 7920 0
h -4355 7921 7919 0
h 4355 -7921 0
h 4355 -7919 0
h 7922 -7914 -7920 0
h -7922 7914 0
h -7922 7920 0
h -4357 7923 7922 0
h 4357 -7923 0
h 4357 -7922 0
h 7924 -7908 -7914 0
h -7924 7908 0
h -7924 7914 0
h -4339 7925 7924 0
h 4339 -7925 0
h 4339 -7924 0
h 7926 -7908 -7908 0
h -7926 7908 0
h -7926 7908 0
h -4346 7927 7926 0
h 4346 -7927 0
h 4346 -7926 0
h 7928 -7908 -7917 0
h -7928 7908 0
h -7928 7917 0
h -4353 7929 7928 0
h 4353 -7929 0
h 4353 -7928 0
h 7930 -7908 -7920 0
h -7930 7908 0
h -7930 7920 0
h -4360 7931 7930 0
h 4360 -7931 0
h 4360 -7930 0
h 7932 -7911 -7920 0
h -7932 7911 0
h -7932 7920 0
h -4367 7933 7932 0
h 4367 -7933 0
h 4367 -7932 0
h 7934 -7917 -7914 0
h -7934 7917 0
h -7934 7914 0
h -4351 7935 7934 0
h 4351 -7935 0
h 4351 -7934 0
h 7936 -7917 -7911 0
h -7936 7917 0
h -7936 7911 0
h -4372 7937 7936 0
h 4372 -7937 0
h 4372 -7936 0
h 7938 -7917 -7917 0
h -7938 7917 0
h -7938 7917 0
h -4378 7939 7938 0
h 4378 -7939 0
h 4378 -7938 0
h 7940 -6974 -6971 0
h -7940 6974 0
h -7940 6971 0
h 7941 -6971 -6971 0
h -7941 6971 0
h -7941 6971 0
h 7942 -6971 -6974 0
h -7942 6971 0
h -7942 6974 0
h 7943 -6974 -6974 -6989 0
h -7943 6974 0
h -7943 6974 0
h -7943 6989 0
h -2220 6968 7940 7941 7942 7943 0
h 2220 -6968 0
h 2220 -7940 0
h 2220 -7941 0
h 2220 -7942 0
h 2220 -7943 0
h 7944 -6974 -7945 0
h -7944 6974 0
h -7944 7945 0
h 7946 -6971 -7945 0
h -7946 6971 0
h -7946 7945 0
h 7947 -6971 -7948 0
h -7947 6971 0
h -7947 7948 0
h 7949 -6974 -7948 -6989 0
h -7949 6974 0
h -7949 7948 0
h -7949 6989 0
h -2215 7950 7944 7946 7947 7949 0
h 2215 -7950 0
h 2215 -7944 0
h 2215 -7946 0
h 2215 -7947 0
h 2215 -7949 0
h 7951 -6974 -6970 0
h -7951 6974 0
h -7951 6970 0
h 7952 -6971 -6973 0
h -7952 6971 0
h -7952 6973 0
h 7953 -6971 -6970 0
h -7953 6971 0
h -7953 6970 0
h 7954 -6974 -6973 -6989 0
h -7954 6974 0
h -7954 6973 0
h -7954 6989 0
h -2214 6967 7951 7952 7953 7954 0
h 2214 -6967 0
h 2214 -7951 0
h 2214 -7952 0
h 2214 -7953 0
h 2214 -7954 0
h 7955 -6977 -6970 0
h -7955 6977 0
h -7955 6970 0
h 7956 -6987 -6970 0
h -7956 6987 0
h -7956 6970 0
h 7957 -6987 -6973 0
h -7957 6987 0
h -7957 6973 0
h 7958 -6977 -6973 -6989 0
h -7958 6977 0
h -7958 6973 0
h -7958 6989 0
h -1866 6976 7955 7956 7957 7958 0
h 1866 -6976 0
h 1866 -7955 0
h 1866 -7956 0
h 1866 -7957 0
h 1866 -7958 0
h 7959 -6974 -6991 0
h -7959 6974 0
h -7959 6991 0
h 7960 -6971 -6991 0
h -7960 6971 0
h -7960 6991 0
h 7961 -6971 -6999 0
h -7961 6971 0
h -7961 6999 0
h 7962 -6974 -6999 -6989 0
h -7962 6974 0
h -7962 6999 0
h -7962 6989 0
h -2225 6980 7959 7960 7961 7962 0
h 2225 -6980 0
h 2225 -7959 0
h 2225 -7960 0
h 2225 -7961 0
h 2225 -7962 0
h 7963 -6974 -6993 0
h -7963 6974 0
h -7963 6993 0
h 7964 -6971 -6995 0
h -7964 6971 0
h -7964 6995 0
h 7965 -6971 -6993 0
h -7965 6971 0
h -7965 6993 0
h 7966 -6974 -6995 -6989 0
h -7966 6974 0
h -7966 6995 0
h -7966 6989 0
h -2230 6983 7963 7964 7965 7966 0
h 2230 -6983 0
h 2230 -7963 0
h 2230 -7964 0
h 2230 -7965 0
h 2230 -7966 0
h 7967 -6977 -6993 0
h -7967 6977 0
h -7967 6993 0
h 7968 -6987 -6993 0
h -7968 6987 0
h -7968 6993 0
h 7969 -6987 -6995 0
h -7969 6987 0
h -7969 6995 0
h 7970 -6977 -6995 -6989 0
h -7970 6977 0
h -7970 6995 0
h -7970 6989 0
h -1863 6985 7967 7968 7969 7970 0
h 1863 -6985 0
h 1863 -7967 0
h 1863 -7968 0
h 1863 -7969 0
h 1863 -7970 0
h 7971 -7948 -6987 0
h -7971 7948 0
h -7971 6987 0
h 7972 -7945 -6977 0
h -7972 7945 0
h -7972 6977 0
h 7973 -7945 -6987 0
h -7973 7945 0
h -7973 6987 0
h 7974 -7948 -6977 -6989 0
h -7974 7948 0
h -7974 6977 0
h -7974 6989 0
h -1856 7975 7971 7972 7973 7974 0
h 1856 -7975 0
h 1856 -7971 0
h 1856 -7972 0
h 1856 -7973 0
h 1856 -7974 0
h 7976 -7948 -7945 0
h -7976 7948 0
h -7976 7945 0
h 7977 -7945 -7945 0
h -7977 7945 0
h -7977 7945 0
h 7978 -7945 -7948 0
h -7978 7945 0
h -7978 7948 0
h 7979 -7948 -7948 -6989 0
h -7979 7948 0
h -7979 7948 0
h -7979 6989 0
h -1858 7980 7976 7977 7978 7979 0
h 1858 -7980 0
h 1858 -7976 0
h 1858 -7977 0
h 1858 -7978 0
h 1858 -7979 0
h 7981 -7948 -6991 0
h -7981 7948 0
h -7981 6991 0
h 7982 -7945 -6991 0
h -7982 7945 0
h -7982 6991 0
h 7983 -7945 -6999 0
h -7983 7945 0
h -7983 6999 0
h 7984 -7948 -6999 -6989 0
h -7984 7948 0
h -7984 6999 0
h -7984 6989 0
h -1861 7985 7981 7982 7983 7984 0
h 1861 -7985 0
h 1861 -7981 0
h 1861 -7982 0
h 1861 -7983 0
h 1861 -7984 0
h 7986 -7948 -6993 0
h -7986 7948 0
h -7986 6993 0
h 7987 -7945 -6995 0
h -7987 7945 0
h -7987 6995 0
h 7988 -7945 -6993 0
h -7988 7945 0
h -7988 6993 0
h 7989 -7948 -6995 -6989 0
h -7989 7948 0
h -7989 6995 0
h -7989 6989 0
h -1864 7990 7986 7987 7988 7989 0
h 1864 -7990 0
h 1864 -7986 0
h 1864 -7987 0
h 1864 -7988 0
h 1864 -7989 0
h 7991 -6973 -6993 0
h -7991 6973 0
h -7991 6993 0
h 7992 -6970 -6993 0
h -7992 6970 0
h -7992 6993 0
h 7993 -6970 -6995 0
h -7993 6970 0
h -7993 6995 0
h 7994 -6973 -6995 -6989 0
h -7994 6973 0
h -7994 6995 0
h -7994 6989 0
h -1867 6982 7991 7992 7993 7994 0
h 1867 -6982 0
h 1867 -7991 0
h 1867 -7992 0
h 1867 -7993 0
h 1867 -7994 0
h 7995 -6999 -6987 0
h -7995 6999 0
h -7995 6987 0
h 7996 -6991 -6977 0
h -7996 6991 0
h -7996 6977 0
h 7997 -6991 -6987 0
h -7997 6991 0
h -7997 6987 0
h 7998 -6999 -6977 -6989 0
h -7998 6999 0
h -7998 6977 0
h -7998 6989 0
h -1860 6997 7995 7996 7997 7998 0
h 1860 -6997 0
h 1860 -7995 0
h 1860 -7996 0
h 1860 -7997 0
h 1860 -7998 0
h 7999 -6999 -6970 0
h -7999 6999 0
h -7999 6970 0
h 8000 -6991 -6973 0
h -8000 6991 0
h -8000 6973 0
h 8001 -6991 -6970 0
h -8001 6991 0
h -8001 6970 0
h 8002 -6999 -6973 -6989 0
h -8002 6999 0
h -8002 6973 0
h -8002 6989 0
h -1869 6979 7999 8000 8001 8002 0
h 1869 -6979 0
h 1869 -7999 0
h 1869 -8000 0
h 1869 -8001 0
h 1869 -8002 0
h 8003 -6999 -6991 0
h -8003 6999 0
h -8003 6991 0
h 8004 -6991 -6991 0
h -8004 6991 0
h -8004 6991 0
h 8005 -6991 -6999 0
h -8005 6991 0
h -8005 6999 0
h 8006 -6999 -6999 -6989 0
h -8006 6999 0
h -8006 6999 0
h -8006 6989 0
h -1872 7001 8003 8004 8005 8006 0
h 1872 -7001 0
h 1872 -8003 0
h 1872 -8004 0
h 1872 -8005 0
h 1872 -8006 0
h 8007 -8008 -8009 0
h -8007 8008 0
h -8007 8009 0
h 8010 -8009 -8009 0
h -8010 8009 0
h -8010 8009 0
h 8011 -8009 -8008 0
h -8011 8009 0
h -8011 8008 0
h 8012 -8008 -8008 -8013 0
h -8012 8008 0
h -8012 8008 0
h -8012 8013 0
h -2089 8014 8007 8010 8011 8012 0
h 2089 -8014 0
h 2089 -8007 0
h 2089 -8010 0
h 2089 -8011 0
h 2089 -8012 0
h 8015 -8008 -8016 0
h -8015 8008 0
h -8015 8016 0
h 8017 -8009 -8016 0
h -8017 8009 0
h -8017 8016 0
h 8018 -8009 -8019 0
h -8018 8009 0
h -8018 8019 0
h 8020 -8008 -8019 -8013 0
h -8020 8008 0
h -8020 8019 0
h -8020 8013 0
h -2085 8021 8015 8017 8018 8020 0
h 2085 -8021 0
h 2085 -8015 0
h 2085 -8017 0
h 2085 -8018 0
h 2085 -8020 0
h 8022 -8008 -8023 0
h -8022 8008 0
h -8022 8023 0
h 8024 -8009 -8025 0
h -8024 8009 0
h -8024 8025 0
h 8026 -8009 -8023 0
h -8026 8009 0
h -8026 8023 0
h 8027 -8008 -8025 -8013 0
h -8027 8008 0
h -8027 8025 0
h -8027 8013 0
h -2109 8028 8022 8024 8026 8027 0
h 2109 -8028 0
h 2109 -8022 0
h 2109 -8024 0
h 2109 -8026 0
h 2109 -8027 0
h 8029 -8030 -8023 0
h -8029 8030 0
h -8029 8023 0
h 8031 -8032 -8023 0
h -8031 8032 0
h -8031 8023 0
h 8033 -8032 -8025 0
h -8033 8032 0
h -8033 8025 0
h 8034 -8030 -8025 -8013 0
h -8034 8030 0
h -8034 8025 0
h -8034 8013 0
h -2107 8035 8029 8031 8033 8034 0
h 2107 -8035 0
h 2107 -8029 0
h 2107 -8031 0
h 2107 -8033 0
h 2107 -8034 0
h 8036 -8008 -8037 0
h -8036 8008 0
h -8036 8037 0
h 8038 -8009 -8037 0
h -8038 8009 0
h -8038 8037 0
h 8039 -8009 -8040 0
h -8039 8009 0
h -8039 8040 0
h 8041 -8008 -8040 -8013 0
h -8041 8008 0
h -8041 8040 0
h -8041 8013 0
h -2093 8042 8036 8038 8039 8041 0
h 2093 -8042 0
h 2093 -8036 0
h 2093 -8038 0
h 2093 -8039 0
h 2093 -8041 0
h 8043 -8008 -8044 0
h -8043 8008 0
h -8043 8044 0
h 8045 -8009 -8046 0
h -8045 8009 0
h -8045 8046 0
h 8047 -8009 -8044 0
h -8047 8009 0
h -8047 8044 0
h 8048 -8008 -8046 -8013 0
h -8048 8008 0
h -8048 8046 0
h -8048 8013 0
h -2100 8049 8043 8045 8047 8048 0
h 2100 -8049 0
h 2100 -8043 0
h 2100 -8045 0
h 2100 -8047 0
h 2100 -8048 0
h 8050 -8030 -8044 0
h -8050 8030 0
h -8050 8044 0
h 8051 -8032 -8044 0
h -8051 8032 0
h -8051 8044 0
h 8052 -8032 -8046 0
h -8052 8032 0
h -8052 8046 0
h 8053 -8030 -8046 -8013 0
h -8053 8030 0
h -8053 8046 0
h -8053 8013 0
h -2102 8054 8050 8051 8052 8053 0
h 2102 -8054 0
h 2102 -8050 0
h 2102 -8051 0
h 2102 -8052 0
h 2102 -8053 0
h 8055 -8019 -8032 0
h -8055 8019 0
h -8055 8032 0
h 8056 -8016 -8030 0
h -8056 8016 0
h -8056 8030 0
h 8057 -8016 -8032 0
h -8057 8016 0
h -8057 8032 0
h 8058 -8019 -8030 -8013 0
h -8058 8019 0
h -8058 8030 0
h -8058 8013 0
h -2084 8059 8055 8056 8057 8058 0
h 2084 -8059 0
h 2084 -8055 0
h 2084 -8056 0
h 2084 -8057 0
h 2084 -8058 0
h 8060 -8019 -8016 0
h -8060 8019 0
h -8060 8016 0
h 8061 -8016 -8016 0
h -8061 8016 0
h -8061 8016 0
h 8062 -8016 -8019 0
h -8062 8016 0
h -8062 8019 0
h 8063 -8019 -8019 -8013 0
h -8063 8019 0
h -8063 8019 0
h -8063 8013 0
h -2091 8064 8060 8061 8062 8063 0
h 2091 -8064 0
h 2091 -8060 0
h 2091 -8061 0
h 2091 -8062 0
h 2091 -8063 0
h 8065 -8019 -8037 0
h -8065 8019 0
h -8065 8037 0
h 8066 -8016 -8037 0
h -8066 8016 0
h -8066 8037 0
h 8067 -8016 -8040 0
h -8067 8016 0
h -8067 8040 0
h 8068 -8019 -8040 -8013 0
h -8068 8019 0
h -8068 8040 0
h -8068 8013 0
h -2098 8069 8065 8066 8067 8068 0
h 2098 -8069 0
h 2098 -8065 0
h 2098 -8066 0
h 2098 -8067 0
h 2098 -8068 0
h 8070 -8019 -8044 0
h -8070 8019 0
h -8070 8044 0
h 8071 -8016 -8046 0
h -8071 8016 0
h -8071 8046 0
h 8072 -8016 -8044 0
h -8072 8016 0
h -8072 8044 0
h 8073 -8019 -8046 -8013 0
h -8073 8019 0
h -8073 8046 0
h -8073 8013 0
h -2105 8074 8070 8071 8072 8073 0
h 2105 -8074 0
h 2105 -8070 0
h 2105 -8071 0
h 2105 -8072 0
h 2105 -8073 0
h 8075 -8025 -8044 0
h -8075 8025 0
h -8075 8044 0
h 8076 -8023 -8044 0
h -8076 8023 0
h -8076 8044 0
h 8077 -8023 -8046 0
h -8077 8023 0
h -8077 8046 0
h 8078 -8025 -8046 -8013 0
h -8078 8025 0
h -8078 8046 0
h -8078 8013 0
h -2112 8079 8075 8076 8077 8078 0
h 2112 -8079 0
h 2112 -8075 0
h 2112 -8076 0
h 2112 -8077 0
h 2112 -8078 0
h 8080 -8040 -8032 0
h -8080 8040 0
h -8080 8032 0
h 8081 -8037 -8030 0
h -8081 8037 0
h -8081 8030 0
h 8082 -8037 -8032 0
h -8082 8037 0
h -8082 8032 0
h 8083 -8040 -8030 -8013 0
h -8083 8040 0
h -8083 8030 0
h -8083 8013 0
h -2096 8084 8080 8081 8082 8083 0
h 2096 -8084 0
h 2096 -8080 0
h 2096 -8081 0
h 2096 -8082 0
h 2096 -8083 0
h 8085 -8040 -8023 0
h -8085 8040 0
h -8085 8023 0
h 8086 -8037 -8025 0
h -8086 8037 0
h -8086 8025 0
h 8087 -8037 -8023 0
h -8087 8037 0
h -8087 8023 0
h 8088 -8040 -8025 -8013 0
h -8088 8040 0
h -8088 8025 0
h -8088 8013 0
h -2117 8089 8085 8086 8087 8088 0
h 2117 -8089 0
h 2117 -8085 0
h 2117 -8086 0
h 2117 -8087 0
h 2117 -8088 0
h 8090 -8040 -8037 0
h -8090 8040 0
h -8090 8037 0
h 8091 -8037 -8037 0
h -8091 8037 0
h -8091 8037 0
h 8092 -8037 -8040 0
h -8092 8037 0
h -8092 8040 0
h 8093 -8040 -8040 -8013 0
h -8093 8040 0
h -8093 8040 0
h -8093 8013 0
h -2123 8094 8090 8091 8092 8093 0
h 2123 -8094 0
h 2123 -8090 0
h 2123 -8091 0
h 2123 -8092 0
h 2123 -8093 0
h 8095 -6543 -8096 0
h -8095 6543 0
h -8095 8096 0
h 8097 -8096 -8096 0
h -8097 8096 0
h -8097 8096 0
h 8098 -8096 -6543 0
h -8098 8096 0
h -8098 6543 0
h 8099 -6543 -6543 -8100 0
h -8099 6543 0
h -8099 6543 0
h -8099 8100 0
h -2267 6544 8095 8097 8098 8099 0
h 2267 -6544 0
h 2267 -8095 0
h 2267 -8097 0
h 2267 -8098 0
h 2267 -8099 0
h 8101 -6543 -8102 0
h -8101 6543 0
h -8101 8102 0
h 8103 -8096 -8102 0
h -8103 8096 0
h -8103 8102 0
h 8104 -8096 -6546 0
h -8104 8096 0
h -8104 6546 0
h 8105 -6543 -6546 -8100 0
h -8105 6543 0
h -8105 6546 0
h -8105 8100 0
h -2263 6547 8101 8103 8104 8105 0
h 2263 -6547 0
h 2263 -8101 0
h 2263 -8103 0
h 2263 -8104 0
h 2263 -8105 0
h 8106 -6543 -8107 0
h -8106 6543 0
h -8106 8107 0
h 8108 -8096 -6549 0
h -8108 8096 0
h -8108 6549 0
h 8109 -8096 -8107 0
h -8109 8096 0
h -8109 8107 0
h 8110 -6543 -6549 -8100 0
h -8110 6543 0
h -8110 6549 0
h -8110 8100 0
h -2281 6550 8106 8108 8109 8110 0
h 2281 -6550 0
h 2281 -8106 0
h 2281 -8108 0
h 2281 -8109 0
h 2281 -8110 0
h 8111 -6552 -8107 0
h -8111 6552 0
h -8111 8107 0
h 8112 -8113 -8107 0
h -8112 8113 0
h -8112 8107 0
h 8114 -8113 -6549 0
h -8114 8113 0
h -8114 6549 0
h 8115 -6552 -6549 -8100 0
h -8115 6552 0
h -8115 6549 0
h -8115 8100 0
h -2161 6553 8111 8112 8114 8115 0
h 2161 -6553 0
h 2161 -8111 0
h 2161 -8112 0
h 2161 -8114 0
h 2161 -8115 0
h 8116 -6543 -8117 0
h -8116 6543 0
h -8116 8117 0
h 8118 -8096 -8117 0
h -8118 8096 0
h -8118 8117 0
h 8119 -8096 -6555 0
h -8119 8096 0
h -8119 6555 0
h 8120 -6543 -6555 -8100 0
h -8120 6543 0
h -8120 6555 0
h -8120 8100 0
h -2270 6556 8116 8118 8119 8120 0
h 2270 -6556 0
h 2270 -8116 0
h 2270 -8118 0
h 2270 -8119 0
h 2270 -8120 0
h 8121 -6543 -8122 0
h -8121 6543 0
h -8121 8122 0
h 8123 -8096 -6558 0
h -8123 8096 0
h -8123 6558 0
h 8124 -8096 -8122 0
h -8124 8096 0
h -8124 8122 0
h 8125 -6543 -6558 -8100 0
h -8125 6543 0
h -8125 6558 0
h -8125 8100 0
h -2275 6559 8121 8123 8124 8125 0
h 2275 -6559 0
h 2275 -8121 0
h 2275 -8123 0
h 2275 -8124 0
h 2275 -8125 0
h 8126 -6552 -8122 0
h -8126 6552 0
h -8126 8122 0
h 8127 -8113 -8122 0
h -8127 8113 0
h -8127 8122 0
h 8128 -8113 -6558 0
h -8128 8113 0
h -8128 6558 0
h 8129 -6552 -6558 -8100 0
h -8129 6552 0
h -8129 6558 0
h -8129 8100 0
h -2158 6561 8126 8127 8128 8129 0
h 2158 -6561 0
h 2158 -8126 0
h 2158 -8127 0
h 2158 -8128 0
h 2158 -8129 0
h 8130 -6546 -8113 0
h -8130 6546 0
h -8130 8113 0
h 8131 -8102 -6552 0
h -8131 8102 0
h -8131 6552 0
h 8132 -8102 -8113 0
h -8132 8102 0
h -8132 8113 0
h 8133 -6546 -6552 -8100 0
h -8133 6546 0
h -8133 6552 0
h -8133 8100 0
h -2151 6563 8130 8131 8132 8133 0
h 2151 -6563 0
h 2151 -8130 0
h 2151 -8131 0
h 2151 -8132 0
h 2151 -8133 0
h 8134 -6546 -8102 0
h -8134 6546 0
h -8134 8102 0
h 8135 -8102 -8102 0
h -8135 8102 0
h -8135 8102 0
h 8136 -8102 -6546 0
h -8136 8102 0
h -8136 6546 0
h 8137 -6546 -6546 -8100 0
h -8137 6546 0
h -8137 6546 0
h -8137 8100 0
h -2153 6565 8134 8135 8136 8137 0
h 2153 -6565 0
h 2153 -8134 0
h 2153 -8135 0
h 2153 -8136 0
h 2153 -8137 0
h 8138 -6546 -8117 0
h -8138 6546 0
h -8138 8117 0
h 8139 -8102 -8117 0
h -8139 8102 0
h -8139 8117 0
h 8140 -8102 -6555 0
h -8140 8102 0
h -8140 6555 0
h 8141 -6546 -6555 -8100 0
h -8141 6546 0
h -8141 6555 0
h -8141 8100 0
h -2156 6567 8138 8139 8140 8141 0
h 2156 -6567 0
h 2156 -8138 0
h 2156 -8139 0
h 2156 -8140 0
h 2156 -8141 0
h 8142 -6546 -8122 0
h -8142 6546 0
h -8142 8122 0
h 8143 -8102 -6558 0
h -8143 8102 0
h -8143 6558 0
h 8144 -8102 -8122 0
h -8144 8102 0
h -8144 8122 0
h 8145 -6546 -6558 -8100 0
h -8145 6546 0
h -8145 6558 0
h -8145 8100 0
h -2159 6569 8142 8143 8144 8145 0
h 2159 -6569 0
h 2159 -8142 0
h 2159 -8143 0
h 2159 -8144 0
h 2159 -8145 0
h 8146 -6549 -8122 0
h -8146 6549 0
h -8146 8122 0
h 8147 -8107 -8122 0
h -8147 8107 0
h -8147 8122 0
h 8148 -8107 -6558 0
h -8148 8107 0
h -8148 6558 0
h 8149 -6549 -6558 -8100 0
h -8149 6549 0
h -8149 6558 0
h -8149 8100 0
h -2162 6571 8146 8147 8148 8149 0
h 2162 -6571 0
h 2162 -8146 0
h 2162 -8147 0
h 2162 -8148 0
h 2162 -8149 0
h 8150 -6555 -8113 0
h -8150 6555 0
h -8150 8113 0
h 8151 -8117 -6552 0
h -8151 8117 0
h -8151 6552 0
h 8152 -8117 -8113 0
h -8152 8117 0
h -8152 8113 0
h 8153 -6555 -6552 -8100 0
h -8153 6555 0
h -8153 6552 0
h -8153 8100 0
h -2155 6573 8150 8151 8152 8153 0
h 2155 -6573 0
h 2155 -8150 0
h 2155 -8151 0
h 2155 -8152 0
h 2155 -8153 0
h 8154 -6555 -8107 0
h -8154 6555 0
h -8154 8107 0
h 8155 -8117 -6549 0
h -8155 8117 0
h -8155 6549 0
h 8156 -8117 -8107 0
h -8156 8117 0
h -8156 8107 0
h 8157 -6555 -6549 -8100 0
h -8157 6555 0
h -8157 6549 0
h -8157 8100 0
h -2164 6575 8154 8155 8156 8157 0
h 2164 -6575 0
h 2164 -8154 0
h 2164 -8155 0
h 2164 -8156 0
h 2164 -8157 0
h 8158 -6555 -8117 0
h -8158 6555 0
h -8158 8117 0
h 8159 -8117 -8117 0
h -8159 8117 0
h -8159 8117 0
h 8160 -8117 -6555 0
h -8160 8117 0
h -8160 6555 0
h 8161 -6555 -6555 -8100 0
h -8161 6555 0
h -8161 6555 0
h -8161 8100 0
h -2167 6577 8158 8159 8160 8161 0
h 2167 -6577 0
h 2167 -8158 0
h 2167 -8159 0
h 2167 -8160 0
h 2167 -8161 0
h 8162 -7162 -7162 0
h -8162 7162 0
h -8162 7162 0
h -2545 7148 8162 0
h 2545 -7148 0
h 2545 -8162 0
h 8163 -7162 -7157 0
h -8163 7162 0
h -8163 7157 0
h -2541 7143 8163 0
h 2541 -7143 0
h 2541 -8163 0
h 8164 -7162 -7159 0
h -8164 7162 0
h -8164 7159 0
h -2565 7142 8164 0
h 2565 -7142 0
h 2565 -8164 0
h 8165 -7169 -7159 0
h -8165 7169 0
h -8165 7159 0
h -2563 7164 8165 0
h 2563 -7164 0
h 2563 -8165 0
h 8166 -7162 -7223 0
h -8166 7162 0
h -8166 7223 0
h -2549 7176 8166 0
h 2549 -7176 0
h 2549 -8166 0
h 8167 -7162 -7213 0
h -8167 7162 0
h -8167 7213 0
h -2556 7183 8167 0
h 2556 -7183 0
h 2556 -8167 0
h 8168 -7169 -7213 0
h -8168 7169 0
h -8168 7213 0
h -2558 7188 8168 0
h 2558 -7188 0
h 2558 -8168 0
h 8169 -7157 -7169 0
h -8169 7157 0
h -8169 7169 0
h -2540 7166 8169 0
h 2540 -7166 0
h 2540 -8169 0
h 8170 -7157 -7157 0
h -8170 7157 0
h -8170 7157 0
h -2547 7147 8170 0
h 2547 -7147 0
h 2547 -8170 0
h 8171 -7157 -7223 0
h -8171 7157 0
h -8171 7223 0
h -2554 7171 8171 0
h 2554 -7171 0
h 2554 -8171 0
h 8172 -7157 -7213 0
h -8172 7157 0
h -8172 7213 0
h -2561 7178 8172 0
h 2561 -7178 0
h 2561 -8172 0
h 8173 -7159 -7213 0
h -8173 7159 0
h -8173 7213 0
h -2568 7180 8173 0
h 2568 -7180 0
h 2568 -8173 0
h 8174 -7223 -7169 0
h -8174 7223 0
h -8174 7169 0
h -2552 7218 8174 0
h 2552 -7218 0
h 2552 -8174 0
h 8175 -7223 -7159 0
h -8175 7223 0
h -8175 7159 0
h -2573 7174 8175 0
h 2573 -7174 0
h 2573 -8175 0
h 8176 -7223 -7223 0
h -8176 7223 0
h -8176 7223 0
h -2579 7228 8176 0
h 2579 -7228 0
h 2579 -8176 0
h 8177 -8178 -8178 0
h -8177 8178 0
h -8177 8178 0
h -5663 8179 8177 0
h 5663 -8179 0
h 5663 -8177 0
h 8180 -8178 -8181 0
h -8180 8178 0
h -8180 8181 0
h -5659 8182 8180 0
h 5659 -8182 0
h 5659 -8180 0
h 8183 -8178 -8184 0
h -8183 8178 0
h -8183 8184 0
h -5677 8185 8183 0
h 5677 -8185 0
h 5677 -8183 0
h 8186 -8187 -8184 0
h -8186 8187 0
h -8186 8184 0
h -4121 8188 8186 0
h 4121 -8188 0
h 4121 -8186 0
h 8189 -8178 -8190 0
h -8189 8178 0
h -8189 8190 0
h -5666 8191 8189 0
h 5666 -8191 0
h 5666 -8189 0
h 8192 -8178 -8193 0
h -8192 8178 0
h -8192 8193 0
h -5671 8194 8192 0
h 5671 -8194 0
h 5671 -8192 0
h 8195 -8187 -8193 0
h -8195 8187 0
h -8195 8193 0
h -4118 8196 8195 0
h 4118 -8196 0
h 4118 -8195 0
h 8197 -8181 -8187 0
h -8197 8181 0
h -8197 8187 0
h -4111 8198 8197 0
h 4111 -8198 0
h 4111 -8197 0
h 8199 -8181 -8181 0
h -8199 8181 0
h -8199 8181 0
h -4113 8200 8199 0
h 4113 -8200 0
h 4113 -8199 0
h 8201 -8181 -8190 0
h -8201 8181 0
h -8201 8190 0
h -4116 8202 8201 0
h 4116 -8202 0
h 4116 -8201 0
h 8203 -8181 -8193 0
h -8203 8181 0
h -8203 8193 0
h -4119 8204 8203 0
h 4119 -8204 0
h 4119 -8203 0
h 8205 -8184 -8193 0
h -8205 8184 0
h -8205 8193 0
h -4122 8206 8205 0
h 4122 -8206 0
h 4122 -8205 0
h 8207 -8190 -8187 0
h -8207 8190 0
h -8207 8187 0
h -4115 8208 8207 0
h 4115 -8208 0
h 4115 -8207 0
h 8209 -8190 -8184 0
h -8209 8190 0
h -8209 8184 0
h -4124 8210 8209 0
h 4124 -8210 0
h 4124 -8209 0
h 8211 -8190 -8190 0
h -8211 8190 0
h -8211 8190 0
h -4127 8212 8211 0
h 4127 -8212 0
h 4127 -8211 0
h 8213 -7095 -7095 0
h -8213 7095 0
h -8213 7095 0
h -1702 7060 8213 0
h 1702 -7060 0
h 1702 -8213 0
h 8214 -7095 -7120 0
h -8214 7095 0
h -8214 7120 0
h -3481 7067 8214 0
h 3481 -7067 0
h 3481 -8214 0
h 8215 -7095 -7125 0
h -8215 7095 0
h -8215 7125 0
h -1700 7074 8215 0
h 1700 -7074 0
h 1700 -8215 0
h 8216 -7100 -7125 0
h -8216 7100 0
h -8216 7125 0
h -1710 7081 8216 0
h 1710 -7081 0
h 1710 -8216 0
h 8217 -7095 -7090 0
h -8217 7095 0
h -8217 7090 0
h -1705 7055 8217 0
h 1705 -7055 0
h 1705 -8217 0
h 8218 -7095 -7092 0
h -8218 7095 0
h -8218 7092 0
h -1708 7054 8218 0
h 1708 -7054 0
h 1708 -8218 0
h 8219 -7100 -7092 0
h -8219 7100 0
h -8219 7092 0
h -1711 7076 8219 0
h 1711 -7076 0
h 1711 -8219 0
h 8220 -7120 -7100 0
h -8220 7120 0
h -8220 7100 0
h -3480 7105 8220 0
h 3480 -7105 0
h 3480 -8220 0
h 8221 -7120 -7120 0
h -8221 7120 0
h -8221 7120 0
h -3486 7110 8221 0
h 3486 -7110 0
h 3486 -8221 0
h 8222 -7120 -7090 0
h -8222 7120 0
h -8222 7090 0
h -3491 7062 8222 0
h 3491 -7062 0
h 3491 -8222 0
h 8223 -7120 -7092 0
h -8223 7120 0
h -8223 7092 0
h -3496 7065 8223 0
h 3496 -7065 0
h 3496 -8223 0
h 8224 -7125 -7092 0
h -8224 7125 0
h -8224 7092 0
h -1707 7071 8224 0
h 1707 -7071 0
h 1707 -8224 0
h 8225 -7090 -7100 0
h -8225 7090 0
h -8225 7100 0
h -1713 7078 8225 0
h 1713 -7078 0
h 1713 -8225 0
h 8226 -7090 -7125 0
h -8226 7090 0
h -8226 7125 0
h -1704 7069 8226 0
h 1704 -7069 0
h 1704 -8226 0
h 8227 -7090 -7090 0
h -8227 7090 0
h -8227 7090 0
h -1716 7059 8227 0
h 1716 -7059 0
h 1716 -8227 0
h 8228 -6863 -6863 0
h -8228 6863 0
h -8228 6863 0
h -3381 6849 8228 0
h 3381 -6849 0
h 3381 -8228 0
h 8229 -6863 -6858 0
h -8229 6863 0
h -8229 6858 0
h -3377 6844 8229 0
h 3377 -6844 0
h 3377 -8229 0
h 8230 -6863 -6860 0
h -8230 6863 0
h -8230 6860 0
h -3395 6843 8230 0
h 3395 -6843 0
h 3395 -8230 0
h 8231 -6870 -6860 0
h -8231 6870 0
h -8231 6860 0
h -2752 6865 8231 0
h 2752 -6865 0
h 2752 -8231 0
h 8232 -6863 -6924 0
h -8232 6863 0
h -8232 6924 0
h -3384 6877 8232 0
h 3384 -6877 0
h 3384 -8232 0
h 8233 -6863 -6914 0
h -8233 6863 0
h -8233 6914 0
h -3389 6884 8233 0
h 3389 -6884 0
h 3389 -8233 0
h 8234 -6870 -6914 0
h -8234 6870 0
h -8234 6914 0
h -2749 6889 8234 0
h 2749 -6889 0
h 2749 -8234 0
h 8235 -6858 -6870 0
h -8235 6858 0
h -8235 6870 0
h -2742 6867 8235 0
h 2742 -6867 0
h 2742 -8235 0
h 8236 -6858 -6858 0
h -8236 6858 0
h -8236 6858 0
h -2744 6848 8236 0
h 2744 -6848 0
h 2744 -8236 0
h 8237 -6858 -6924 0
h -8237 6858 0
h -8237 6924 0
h -2747 6872 8237 0
h 2747 -6872 0
h 2747 -8237 0
h 8238 -6858 -6914 0
h -8238 6858 0
h -8238 6914 0
h -2750 6879 8238 0
h 2750 -6879 0
h 2750 -8238 0
h 8239 -6860 -6914 0
h -8239 6860 0
h -8239 6914 0
h -2753 6881 8239 0
h 2753 -6881 0
h 2753 -8239 0
h 8240 -6924 -6870 0
h -8240 6924 0
h -8240 6870 0
h -2746 6919 8240 0
h 2746 -6919 0
h 2746 -8240 0
h 8241 -6924 -6860 0
h -8241 6924 0
h -8241 6860 0
h -2755 6875 8241 0
h 2755 -6875 0
h 2755 -8241 0
h 8242 -6924 -6924 0
h -8242 6924 0
h -8242 6924 0
h -2758 6929 8242 0
h 2758 -6929 0
h 2758 -8242 0
h 8243 -6974 -6974 0
h -8243 6974 0
h -8243 6974 0
h -1924 6968 8243 0
h 1924 -6968 0
h 1924 -8243 0
h 8244 -6974 -7948 0
h -8244 6974 0
h -8244 7948 0
h -1918 7950 8244 0
h 1918 -7950 0
h 1918 -8244 0
h 8245 -6974 -6973 0
h -8245 6974 0
h -8245 6973 0
h -1917 6967 8245 0
h 1917 -6967 0
h 1917 -8245 0
h 8246 -6977 -6973 0
h -8246 6977 0
h -8246 6973 0
h -1940 6976 8246 0
h 1940 -6976 0
h 1940 -8246 0
h 8247 -6974 -6999 0
h -8247 6974 0
h -8247 6999 0
h -1931 6980 8247 0
h 1931 -6980 0
h 1931 -8247 0
h 8248 -6974 -6995 0
h -8248 6974 0
h -8248 6995 0
h -1938 6983 8248 0
h 1938 -6983 0
h 1938 -8248 0
h 8249 -6977 -6995 0
h -8249 6977 0
h -8249 6995 0
h -1945 6985 8249 0
h 1945 -6985 0
h 1945 -8249 0
h 8250 -7948 -6977 0
h -8250 7948 0
h -8250 6977 0
h -1942 7975 8250 0
h 1942 -7975 0
h 1942 -8250 0
h 8251 -7948 -7948 0
h -8251 7948 0
h -8251 7948 0
h -1922 7980 8251 0
h 1922 -7980 0
h 1922 -8251 0
h 8252 -7948 -6999 0
h -8252 7948 0
h -8252 6999 0
h -1926 7985 8252 0
h 1926 -7985 0
h 1926 -8252 0
h 8253 -7948 -6995 0
h -8253 7948 0
h -8253 6995 0
h -1933 7990 8253 0
h 1933 -7990 0
h 1933 -8253 0
h 8254 -6973 -6995 0
h -8254 6973 0
h -8254 6995 0
h -1935 6982 8254 0
h 1935 -6982 0
h 1935 -8254 0
h 8255 -6999 -6977 0
h -8255 6999 0
h -8255 6977 0
h -1950 6997 8255 0
h 1950 -6997 0
h 1950 -8255 0
h 8256 -6999 -6973 0
h -8256 6999 0
h -8256 6973 0
h -1929 6979 8256 0
h 1929 -6979 0
h 1929 -8256 0
h 8257 -6999 -6999 0
h -8257 6999 0
h -8257 6999 0
h -1956 7001 8257 0
h 1956 -7001 0
h 1956 -8257 0
h 8258 -6931 -8259 0
h -8258 6931 0
h -8258 8259 0
h 8260 -8259 -8259 0
h -8260 8259 0
h -8260 8259 0
h 8261 -8259 -6931 0
h -8261 8259 0
h -8261 6931 0
h 8262 -6931 -6931 -8263 0
h -8262 6931 0
h -8262 6931 0
h -8262 8263 0
h -4075 6932 8258 8260 8261 8262 0
h 4075 -6932 0
h 4075 -8258 0
h 4075 -8260 0
h 4075 -8261 0
h 4075 -8262 0
h 8264 -6931 -8265 0
h -8264 6931 0
h -8264 8265 0
h 8266 -8259 -8265 0
h -8266 8259 0
h -8266 8265 0
h 8267 -8259 -6934 0
h -8267 8259 0
h -8267 6934 0
h 8268 -6931 -6934 -8263 0
h -8268 6931 0
h -8268 6934 0
h -8268 8263 0
h -4071 6935 8264 8266 8267 8268 0
h 4071 -6935 0
h 4071 -8264 0
h 4071 -8266 0
h 4071 -8267 0
h 4071 -8268 0
h 8269 -6931 -8270 0
h -8269 6931 0
h -8269 8270 0
h 8271 -8259 -6937 0
h -8271 8259 0
h -8271 6937 0
h 8272 -8259 -8270 0
h -8272 8259 0
h -8272 8270 0
h 8273 -6931 -6937 -8263 0
h -8273 6931 0
h -8273 6937 0
h -8273 8263 0
h -4095 6938 8269 8271 8272 8273 0
h 4095 -6938 0
h 4095 -8269 0
h 4095 -8271 0
h 4095 -8272 0
h 4095 -8273 0
h 8274 -6940 -8270 0
h -8274 6940 0
h -8274 8270 0
h 8275 -8276 -8270 0
h -8275 8276 0
h -8275 8270 0
h 8277 -8276 -6937 0
h -8277 8276 0
h -8277 6937 0
h 8278 -6940 -6937 -8263 0
h -8278 6940 0
h -8278 6937 0
h -8278 8263 0
h -4093 6941 8274 8275 8277 8278 0
h 4093 -6941 0
h 4093 -8274 0
h 4093 -8275 0
h 4093 -8277 0
h 4093 -8278 0
h 8279 -6931 -8280 0
h -8279 6931 0
h -8279 8280 0
h 8281 -8259 -8280 0
h -8281 8259 0
h -8281 8280 0
h 8282 -8259 -6943 0
h -8282 8259 0
h -8282 6943 0
h 8283 -6931 -6943 -8263 0
h -8283 6931 0
h -8283 6943 0
h -8283 8263 0
h -4079 6944 8279 8281 8282 8283 0
h 4079 -6944 0
h 4079 -8279 0
h 4079 -8281 0
h 4079 -8282 0
h 4079 -8283 0
h 8284 -6931 -8285 0
h -8284 6931 0
h -8284 8285 0
h 8286 -8259 -6946 0
h -8286 8259 0
h -8286 6946 0
h 8287 -8259 -8285 0
h -8287 8259 0
h -8287 8285 0
h 8288 -6931 -6946 -8263 0
h -8288 6931 0
h -8288 6946 0
h -8288 8263 0
h -4086 6947 8284 8286 8287 8288 0
h 4086 -6947 0
h 4086 -8284 0
h 4086 -8286 0
h 4086 -8287 0
h 4086 -8288 0
h 8289 -6940 -8285 0
h -8289 6940 0
h -8289 8285 0
h 8290 -8276 -8285 0
h -8290 8276 0
h -8290 8285 0
h 8291 -8276 -6946 0
h -8291 8276 0
h -8291 6946 0
h 8292 -6940 -6946 -8263 0
h -8292 6940 0
h -8292 6946 0
h -8292 8263 0
h -4088 6949 8289 8290 8291 8292 0
h 4088 -6949 0
h 4088 -8289 0
h 4088 -8290 0
h 4088 -8291 0
h 4088 -8292 0
h 8293 -6934 -8276 0
h -8293 6934 0
h -8293 8276 0
h 8294 -8265 -6940 0
h -8294 8265 0
h -8294 6940 0
h 8295 -8265 -8276 0
h -8295 8265 0
h -8295 8276 0
h 8296 -6934 -6940 -8263 0
h -8296 6934 0
h -8296 6940 0
h -8296 8263 0
h -4070 6951 8293 8294 8295 8296 0
h 4070 -6951 0
h 4070 -8293 0
h 4070 -8294 0
h 4070 -8295 0
h 4070 -8296 0
h 8297 -6934 -8265 0
h -8297 6934 0
h -8297 8265 0
h 8298 -8265 -8265 0
h -8298 8265 0
h -8298 8265 0
h 8299 -8265 -6934 0
h -8299 8265 0
h -8299 6934 0
h 8300 -6934 -6934 -8263 0
h -8300 6934 0
h -8300 6934 0
h -8300 8263 0
h -4077 6953 8297 8298 8299 8300 0
h 4077 -6953 0
h 4077 -8297 0
h 4077 -8298 0
h 4077 -8299 0
h 4077 -8300 0
h 8301 -6934 -8280 0
h -8301 6934 0
h -8301 8280 0
h 8302 -8265 -8280 0
h -8302 8265 0
h -8302 8280 0
h 8303 -8265 -6943 0
h -8303 8265 0
h -8303 6943 0
h 8304 -6934 -6943 -8263 0
h -8304 6934 0
h -8304 6943 0
h -8304 8263 0
h -4084 6955 8301 8302 8303 8304 0
h 4084 -6955 0
h 4084 -8301 0
h 4084 -8302 0
h 4084 -8303 0
h 4084 -8304 0
h 8305 -6934 -8285 0
h -8305 6934 0
h -8305 8285 0
h 8306 -8265 -6946 0
h -8306 8265 0
h -8306 6946 0
h 8307 -8265 -8285 0
h -8307 8265 0
h -8307 8285 0
h 8308 -6934 -6946 -8263 0
h -8308 6934 0
h -8308 6946 0
h -8308 8263 0
h -4091 6957 8305 8306 8307 8308 0
h 4091 -6957 0
h 4091 -8305 0
h 4091 -8306 0
h 4091 -8307 0
h 4091 -8308 0
h 8309 -6937 -8285 0
h -8309 6937 0
h -8309 8285 0
h 8310 -8270 -8285 0
h -8310 8270 0
h -8310 8285 0
h 8311 -8270 -6946 0
h -8311 8270 0
h -8311 6946 0
h 8312 -6937 -6946 -8263 0
h -8312 6937 0
h -8312 6946 0
h -8312 8263 0
h -4098 6959 8309 8310 8311 8312 0
h 4098 -6959 0
h 4098 -8309 0
h 4098 -8310 0
h 4098 -8311 0
h 4098 -8312 0
h 8313 -6943 -8276 0
h -8313 6943 0
h -8313 8276 0
h 8314 -8280 -6940 0
h -8314 8280 0
h -8314 6940 0
h 8315 -8280 -8276 0
h -8315 8280 0
h -8315 8276 0
h 8316 -6943 -6940 -8263 0
h -8316 6943 0
h -8316 6940 0
h -8316 8263 0
h -4082 6961 8313 8314 8315 8316 0
h 4082 -6961 0
h 4082 -8313 0
h 4082 -8314 0
h 4082 -8315 0
h 4082 -8316 0
h 8317 -6943 -8270 0
h -8317 6943 0
h -8317 8270 0
h 8318 -8280 -6937 0
h -8318 8280 0
h -8318 6937 0
h 8319 -8280 -8270 0
h -8319 8280 0
h -8319 8270 0
h 8320 -6943 -6937 -8263 0
h -8320 6943 0
h -8320 6937 0
h -8320 8263 0
h -4103 6963 8317 8318 8319 8320 0
h 4103 -6963 0
h 4103 -8317 0
h 4103 -8318 0
h 4103 -8319 0
h 4103 -8320 0
h 8321 -6943 -8280 0
h -8321 6943 0
h -8321 8280 0
h 8322 -8280 -8280 0
h -8322 8280 0
h -8322 8280 0
h 8323 -8280 -6943 0
h -8323 8280 0
h -8323 6943 0
h 8324 -6943 -6943 -8263 0
h -8324 6943 0
h -8324 6943 0
h -8324 8263 0
h -4109 6965 8321 8322 8323 8324 0
h 4109 -6965 0
h 4109 -8321 0
h 4109 -8322 0
h 4109 -8323 0
h 4109 -8324 0
h 8325 -8326 -8327 0
h -8325 8326 0
h -8325 8327 0
h 8328 -8327 -8327 0
h -8328 8327 0
h -8328 8327 0
h 8329 -8327 -8326 0
h -8329 8327 0
h -8329 8326 0
h 8330 -8326 -8326 -8331 0
h -8330 8326 0
h -8330 8326 0
h -8330 8331 0
h -1820 8332 8325 8328 8329 8330 0
h 1820 -8332 0
h 1820 -8325 0
h 1820 -8328 0
h 1820 -8329 0
h 1820 -8330 0
h 8333 -8326 -8334 0
h -8333 8326 0
h -8333 8334 0
h 8335 -8327 -8334 0
h -8335 8327 0
h -8335 8334 0
h 8336 -8327 -8337 0
h -8336 8327 0
h -8336 8337 0
h 8338 -8326 -8337 -8331 0
h -8338 8326 0
h -8338 8337 0
h -8338 8331 0
h -1816 8339 8333 8335 8336 8338 0
h 1816 -8339 0
h 1816 -8333 0
h 1816 -8335 0
h 1816 -8336 0
h 1816 -8338 0
h 8340 -8326 -8341 0
h -8340 8326 0
h -8340 8341 0
h 8342 -8327 -8343 0
h -8342 8327 0
h -8342 8343 0
h 8344 -8327 -8341 0
h -8344 8327 0
h -8344 8341 0
h 8345 -8326 -8343 -8331 0
h -8345 8326 0
h -8345 8343 0
h -8345 8331 0
h -1840 8346 8340 8342 8344 8345 0
h 1840 -8346 0
h 1840 -8340 0
h 1840 -8342 0
h 1840 -8344 0
h 1840 -8345 0
h 8347 -8348 -8341 0
h -8347 8348 0
h -8347 8341 0
h 8349 -8350 -8341 0
h -8349 8350 0
h -8349 8341 0
h 8351 -8350 -8343 0
h -8351 8350 0
h -8351 8343 0
h 8352 -8348 -8343 -8331 0
h -8352 8348 0
h -8352 8343 0
h -8352 8331 0
h -1838 8353 8347 8349 8351 8352 0
h 1838 -8353 0
h 1838 -8347 0
h 1838 -8349 0
h 1838 -8351 0
h 1838 -8352 0
h 8354 -8326 -8355 0
h -8354 8326 0
h -8354 8355 0
h 8356 -8327 -8355 0
h -8356 8327 0
h -8356 8355 0
h 8357 -8327 -8358 0
h -8357 8327 0
h -8357 8358 0
h 8359 -8326 -8358 -8331 0
h -8359 8326 0
h -8359 8358 0
h -8359 8331 0
h -1824 8360 8354 8356 8357 8359 0
h 1824 -8360 0
h 1824 -8354 0
h 1824 -8356 0
h 1824 -8357 0
h 1824 -8359 0
h 8361 -8326 -8362 0
h -8361 8326 0
h -8361 8362 0
h 8363 -8327 -8364 0
h -8363 8327 0
h -8363 8364 0
h 8365 -8327 -8362 0
h -8365 8327 0
h -8365 8362 0
h 8366 -8326 -8364 -8331 0
h -8366 8326 0
h -8366 8364 0
h -8366 8331 0
h -1831 8367 8361 8363 8365 8366 0
h 1831 -8367 0
h 1831 -8361 0
h 1831 -8363 0
h 1831 -8365 0
h 1831 -8366 0
h 8368 -8348 -8362 0
h -8368 8348 0
h -8368 8362 0
h 8369 -8350 -8362 0
h -8369 8350 0
h -8369 8362 0
h 8370 -8350 -8364 0
h -8370 8350 0
h -8370 8364 0
h 8371 -8348 -8364 -8331 0
h -8371 8348 0
h -8371 8364 0
h -8371 8331 0
h -1833 8372 8368 8369 8370 8371 0
h 1833 -8372 0
h 1833 -8368 0
h 1833 -8369 0
h 1833 -8370 0
h 1833 -8371 0
h 8373 -8337 -8350 0
h -8373 8337 0
h -8373 8350 0
h 8374 -8334 -8348 0
h -8374 8334 0
h -8374 8348 0
h 8375 -8334 -8350 0
h -8375 8334 0
h -8375 8350 0
h 8376 -8337 -8348 -8331 0
h -8376 8337 0
h -8376 8348 0
h -8376 8331 0
h -1815 8377 8373 8374 8375 8376 0
h 1815 -8377 0
h 1815 -8373 0
h 1815 -8374 0
h 1815 -8375 0
h 1815 -8376 0
h 8378 -8337 -8334 0
h -8378 8337 0
h -8378 8334 0
h 8379 -8334 -8334 0
h -8379 8334 0
h -8379 8334 0
h 8380 -8334 -8337 0
h -8380 8334 0
h -8380 8337 0
h 8381 -8337 -8337 -8331 0
h -8381 8337 0
h -8381 8337 0
h -8381 8331 0
h -1822 8382 8378 8379 8380 8381 0
h 1822 -8382 0
h 1822 -8378 0
h 1822 -8379 0
h 1822 -8380 0
h 1822 -8381 0
h 8383 -8337 -8355 0
h -8383 8337 0
h -8383 8355 0
h 8384 -8334 -8355 0
h -8384 8334 0
h -8384 8355 0
h 8385 -8334 -8358 0
h -8385 8334 0
h -8385 8358 0
h 8386 -8337 -8358 -8331 0
h -8386 8337 0
h -8386 8358 0
h -8386 8331 0
h -1829 8387 8383 8384 8385 8386 0
h 1829 -8387 0
h 1829 -8383 0
h 1829 -8384 0
h 1829 -8385 0
h 1829 -8386 0
h 8388 -8337 -8362 0
h -8388 8337 0
h -8388 8362 0
h 8389 -8334 -8364 0
h -8389 8334 0
h -8389 8364 0
h 8390 -8334 -8362 0
h -8390 8334 0
h -8390 8362 0
h 8391 -8337 -8364 -8331 0
h -8391 8337 0
h -8391 8364 0
h -8391 8331 0
h -1836 8392 8388 8389 8390 8391 0
h 1836 -8392 0
h 1836 -8388 0
h 1836 -8389 0
h 1836 -8390 0
h 1836 -8391 0
h 8393 -8343 -8362 0
h -8393 8343 0
h -8393 8362 0
h 8394 -8341 -8362 0
h -8394 8341 0
h -8394 8362 0
h 8395 -8341 -8364 0
h -8395 8341 0
h -8395 8364 0
h 8396 -8343 -8364 -8331 0
h -8396 8343 0
h -8396 8364 0
h -8396 8331 0
h -1843 8397 8393 8394 8395 8396 0
h 1843 -8397 0
h 1843 -8393 0
h 1843 -8394 0
h 1843 -8395 0
h 1843 -8396 0
h 8398 -8358 -8350 0
h -8398 8358 0
h -8398 8350 0
h 8399 -8355 -8348 0
h -8399 8355 0
h -8399 8348 0
h 8400 -8355 -8350 0
h -8400 8355 0
h -8400 8350 0
h 8401 -8358 -8348 -8331 0
h -8401 8358 0
h -8401 8348 0
h -8401 8331 0
h -1827 8402 8398 8399 8400 8401 0
h 1827 -8402 0
h 1827 -8398 0
h 1827 -8399 0
h 1827 -8400 0
h 1827 -8401 0
h 8403 -8358 -8341 0
h -8403 8358 0
h -8403 8341 0
h 8404 -8355 -8343 0
h -8404 8355 0
h -8404 8343 0
h 8405 -8355 -8341 0
h -8405 8355 0
h -8405 8341 0
h 8406 -8358 -8343 -8331 0
h -8406 8358 0
h -8406 8343 0
h -8406 8331 0
h -1848 8407 8403 8404 8405 8406 0
h 1848 -8407 0
h 1848 -8403 0
h 1848 -8404 0
h 1848 -8405 0
h 1848 -8406 0
h 8408 -8358 -8355 0
h -8408 8358 0
h -8408 8355 0
h 8409 -8355 -8355 0
h -8409 8355 0
h -8409 8355 0
h 8410 -8355 -8358 0
h -8410 8355 0
h -8410 8358 0
h 8411 -8358 -8358 -8331 0
h -8411 8358 0
h -8411 8358 0
h -8411 8331 0
h -1854 8412 8408 8409 8410 8411 0
h 1854 -8412 0
h 1854 -8408 0
h 1854 -8409 0
h 1854 -8410 0
h 1854 -8411 0
h 8413 -8414 -8414 0
h -8413 8414 0
h -8413 8414 0
h -5811 8415 8413 0
h 5811 -8415 0
h 5811 -8413 0
h 8416 -8414 -8417 0
h -8416 8414 0
h -8416 8417 0
h -5807 8418 8416 0
h 5807 -8418 0
h 5807 -8416 0
h 8419 -8414 -8420 0
h -8419 8414 0
h -8419 8420 0
h -5825 8421 8419 0
h 5825 -8421 0
h 5825 -8419 0
h 8422 -8423 -8420 0
h -8422 8423 0
h -8422 8420 0
h -4215 8424 8422 0
h 4215 -8424 0
h 4215 -8422 0
h 8425 -8414 -8426 0
h -8425 8414 0
h -8425 8426 0
h -5814 8427 8425 0
h 5814 -8427 0
h 5814 -8425 0
h 8428 -8414 -8429 0
h -8428 8414 0
h -8428 8429 0
h -5819 8430 8428 0
h 5819 -8430 0
h 5819 -8428 0
h 8431 -8423 -8429 0
h -8431 8423 0
h -8431 8429 0
h -4212 8432 8431 0
h 4212 -8432 0
h 4212 -8431 0
h 8433 -8417 -8423 0
h -8433 8417 0
h -8433 8423 0
h -4205 8434 8433 0
h 4205 -8434 0
h 4205 -8433 0
h 8435 -8417 -8417 0
h -8435 8417 0
h -8435 8417 0
h -4207 8436 8435 0
h 4207 -8436 0
h 4207 -8435 0
h 8437 -8417 -8426 0
h -8437 8417 0
h -8437 8426 0
h -4210 8438 8437 0
h 4210 -8438 0
h 4210 -8437 0
h 8439 -8417 -8429 0
h -8439 8417 0
h -8439 8429 0
h -4213 8440 8439 0
h 4213 -8440 0
h 4213 -8439 0
h 8441 -8420 -8429 0
h -8441 8420 0
h -8441 8429 0
h -4216 8442 8441 0
h 4216 -8442 0
h 4216 -8441 0
h 8443 -8426 -8423 0
h -8443 8426 0
h -8443 8423 0
h -4209 8444 8443 0
h 4209 -8444 0
h 4209 -8443 0
h 8445 -8426 -8420 0
h -8445 8426 0
h -8445 8420 0
h -4218 8446 8445 0
h 4218 -8446 0
h 4218 -8445 0
h 8447 -8426 -8426 0
h -8447 8426 0
h -8447 8426 0
h -4221 8448 8447 0
h 4221 -8448 0
h 4221 -8447 0
h 8449 -7612 -8450 0
h -8449 7612 0
h -8449 8450 0
h 8451 -8450 -8450 0
h -8451 8450 0
h -8451 8450 0
h 8452 -8450 -7612 0
h -8452 8450 0
h -8452 7612 0
h 8453 -7612 -7612 -8454 0
h -8453 7612 0
h -8453 7612 0
h -8453 8454 0
h -3256 7613 8449 8451 8452 8453 0
h 3256 -7613 0
h 3256 -8449 0
h 3256 -8451 0
h 3256 -8452 0
h 3256 -8453 0
h 8455 -7612 -8456 0
h -8455 7612 0
h -8455 8456 0
h 8457 -8450 -8456 0
h -8457 8450 0
h -8457 8456 0
h 8458 -8450 -7615 0
h -8458 8450 0
h -8458 7615 0
h 8459 -7612 -7615 -8454 0
h -8459 7612 0
h -8459 7615 0
h -8459 8454 0
h -3252 7616 8455 8457 8458 8459 0
h 3252 -7616 0
h 3252 -8455 0
h 3252 -8457 0
h 3252 -8458 0
h 3252 -8459 0
h 8460 -7612 -8461 0
h -8460 7612 0
h -8460 8461 0
h 8462 -8450 -7618 0
h -8462 8450 0
h -8462 7618 0
h 8463 -8450 -8461 0
h -8463 8450 0
h -8463 8461 0
h 8464 -7612 -7618 -8454 0
h -8464 7612 0
h -8464 7618 0
h -8464 8454 0
h -3276 7619 8460 8462 8463 8464 0
h 3276 -7619 0
h 3276 -8460 0
h 3276 -8462 0
h 3276 -8463 0
h 3276 -8464 0
h 8465 -7621 -8461 0
h -8465 7621 0
h -8465 8461 0
h 8466 -8467 -8461 0
h -8466 8467 0
h -8466 8461 0
h 8468 -8467 -7618 0
h -8468 8467 0
h -8468 7618 0
h 8469 -7621 -7618 -8454 0
h -8469 7621 0
h -8469 7618 0
h -8469 8454 0
h -3274 7622 8465 8466 8468 8469 0
h 3274 -7622 0
h 3274 -8465 0
h 3274 -8466 0
h 3274 -8468 0
h 3274 -8469 0
h 8470 -7612 -8471 0
h -8470 7612 0
h -8470 8471 0
h 8472 -8450 -8471 0
h -8472 8450 0
h -8472 8471 0
h 8473 -8450 -7624 0
h -8473 8450 0
h -8473 7624 0
h 8474 -7612 -7624 -8454 0
h -8474 7612 0
h -8474 7624 0
h -8474 8454 0
h -3260 7625 8470 8472 8473 8474 0
h 3260 -7625 0
h 3260 -8470 0
h 3260 -8472 0
h 3260 -8473 0
h 3260 -8474 0
h 8475 -7612 -8476 0
h -8475 7612 0
h -8475 8476 0
h 8477 -8450 -7627 0
h -8477 8450 0
h -8477 7627 0
h 8478 -8450 -8476 0
h -8478 8450 0
h -8478 8476 0
h 8479 -7612 -7627 -8454 0
h -8479 7612 0
h -8479 7627 0
h -8479 8454 0
h -3267 7628 8475 8477 8478 8479 0
h 3267 -7628 0
h 3267 -8475 0
h 3267 -8477 0
h 3267 -8478 0
h 3267 -8479 0
h 8480 -7621 -8476 0
h -8480 7621 0
h -8480 8476 0
h 8481 -8467 -8476 0
h -8481 8467 0
h -8481 8476 0
h 8482 -8467 -7627 0
h -8482 8467 0
h -8482 7627 0
h 8483 -7621 -7627 -8454 0
h -8483 7621 0
h -8483 7627 0
h -8483 8454 0
h -3269 7630 8480 8481 8482 8483 0
h 3269 -7630 0
h 3269 -8480 0
h 3269 -8481 0
h 3269 -8482 0
h 3269 -8483 0
h 8484 -7615 -8467 0
h -8484 7615 0
h -8484 8467 0
h 8485 -8456 -7621 0
h -8485 8456 0
h -8485 7621 0
h 8486 -8456 -8467 0
h -8486 8456 0
h -8486 8467 0
h 8487 -7615 -7621 -8454 0
h -8487 7615 0
h -8487 7621 0
h -8487 8454 0
h -3251 7632 8484 8485 8486 8487 0
h 3251 -7632 0
h 3251 -8484 0
h 3251 -8485 0
h 3251 -8486 0
h 3251 -8487 0
h 8488 -7615 -8456 0
h -8488 7615 0
h -8488 8456 0
h 8489 -8456 -8456 0
h -8489 8456 0
h -8489 8456 0
h 8490 -8456 -7615 0
h -8490 8456 0
h -8490 7615 0
h 8491 -7615 -7615 -8454 0
h -8491 7615 0
h -8491 7615 0
h -8491 8454 0
h -3258 7634 8488 8489 8490 8491 0
h 3258 -7634 0
h 3258 -8488 0
h 3258 -8489 0
h 3258 -8490 0
h 3258 -8491 0
h 8492 -7615 -8471 0
h -8492 7615 0
h -8492 8471 0
h 8493 -8456 -8471 0
h -8493 8456 0
h -8493 8471 0
h 8494 -8456 -7624 0
h -8494 8456 0
h -8494 7624 0
h 8495 -7615 -7624 -8454 0
h -8495 7615 0
h -8495 7624 0
h -8495 8454 0
h -3265 7636 8492 8493 8494 8495 0
h 3265 -7636 0
h 3265 -8492 0
h 3265 -8493 0
h 3265 -8494 0
h 3265 -8495 0
h 8496 -7615 -8476 0
h -8496 7615 0
h -8496 8476 0
h 8497 -8456 -7627 0
h -8497 8456 0
h -8497 7627 0
h 8498 -8456 -8476 0
h -8498 8456 0
h -8498 8476 0
h 8499 -7615 -7627 -8454 0
h -8499 7615 0
h -8499 7627 0
h -8499 8454 0
h -3272 7638 8496 8497 8498 8499 0
h 3272 -7638 0
h 3272 -8496 0
h 3272 -8497 0
h 3272 -8498 0
h 3272 -8499 0
h 8500 -7618 -8476 0
h -8500 7618 0
h -8500 8476 0
h 8501 -8461 -8476 0
h -8501 8461 0
h -8501 8476 0
h 8502 -8461 -7627 0
h -8502 8461 0
h -8502 7627 0
h 8503 -7618 -7627 -8454 0
h -8503 7618 0
h -8503 7627 0
h -8503 8454 0
h -3279 7640 8500 8501 8502 8503 0
h 3279 -7640 0
h 3279 -8500 0
h 3279 -8501 0
h 3279 -8502 0
h 3279 -8503 0
h 8504 -7624 -8467 0
h -8504 7624 0
h -8504 8467 0
h 8505 -8471 -7621 0
h -8505 8471 0
h -8505 7621 0
h 8506 -8471 -8467 0
h -8506 8471 0
h -8506 8467 0
h 8507 -7624 -7621 -8454 0
h -8507 7624 0
h -8507 7621 0
h -8507 8454 0
h -3263 7642 8504 8505 8506 8507 0
h 3263 -7642 0
h 3263 -8504 0
h 3263 -8505 0
h 3263 -8506 0
h 3263 -8507 0
h 8508 -7624 -8461 0
h -8508 7624 0
h -8508 8461 0
h 8509 -8471 -7618 0
h -8509 8471 0
h -8509 7618 0
h 8510 -8471 -8461 0
h -8510 8471 0
h -8510 8461 0
h 8511 -7624 -7618 -8454 0
h -8511 7624 0
h -8511 7618 0
h -8511 8454 0
h -3284 7644 8508 8509 8510 8511 0
h 3284 -7644 0
h 3284 -8508 0
h 3284 -8509 0
h 3284 -8510 0
h 3284 -8511 0
h 8512 -7624 -8471 0
h -8512 7624 0
h -8512 8471 0
h 8513 -8471 -8471 0
h -8513 8471 0
h -8513 8471 0
h 8514 -8471 -7624 0
h -8514 8471 0
h -8514 7624 0
h 8515 -7624 -7624 -8454 0
h -8515 7624 0
h -8515 7624 0
h -8515 8454 0
h -3290 7646 8512 8513 8514 8515 0
h 3290 -7646 0
h 3290 -8512 0
h 3290 -8513 0
h 3290 -8514 0
h 3290 -8515 0
h 8516 -7655 -7652 0
h -8516 7655 0
h -8516 7652 0
h 8517 -7652 -7652 0
h -8517 7652 0
h -8517 7652 0
h 8518 -7652 -7655 0
h -8518 7652 0
h -8518 7655 0
h 8519 -7655 -7655 -7670 0
h -8519 7655 0
h -8519 7655 0
h -8519 7670 0
h -2357 7649 8516 8517 8518 8519 0
h 2357 -7649 0
h 2357 -8516 0
h 2357 -8517 0
h 2357 -8518 0
h 2357 -8519 0
h 8520 -7655 -8521 0
h -8520 7655 0
h -8520 8521 0
h 8522 -7652 -8521 0
h -8522 7652 0
h -8522 8521 0
h 8523 -7652 -8524 0
h -8523 7652 0
h -8523 8524 0
h 8525 -7655 -8524 -7670 0
h -8525 7655 0
h -8525 8524 0
h -8525 7670 0
h -2353 8526 8520 8522 8523 8525 0
h 2353 -8526 0
h 2353 -8520 0
h 2353 -8522 0
h 2353 -8523 0
h 2353 -8525 0
h 8527 -7655 -7651 0
h -8527 7655 0
h -8527 7651 0
h 8528 -7652 -7654 0
h -8528 7652 0
h -8528 7654 0
h 8529 -7652 -7651 0
h -8529 7652 0
h -8529 7651 0
h 8530 -7655 -7654 -7670 0
h -8530 7655 0
h -8530 7654 0
h -8530 7670 0
h -2371 7648 8527 8528 8529 8530 0
h 2371 -7648 0
h 2371 -8527 0
h 2371 -8528 0
h 2371 -8529 0
h 2371 -8530 0
h 8531 -7658 -7651 0
h -8531 7658 0
h -8531 7651 0
h 8532 -7668 -7651 0
h -8532 7668 0
h -8532 7651 0
h 8533 -7668 -7654 0
h -8533 7668 0
h -8533 7654 0
h 8534 -7658 -7654 -7670 0
h -8534 7658 0
h -8534 7654 0
h -8534 7670 0
h -1909 7657 8531 8532 8533 8534 0
h 1909 -7657 0
h 1909 -8531 0
h 1909 -8532 0
h 1909 -8533 0
h 1909 -8534 0
h 8535 -7655 -7672 0
h -8535 7655 0
h -8535 7672 0
h 8536 -7652 -7672 0
h -8536 7652 0
h -8536 7672 0
h 8537 -7652 -7680 0
h -8537 7652 0
h -8537 7680 0
h 8538 -7655 -7680 -7670 0
h -8538 7655 0
h -8538 7680 0
h -8538 7670 0
h -2360 7661 8535 8536 8537 8538 0
h 2360 -7661 0
h 2360 -8535 0
h 2360 -8536 0
h 2360 -8537 0
h 2360 -8538 0
h 8539 -7655 -7674 0
h -8539 7655 0
h -8539 7674 0
h 8540 -7652 -7676 0
h -8540 7652 0
h -8540 7676 0
h 8541 -7652 -7674 0
h -8541 7652 0
h -8541 7674 0
h 8542 -7655 -7676 -7670 0
h -8542 7655 0
h -8542 7676 0
h -8542 7670 0
h -2365 7664 8539 8540 8541 8542 0
h 2365 -7664 0
h 2365 -8539 0
h 2365 -8540 0
h 2365 -8541 0
h 2365 -8542 0
h 8543 -7658 -7674 0
h -8543 7658 0
h -8543 7674 0
h 8544 -7668 -7674 0
h -8544 7668 0
h -8544 7674 0
h 8545 -7668 -7676 0
h -8545 7668 0
h -8545 7676 0
h 8546 -7658 -7676 -7670 0
h -8546 7658 0
h -8546 7676 0
h -8546 7670 0
h -1906 7666 8543 8544 8545 8546 0
h 1906 -7666 0
h 1906 -8543 0
h 1906 -8544 0
h 1906 -8545 0
h 1906 -8546 0
h 8547 -8524 -7668 0
h -8547 8524 0
h -8547 7668 0
h 8548 -8521 -7658 0
h -8548 8521 0
h -8548 7658 0
h 8549 -8521 -7668 0
h -8549 8521 0
h -8549 7668 0
h 8550 -8524 -7658 -7670 0
h -8550 8524 0
h -8550 7658 0
h -8550 7670 0
h -1899 8551 8547 8548 8549 8550 0
h 1899 -8551 0
h 1899 -8547 0
h 1899 -8548 0
h 1899 -8549 0
h 1899 -8550 0
h 8552 -8524 -8521 0
h -8552 8524 0
h -8552 8521 0
h 8553 -8521 -8521 0
h -8553 8521 0
h -8553 8521 0
h 8554 -8521 -8524 0
h -8554 8521 0
h -8554 8524 0
h 8555 -8524 -8524 -7670 0
h -8555 8524 0
h -8555 8524 0
h -8555 7670 0
h -1901 8556 8552 8553 8554 8555 0
h 1901 -8556 0
h 1901 -8552 0
h 1901 -8553 0
h 1901 -8554 0
h 1901 -8555 0
h 8557 -8524 -7672 0
h -8557 8524 0
h -8557 7672 0
h 8558 -8521 -7672 0
h -8558 8521 0
h -8558 7672 0
h 8559 -8521 -7680 0
h -8559 8521 0
h -8559 7680 0
h 8560 -8524 -7680 -7670 0
h -8560 8524 0
h -8560 7680 0
h -8560 7670 0
h -1904 8561 8557 8558 8559 8560 0
h 1904 -8561 0
h 1904 -8557 0
h 1904 -8558 0
h 1904 -8559 0
h 1904 -8560 0
h 8562 -8524 -7674 0
h -8562 8524 0
h -8562 7674 0
h 8563 -8521 -7676 0
h -8563 8521 0
h -8563 7676 0
h 8564 -8521 -7674 0
h -8564 8521 0
h -8564 7674 0
h 8565 -8524 -7676 -7670 0
h -8565 8524 0
h -8565 7676 0
h -8565 7670 0
h -1907 8566 8562 8563 8564 8565 0
h 1907 -8566 0
h 1907 -8562 0
h 1907 -8563 0
h 1907 -8564 0
h 1907 -8565 0
h 8567 -7654 -7674 0
h -8567 7654 0
h -8567 7674 0
h 8568 -7651 -7674 0
h -8568 7651 0
h -8568 7674 0
h 8569 -7651 -7676 0
h -8569 7651 0
h -8569 7676 0
h 8570 -7654 -7676 -7670 0
h -8570 7654 0
h -8570 7676 0
h -8570 7670 0
h -1910 7663 8567 8568 8569 8570 0
h 1910 -7663 0
h 1910 -8567 0
h 1910 -8568 0
h 1910 -8569 0
h 1910 -8570 0
h 8571 -7680 -7668 0
h -8571 7680 0
h -8571 7668 0
h 8572 -7672 -7658 0
h -8572 7672 0
h -8572 7658 0
h 8573 -7672 -7668 0
h -8573 7672 0
h -8573 7668 0
h 8574 -7680 -7658 -7670 0
h -8574 7680 0
h -8574 7658 0
h -8574 7670 0
h -1903 7678 8571 8572 8573 8574 0
h 1903 -7678 0
h 1903 -8571 0
h 1903 -8572 0
h 1903 -8573 0
h 1903 -8574 0
h 8575 -7680 -7651 0
h -8575 7680 0
h -8575 7651 0
h 8576 -7672 -7654 0
h -8576 7672 0
h -8576 7654 0
h 8577 -7672 -7651 0
h -8577 7672 0
h -8577 7651 0
h 8578 -7680 -7654 -7670 0
h -8578 7680 0
h -8578 7654 0
h -8578 7670 0
h -1912 7660 8575 8576 8577 8578 0
h 1912 -7660 0
h 1912 -8575 0
h 1912 -8576 0
h 1912 -8577 0
h 1912 -8578 0
h 8579 -7680 -7672 0
h -8579 7680 0
h -8579 7672 0
h 8580 -7672 -7672 0
h -8580 7672 0
h -8580 7672 0
h 8581 -7672 -7680 0
h -8581 7672 0
h -8581 7680 0
h 8582 -7680 -7680 -7670 0
h -8582 7680 0
h -8582 7680 0
h -8582 7670 0
h -1915 7682 8579 8580 8581 8582 0
h 1915 -7682 0
h 1915 -8579 0
h 1915 -8580 0
h 1915 -8581 0
h 1915 -8582 0
h 8583 -7074 -7067 0
h -8583 7074 0
h -8583 7067 0
h 8584 -7067 -7067 0
h -8584 7067 0
h -8584 7067 0
h 8585 -7067 -7074 0
h -8585 7067 0
h -8585 7074 0
h 8586 -7074 -7074 -7110 0
h -8586 7074 0
h -8586 7074 0
h -8586 7110 0
h -1228 7060 8583 8584 8585 8586 0
h 1228 -7060 0
h 1228 -8583 0
h 1228 -8584 0
h 1228 -8585 0
h 1228 -8586 0
h 8587 -7074 -7062 0
h -8587 7074 0
h -8587 7062 0
h 8588 -7067 -7062 0
h -8588 7067 0
h -8588 7062 0
h 8589 -7067 -7069 0
h -8589 7067 0
h -8589 7069 0
h 8590 -7074 -7069 -7110 0
h -8590 7074 0
h -8590 7069 0
h -8590 7110 0
h -1224 7055 8587 8588 8589 8590 0
h 1224 -7055 0
h 1224 -8587 0
h 1224 -8588 0
h 1224 -8589 0
h 1224 -8590 0
h 8591 -7074 -7065 0
h -8591 7074 0
h -8591 7065 0
h 8592 -7067 -7071 0
h -8592 7067 0
h -8592 7071 0
h 8593 -7067 -7065 0
h -8593 7067 0
h -8593 7065 0
h 8594 -7074 -7071 -7110 0
h -8594 7074 0
h -8594 7071 0
h -8594 7110 0
h -1248 7054 8591 8592 8593 8594 0
h 1248 -7054 0
h 1248 -8591 0
h 1248 -8592 0
h 1248 -8593 0
h 1248 -8594 0
h 8595 -7081 -7065 0
h -8595 7081 0
h -8595 7065 0
h 8596 -7105 -7065 0
h -8596 7105 0
h -8596 7065 0
h 8597 -7105 -7071 0
h -8597 7105 0
h -8597 7071 0
h 8598 -7081 -7071 -7110 0
h -8598 7081 0
h -8598 7071 0
h -8598 7110 0
h -1246 7076 8595 8596 8597 8598 0
h 1246 -7076 0
h 1246 -8595 0
h 1246 -8596 0
h 1246 -8597 0
h 1246 -8598 0
h 8599 -7074 -7115 0
h -8599 7074 0
h -8599 7115 0
h 8600 -7067 -7115 0
h -8600 7067 0
h -8600 7115 0
h 8601 -7067 -7135 0
h -8601 7067 0
h -8601 7135 0
h 8602 -7074 -7135 -7110 0
h -8602 7074 0
h -8602 7135 0
h -8602 7110 0
h -1232 7088 8599 8600 8601 8602 0
h 1232 -7088 0
h 1232 -8599 0
h 1232 -8600 0
h 1232 -8601 0
h 1232 -8602 0
h 8603 -7074 -7120 0
h -8603 7074 0
h -8603 7120 0
h 8604 -7067 -7125 0
h -8604 7067 0
h -8604 7125 0
h 8605 -7067 -7120 0
h -8605 7067 0
h -8605 7120 0
h 8606 -7074 -7125 -7110 0
h -8606 7074 0
h -8606 7125 0
h -8606 7110 0
h -1239 7095 8603 8604 8605 8606 0
h 1239 -7095 0
h 1239 -8603 0
h 1239 -8604 0
h 1239 -8605 0
h 1239 -8606 0
h 8607 -7081 -7120 0
h -8607 7081 0
h -8607 7120 0
h 8608 -7105 -7120 0
h -8608 7105 0
h -8608 7120 0
h 8609 -7105 -7125 0
h -8609 7105 0
h -8609 7125 0
h 8610 -7081 -7125 -7110 0
h -8610 7081 0
h -8610 7125 0
h -8610 7110 0
h -1241 7100 8607 8608 8609 8610 0
h 1241 -7100 0
h 1241 -8607 0
h 1241 -8608 0
h 1241 -8609 0
h 1241 -8610 0
h 8611 -7069 -7105 0
h -8611 7069 0
h -8611 7105 0
h 8612 -7062 -7081 0
h -8612 7062 0
h -8612 7081 0
h 8613 -7062 -7105 0
h -8613 7062 0
h -8613 7105 0
h 8614 -7069 -7081 -7110 0
h -8614 7069 0
h -8614 7081 0
h -8614 7110 0
h -1223 7078 8611 8612 8613 8614 0
h 1223 -7078 0
h 1223 -8611 0
h 1223 -8612 0
h 1223 -8613 0
h 1223 -8614 0
h 8615 -7069 -7062 0
h -8615 7069 0
h -8615 7062 0
h 7107 -7062 -7062 0
h -7107 7062 0
h -7107 7062 0
h 8616 -7062 -7069 0
h -8616 7062 0
h -8616 7069 0
h 8617 -7069 -7069 -7110 0
h -8617 7069 0
h -8617 7069 0
h -8617 7110 0
h -1230 7059 8615 7107 8616 8617 0
h 1230 -7059 0
h 1230 -8615 0
h 1230 -7107 0
h 1230 -8616 0
h 1230 -8617 0
h 8618 -7069 -7115 0
h -8618 7069 0
h -8618 7115 0
h 8619 -7062 -7115 0
h -8619 7062 0
h -8619 7115 0
h 8620 -7062 -7135 0
h -8620 7062 0
h -8620 7135 0
h 8621 -7069 -7135 -7110 0
h -8621 7069 0
h -8621 7135 0
h -8621 7110 0
h -1237 7083 8618 8619 8620 8621 0
h 1237 -7083 0
h 1237 -8618 0
h 1237 -8619 0
h 1237 -8620 0
h 1237 -8621 0
h 8622 -7069 -7120 0
h -8622 7069 0
h -8622 7120 0
h 8623 -7062 -7125 0
h -8623 7062 0
h -8623 7125 0
h 8624 -7062 -7120 0
h -8624 7062 0
h -8624 7120 0
h 8625 -7069 -7125 -7110 0
h -8625 7069 0
h -8625 7125 0
h -8625 7110 0
h -1244 7090 8622 8623 8624 8625 0
h 1244 -7090 0
h 1244 -8622 0
h 1244 -8623 0
h 1244 -8624 0
h 1244 -8625 0
h 8626 -7071 -7120 0
h -8626 7071 0
h -8626 7120 0
h 8627 -7065 -7120 0
h -8627 7065 0
h -8627 7120 0
h 8628 -7065 -7125 0
h -8628 7065 0
h -8628 7125 0
h 8629 -7071 -7125 -7110 0
h -8629 7071 0
h -8629 7125 0
h -8629 7110 0
h -1251 7092 8626 8627 8628 8629 0
h 1251 -7092 0
h 1251 -8626 0
h 1251 -8627 0
h 1251 -8628 0
h 1251 -8629 0
h 8630 -7135 -7105 0
h -8630 7135 0
h -8630 7105 0
h 8631 -7115 -7081 0
h -8631 7115 0
h -8631 7081 0
h 8632 -7115 -7105 0
h -8632 7115 0
h -8632 7105 0
h 8633 -7135 -7081 -7110 0
h -8633 7135 0
h -8633 7081 0
h -8633 7110 0
h -1235 7130 8630 8631 8632 8633 0
h 1235 -7130 0
h 1235 -8630 0
h 1235 -8631 0
h 1235 -8632 0
h 1235 -8633 0
h 8634 -7135 -7065 0
h -8634 7135 0
h -8634 7065 0
h 8635 -7115 -7071 0
h -8635 7115 0
h -8635 7071 0
h 8636 -7115 -7065 0
h -8636 7115 0
h -8636 7065 0
h 8637 -7135 -7071 -7110 0
h -8637 7135 0
h -8637 7071 0
h -8637 7110 0
h -1256 7086 8634 8635 8636 8637 0
h 1256 -7086 0
h 1256 -8634 0
h 1256 -8635 0
h 1256 -8636 0
h 1256 -8637 0
h 8638 -7135 -7115 0
h -8638 7135 0
h -8638 7115 0
h 8639 -7115 -7115 0
h -8639 7115 0
h -8639 7115 0
h 8640 -7115 -7135 0
h -8640 7115 0
h -8640 7135 0
h 8641 -7135 -7135 -7110 0
h -8641 7135 0
h -8641 7135 0
h -8641 7110 0
h -1262 7140 8638 8639 8640 8641 0
h 1262 -7140 0
h 1262 -8638 0
h 1262 -8639 0
h 1262 -8640 0
h 1262 -8641 0
h 8642 -8643 -8644 0
h -8642 8643 0
h -8642 8644 0
h 8645 -8644 -8644 0
h -8645 8644 0
h -8645 8644 0
h 8646 -8644 -8643 0
h -8646 8644 0
h -8646 8643 0
h 8647 -8643 -8643 -8648 0
h -8647 8643 0
h -8647 8643 0
h -8647 8648 0
h -6420 8649 8642 8645 8646 8647 0
h 6420 -8649 0
h 6420 -8642 0
h 6420 -8645 0
h 6420 -8646 0
h 6420 -8647 0
h 8650 -8643 -8651 0
h -8650 8643 0
h -8650 8651 0
h 8652 -8644 -8651 0
h -8652 8644 0
h -8652 8651 0
h 8653 -8644 -8654 0
h -8653 8644 0
h -8653 8654 0
h 8655 -8643 -8654 -8648 0
h -8655 8643 0
h -8655 8654 0
h -8655 8648 0
h -6416 8656 8650 8652 8653 8655 0
h 6416 -8656 0
h 6416 -8650 0
h 6416 -8652 0
h 6416 -8653 0
h 6416 -8655 0
h 8657 -8643 -8658 0
h -8657 8643 0
h -8657 8658 0
h 8659 -8644 -8660 0
h -8659 8644 0
h -8659 8660 0
h 8661 -8644 -8658 0
h -8661 8644 0
h -8661 8658 0
h 8662 -8643 -8660 -8648 0
h -8662 8643 0
h -8662 8660 0
h -8662 8648 0
h -6434 8663 8657 8659 8661 8662 0
h 6434 -8663 0
h 6434 -8657 0
h 6434 -8659 0
h 6434 -8661 0
h 6434 -8662 0
h 8664 -8665 -8658 0
h -8664 8665 0
h -8664 8658 0
h 8666 -8667 -8658 0
h -8666 8667 0
h -8666 8658 0
h 8668 -8667 -8660 0
h -8668 8667 0
h -8668 8660 0
h 8669 -8665 -8660 -8648 0
h -8669 8665 0
h -8669 8660 0
h -8669 8648 0
h -3302 8670 8664 8666 8668 8669 0
h 3302 -8670 0
h 3302 -8664 0
h 3302 -8666 0
h 3302 -8668 0
h 3302 -8669 0
h 8671 -8643 -8672 0
h -8671 8643 0
h -8671 8672 0
h 8673 -8644 -8672 0
h -8673 8644 0
h -8673 8672 0
h 8674 -8644 -8675 0
h -8674 8644 0
h -8674 8675 0
h 8676 -8643 -8675 -8648 0
h -8676 8643 0
h -8676 8675 0
h -8676 8648 0
h -6423 8677 8671 8673 8674 8676 0
h 6423 -8677 0
h 6423 -8671 0
h 6423 -8673 0
h 6423 -8674 0
h 6423 -8676 0
h 8678 -8643 -8679 0
h -8678 8643 0
h -8678 8679 0
h 8680 -8644 -8681 0
h -8680 8644 0
h -8680 8681 0
h 8682 -8644 -8679 0
h -8682 8644 0
h -8682 8679 0
h 8683 -8643 -8681 -8648 0
h -8683 8643 0
h -8683 8681 0
h -8683 8648 0
h -6428 8684 8678 8680 8682 8683 0
h 6428 -8684 0
h 6428 -8678 0
h 6428 -8680 0
h 6428 -8682 0
h 6428 -8683 0
h 8685 -8665 -8679 0
h -8685 8665 0
h -8685 8679 0
h 8686 -8667 -8679 0
h -8686 8667 0
h -8686 8679 0
h 8687 -8667 -8681 0
h -8687 8667 0
h -8687 8681 0
h 8688 -8665 -8681 -8648 0
h -8688 8665 0
h -8688 8681 0
h -8688 8648 0
h -3299 8689 8685 8686 8687 8688 0
h 3299 -8689 0
h 3299 -8685 0
h 3299 -8686 0
h 3299 -8687 0
h 3299 -8688 0
h 8690 -8654 -8667 0
h -8690 8654 0
h -8690 8667 0
h 8691 -8651 -8665 0
h -8691 8651 0
h -8691 8665 0
h 8692 -8651 -8667 0
h -8692 8651 0
h -8692 8667 0
h 8693 -8654 -8665 -8648 0
h -8693 8654 0
h -8693 8665 0
h -8693 8648 0
h -3292 8694 8690 8691 8692 8693 0
h 3292 -8694 0
h 3292 -8690 0
h 3292 -8691 0
h 3292 -8692 0
h 3292 -8693 0
h 8695 -8654 -8651 0
h -8695 8654 0
h -8695 8651 0
h 8696 -8651 -8651 0
h -8696 8651 0
h -8696 8651 0
h 8697 -8651 -8654 0
h -8697 8651 0
h -8697 8654 0
h 8698 -8654 -8654 -8648 0
h -8698 8654 0
h -8698 8654 0
h -8698 8648 0
h -3294 8699 8695 8696 8697 8698 0
h 3294 -8699 0
h 3294 -8695 0
h 3294 -8696 0
h 3294 -8697 0
h 3294 -8698 0
h 8700 -8654 -8672 0
h -8700 8654 0
h -8700 8672 0
h 8701 -8651 -8672 0
h -8701 8651 0
h -8701 8672 0
h 8702 -8651 -8675 0
h -8702 8651 0
h -8702 8675 0
h 8703 -8654 -8675 -8648 0
h -8703 8654 0
h -8703 8675 0
h -8703 8648 0
h -3297 8704 8700 8701 8702 8703 0
h 3297 -8704 0
h 3297 -8700 0
h 3297 -8701 0
h 3297 -8702 0
h 3297 -8703 0
h 8705 -8654 -8679 0
h -8705 8654 0
h -8705 8679 0
h 8706 -8651 -8681 0
h -8706 8651 0
h -8706 8681 0
h 8707 -8651 -8679 0
h -8707 8651 0
h -8707 8679 0
h 8708 -8654 -8681 -8648 0
h -8708 8654 0
h -8708 8681 0
h -8708 8648 0
h -3300 8709 8705 8706 8707 8708 0
h 3300 -8709 0
h 3300 -8705 0
h 3300 -8706 0
h 3300 -8707 0
h 3300 -8708 0
h 8710 -8660 -8679 0
h -8710 8660 0
h -8710 8679 0
h 8711 -8658 -8679 0
h -8711 8658 0
h -8711 8679 0
h 8712 -8658 -8681 0
h -8712 8658 0
h -8712 8681 0
h 8713 -8660 -8681 -8648 0
h -8713 8660 0
h -8713 8681 0
h -8713 8648 0
h -3303 8714 8710 8711 8712 8713 0
h 3303 -8714 0
h 3303 -8710 0
h 3303 -8711 0
h 3303 -8712 0
h 3303 -8713 0
h 8715 -8675 -8667 0
h -8715 8675 0
h -8715 8667 0
h 8716 -8672 -8665 0
h -8716 8672 0
h -8716 8665 0
h 8717 -8672 -8667 0
h -8717 8672 0
h -8717 8667 0
h 8718 -8675 -8665 -8648 0
h -8718 8675 0
h -8718 8665 0
h -8718 8648 0
h -3296 8719 8715 8716 8717 8718 0
h 3296 -8719 0
h 3296 -8715 0
h 3296 -8716 0
h 3296 -8717 0
h 3296 -8718 0
h 8720 -8675 -8658 0
h -8720 8675 0
h -8720 8658 0
h 8721 -8672 -8660 0
h -8721 8672 0
h -8721 8660 0
h 8722 -8672 -8658 0
h -8722 8672 0
h -8722 8658 0
h 8723 -8675 -8660 -8648 0
h -8723 8675 0
h -8723 8660 0
h -8723 8648 0
h -3305 8724 8720 8721 8722 8723 0
h 3305 -8724 0
h 3305 -8720 0
h 3305 -8721 0
h 3305 -8722 0
h 3305 -8723 0
h 8725 -8675 -8672 0
h -8725 8675 0
h -8725 8672 0
h 8726 -8672 -8672 0
h -8726 8672 0
h -8726 8672 0
h 8727 -8672 -8675 0
h -8727 8672 0
h -8727 8675 0
h 8728 -8675 -8675 -8648 0
h -8728 8675 0
h -8728 8675 0
h -8728 8648 0
h -3308 8729 8725 8726 8727 8728 0
h 3308 -8729 0
h 3308 -8725 0
h 3308 -8726 0
h 3308 -8727 0
h 3308 -8728 0
h 8730 -7054 -7054 0
h -8730 7054 0
h -8730 7054 0
h -2586 7060 8730 0
h 2586 -7060 0
h 2586 -8730 0
h 8731 -7054 -7065 0
h -8731 7054 0
h -8731 7065 0
h -2582 7067 8731 0
h 2582 -7067 0
h 2582 -8731 0
h 8732 -7054 -7071 0
h -8732 7054 0
h -8732 7071 0
h -2606 7074 8732 0
h 2606 -7074 0
h 2606 -8732 0
h 8733 -7076 -7071 0
h -8733 7076 0
h -8733 7071 0
h -2604 7081 8733 0
h 2604 -7081 0
h 2604 -8733 0
h 8734 -7054 -7086 0
h -8734 7054 0
h -8734 7086 0
h -2590 7088 8734 0
h 2590 -7088 0
h 2590 -8734 0
h 8735 -7054 -7092 0
h -8735 7054 0
h -8735 7092 0
h -2597 7095 8735 0
h 2597 -7095 0
h 2597 -8735 0
h 8736 -7076 -7092 0
h -8736 7076 0
h -8736 7092 0
h -2599 7100 8736 0
h 2599 -7100 0
h 2599 -8736 0
h 8737 -7065 -7076 0
h -8737 7065 0
h -8737 7076 0
h -2581 7105 8737 0
h 2581 -7105 0
h 2581 -8737 0
h 8738 -7065 -7065 0
h -8738 7065 0
h -8738 7065 0
h -2588 7110 8738 0
h 2588 -7110 0
h 2588 -8738 0
h 8739 -7065 -7086 0
h -8739 7065 0
h -8739 7086 0
h -2595 7115 8739 0
h 2595 -7115 0
h 2595 -8739 0
h 8740 -7065 -7092 0
h -8740 7065 0
h -8740 7092 0
h -2602 7120 8740 0
h 2602 -7120 0
h 2602 -8740 0
h 8741 -7071 -7092 0
h -8741 7071 0
h -8741 7092 0
h -2609 7125 8741 0
h 2609 -7125 0
h 2609 -8741 0
h 8742 -7086 -7076 0
h -8742 7086 0
h -8742 7076 0
h -2593 7130 8742 0
h 2593 -7130 0
h 2593 -8742 0
h 8743 -7086 -7071 0
h -8743 7086 0
h -8743 7071 0
h -2614 7135 8743 0
h 2614 -7135 0
h 2614 -8743 0
h 8744 -7086 -7086 0
h -8744 7086 0
h -8744 7086 0
h -2620 7140 8744 0
h 2620 -7140 0
h 2620 -8744 0
h 8745 -6687 -6680 0
h -8745 6687 0
h -8745 6680 0
h 8746 -6680 -6680 0
h -8746 6680 0
h -8746 6680 0
h 8747 -6680 -6687 0
h -8747 6680 0
h -8747 6687 0
h 8748 -6687 -6687 -6723 0
h -8748 6687 0
h -8748 6687 0
h -8748 6723 0
h -1448 6673 8745 8746 8747 8748 0
h 1448 -6673 0
h 1448 -8745 0
h 1448 -8746 0
h 1448 -8747 0
h 1448 -8748 0
h 8749 -6687 -6675 0
h -8749 6687 0
h -8749 6675 0
h 8750 -6680 -6675 0
h -8750 6680 0
h -8750 6675 0
h 8751 -6680 -6682 0
h -8751 6680 0
h -8751 6682 0
h 8752 -6687 -6682 -6723 0
h -8752 6687 0
h -8752 6682 0
h -8752 6723 0
h -1442 6668 8749 8750 8751 8752 0
h 1442 -6668 0
h 1442 -8749 0
h 1442 -8750 0
h 1442 -8751 0
h 1442 -8752 0
h 8753 -6687 -6678 0
h -8753 6687 0
h -8753 6678 0
h 8754 -6680 -6684 0
h -8754 6680 0
h -8754 6684 0
h 8755 -6680 -6678 0
h -8755 6680 0
h -8755 6678 0
h 8756 -6687 -6684 -6723 0
h -8756 6687 0
h -8756 6684 0
h -8756 6723 0
h -1441 6667 8753 8754 8755 8756 0
h 1441 -6667 0
h 1441 -8753 0
h 1441 -8754 0
h 1441 -8755 0
h 1441 -8756 0
h 8757 -6694 -6678 0
h -8757 6694 0
h -8757 6678 0
h 8758 -6718 -6678 0
h -8758 6718 0
h -8758 6678 0
h 8759 -6718 -6684 0
h -8759 6718 0
h -8759 6684 0
h 8760 -6694 -6684 -6723 0
h -8760 6694 0
h -8760 6684 0
h -8760 6723 0
h -1464 6689 8757 8758 8759 8760 0
h 1464 -6689 0
h 1464 -8757 0
h 1464 -8758 0
h 1464 -8759 0
h 1464 -8760 0
h 8761 -6687 -6728 0
h -8761 6687 0
h -8761 6728 0
h 8762 -6680 -6728 0
h -8762 6680 0
h -8762 6728 0
h 8763 -6680 -6748 0
h -8763 6680 0
h -8763 6748 0
h 8764 -6687 -6748 -6723 0
h -8764 6687 0
h -8764 6748 0
h -8764 6723 0
h -1455 6701 8761 8762 8763 8764 0
h 1455 -6701 0
h 1455 -8761 0
h 1455 -8762 0
h 1455 -8763 0
h 1455 -8764 0
h 8765 -6687 -6733 0
h -8765 6687 0
h -8765 6733 0
h 8766 -6680 -6738 0
h -8766 6680 0
h -8766 6738 0
h 8767 -6680 -6733 0
h -8767 6680 0
h -8767 6733 0
h 8768 -6687 -6738 -6723 0
h -8768 6687 0
h -8768 6738 0
h -8768 6723 0
h -1462 6708 8765 8766 8767 8768 0
h 1462 -6708 0
h 1462 -8765 0
h 1462 -8766 0
h 1462 -8767 0
h 1462 -8768 0
h 8769 -6694 -6733 0
h -8769 6694 0
h -8769 6733 0
h 8770 -6718 -6733 0
h -8770 6718 0
h -8770 6733 0
h 8771 -6718 -6738 0
h -8771 6718 0
h -8771 6738 0
h 8772 -6694 -6738 -6723 0
h -8772 6694 0
h -8772 6738 0
h -8772 6723 0
h -1469 6713 8769 8770 8771 8772 0
h 1469 -6713 0
h 1469 -8769 0
h 1469 -8770 0
h 1469 -8771 0
h 1469 -8772 0
h 8773 -6682 -6718 0
h -8773 6682 0
h -8773 6718 0
h 8774 -6675 -6694 0
h -8774 6675 0
h -8774 6694 0
h 8775 -6675 -6718 0
h -8775 6675 0
h -8775 6718 0
h 8776 -6682 -6694 -6723 0
h -8776 6682 0
h -8776 6694 0
h -8776 6723 0
h -1466 6691 8773 8774 8775 8776 0
h 1466 -6691 0
h 1466 -8773 0
h 1466 -8774 0
h 1466 -8775 0
h 1466 -8776 0
h 8777 -6682 -6675 0
h -8777 6682 0
h -8777 6675 0
h 6720 -6675 -6675 0
h -6720 6675 0
h -6720 6675 0
h 8778 -6675 -6682 0
h -8778 6675 0
h -8778 6682 0
h 8779 -6682 -6682 -6723 0
h -8779 6682 0
h -8779 6682 0
h -8779 6723 0
h -1446 6672 8777 6720 8778 8779 0
h 1446 -6672 0
h 1446 -8777 0
h 1446 -6720 0
h 1446 -8778 0
h 1446 -8779 0
h 8780 -6682 -6728 0
h -8780 6682 0
h -8780 6728 0
h 8781 -6675 -6728 0
h -8781 6675 0
h -8781 6728 0
h 8782 -6675 -6748 0
h -8782 6675 0
h -8782 6748 0
h 8783 -6682 -6748 -6723 0
h -8783 6682 0
h -8783 6748 0
h -8783 6723 0
h -1450 6696 8780 8781 8782 8783 0
h 1450 -6696 0
h 1450 -8780 0
h 1450 -8781 0
h 1450 -8782 0
h 1450 -8783 0
h 8784 -6682 -6733 0
h -8784 6682 0
h -8784 6733 0
h 8785 -6675 -6738 0
h -8785 6675 0
h -8785 6738 0
h 8786 -6675 -6733 0
h -8786 6675 0
h -8786 6733 0
h 8787 -6682 -6738 -6723 0
h -8787 6682 0
h -8787 6738 0
h -8787 6723 0
h -1457 6703 8784 8785 8786 8787 0
h 1457 -6703 0
h 1457 -8784 0
h 1457 -8785 0
h 1457 -8786 0
h 1457 -8787 0
h 8788 -6684 -6733 0
h -8788 6684 0
h -8788 6733 0
h 8789 -6678 -6733 0
h -8789 6678 0
h -8789 6733 0
h 8790 -6678 -6738 0
h -8790 6678 0
h -8790 6738 0
h 8791 -6684 -6738 -6723 0
h -8791 6684 0
h -8791 6738 0
h -8791 6723 0
h -1459 6705 8788 8789 8790 8791 0
h 1459 -6705 0
h 1459 -8788 0
h 1459 -8789 0
h 1459 -8790 0
h 1459 -8791 0
h 8792 -6748 -6718 0
h -8792 6748 0
h -8792 6718 0
h 8793 -6728 -6694 0
h -8793 6728 0
h -8793 6694 0
h 8794 -6728 -6718 0
h -8794 6728 0
h -8794 6718 0
h 8795 -6748 -6694 -6723 0
h -8795 6748 0
h -8795 6694 0
h -8795 6723 0
h -1474 6743 8792 8793 8794 8795 0
h 1474 -6743 0
h 1474 -8792 0
h 1474 -8793 0
h 1474 -8794 0
h 1474 -8795 0
h 8796 -6748 -6678 0
h -8796 6748 0
h -8796 6678 0
h 8797 -6728 -6684 0
h -8797 6728 0
h -8797 6684 0
h 8798 -6728 -6678 0
h -8798 6728 0
h -8798 6678 0
h 8799 -6748 -6684 -6723 0
h -8799 6748 0
h -8799 6684 0
h -8799 6723 0
h -1453 6699 8796 8797 8798 8799 0
h 1453 -6699 0
h 1453 -8796 0
h 1453 -8797 0
h 1453 -8798 0
h 1453 -8799 0
h 8800 -6748 -6728 0
h -8800 6748 0
h -8800 6728 0
h 8801 -6728 -6728 0
h -8801 6728 0
h -8801 6728 0
h 8802 -6728 -6748 0
h -8802 6728 0
h -8802 6748 0
h 8803 -6748 -6748 -6723 0
h -8803 6748 0
h -8803 6748 0
h -8803 6723 0
h -1480 6753 8800 8801 8802 8803 0
h 1480 -6753 0
h 1480 -8800 0
h 1480 -8801 0
h 1480 -8802 0
h 1480 -8803 0
h 8804 -6983 -6980 0
h -8804 6983 0
h -8804 6980 0
h 8805 -6980 -6980 0
h -8805 6980 0
h -8805 6980 0
h 8806 -6980 -6983 0
h -8806 6980 0
h -8806 6983 0
h 8807 -6983 -6983 -7001 0
h -8807 6983 0
h -8807 6983 0
h -8807 7001 0
h -3074 6968 8804 8805 8806 8807 0
h 3074 -6968 0
h 3074 -8804 0
h 3074 -8805 0
h 3074 -8806 0
h 3074 -8807 0
h 8808 -6983 -7985 0
h -8808 6983 0
h -8808 7985 0
h 8809 -6980 -7985 0
h -8809 6980 0
h -8809 7985 0
h 8810 -6980 -7990 0
h -8810 6980 0
h -8810 7990 0
h 8811 -6983 -7990 -7001 0
h -8811 6983 0
h -8811 7990 0
h -8811 7001 0
h -3076 7950 8808 8809 8810 8811 0
h 3076 -7950 0
h 3076 -8808 0
h 3076 -8809 0
h 3076 -8810 0
h 3076 -8811 0
h 8812 -6983 -6979 0
h -8812 6983 0
h -8812 6979 0
h 8813 -6980 -6982 0
h -8813 6980 0
h -8813 6982 0
h 8814 -6980 -6979 0
h -8814 6980 0
h -8814 6979 0
h 8815 -6983 -6982 -7001 0
h -8815 6983 0
h -8815 6982 0
h -8815 7001 0
h -3078 6967 8812 8813 8814 8815 0
h 3078 -6967 0
h 3078 -8812 0
h 3078 -8813 0
h 3078 -8814 0
h 3078 -8815 0
h 8816 -6985 -6979 0
h -8816 6985 0
h -8816 6979 0
h 8817 -6997 -6979 0
h -8817 6997 0
h -8817 6979 0
h 8818 -6997 -6982 0
h -8818 6997 0
h -8818 6982 0
h 8819 -6985 -6982 -7001 0
h -8819 6985 0
h -8819 6982 0
h -8819 7001 0
h -2842 6976 8816 8817 8818 8819 0
h 2842 -6976 0
h 2842 -8816 0
h 2842 -8817 0
h 2842 -8818 0
h 2842 -8819 0
h 8820 -6983 -6991 0
h -8820 6983 0
h -8820 6991 0
h 8821 -6980 -6991 0
h -8821 6980 0
h -8821 6991 0
h 8822 -6980 -6993 0
h -8822 6980 0
h -8822 6993 0
h 8823 -6983 -6993 -7001 0
h -8823 6983 0
h -8823 6993 0
h -8823 7001 0
h -4228 6971 8820 8821 8822 8823 0
h 4228 -6971 0
h 4228 -8820 0
h 4228 -8821 0
h 4228 -8822 0
h 4228 -8823 0
h 8824 -6983 -6999 0
h -8824 6983 0
h -8824 6999 0
h 8825 -6980 -6995 0
h -8825 6980 0
h -8825 6995 0
h 8826 -6980 -6999 0
h -8826 6980 0
h -8826 6999 0
h 8827 -6983 -6995 -7001 0
h -8827 6983 0
h -8827 6995 0
h -8827 7001 0
h -3072 6974 8824 8825 8826 8827 0
h 3072 -6974 0
h 3072 -8824 0
h 3072 -8825 0
h 3072 -8826 0
h 3072 -8827 0
h 8828 -6985 -6999 0
h -8828 6985 0
h -8828 6999 0
h 8829 -6997 -6999 0
h -8829 6997 0
h -8829 6999 0
h 8830 -6997 -6995 0
h -8830 6997 0
h -8830 6995 0
h 8831 -6985 -6995 -7001 0
h -8831 6985 0
h -8831 6995 0
h -8831 7001 0
h -2839 6977 8828 8829 8830 8831 0
h 2839 -6977 0
h 2839 -8828 0
h 2839 -8829 0
h 2839 -8830 0
h 2839 -8831 0
h 8832 -7990 -6997 0
h -8832 7990 0
h -8832 6997 0
h 8833 -7985 -6985 0
h -8833 7985 0
h -8833 6985 0
h 8834 -7985 -6997 0
h -8834 7985 0
h -8834 6997 0
h 8835 -7990 -6985 -7001 0
h -8835 7990 0
h -8835 6985 0
h -8835 7001 0
h -2832 7975 8832 8833 8834 8835 0
h 2832 -7975 0
h 2832 -8832 0
h 2832 -8833 0
h 2832 -8834 0
h 2832 -8835 0
h 8836 -7990 -7985 0
h -8836 7990 0
h -8836 7985 0
h 8837 -7985 -7985 0
h -8837 7985 0
h -8837 7985 0
h 8838 -7985 -7990 0
h -8838 7985 0
h -8838 7990 0
h 8839 -7990 -7990 -7001 0
h -8839 7990 0
h -8839 7990 0
h -8839 7001 0
h -2834 7980 8836 8837 8838 8839 0
h 2834 -7980 0
h 2834 -8836 0
h 2834 -8837 0
h 2834 -8838 0
h 2834 -8839 0
h 8840 -7990 -6991 0
h -8840 7990 0
h -8840 6991 0
h 8841 -7985 -6991 0
h -8841 7985 0
h -8841 6991 0
h 8842 -7985 -6993 0
h -8842 7985 0
h -8842 6993 0
h 8843 -7990 -6993 -7001 0
h -8843 7990 0
h -8843 6993 0
h -8843 7001 0
h -2837 7945 8840 8841 8842 8843 0
h 2837 -7945 0
h 2837 -8840 0
h 2837 -8841 0
h 2837 -8842 0
h 2837 -8843 0
h 8844 -7990 -6999 0
h -8844 7990 0
h -8844 6999 0
h 8845 -7985 -6995 0
h -8845 7985 0
h -8845 6995 0
h 8846 -7985 -6999 0
h -8846 7985 0
h -8846 6999 0
h 8847 -7990 -6995 -7001 0
h -8847 7990 0
h -8847 6995 0
h -8847 7001 0
h -2840 7948 8844 8845 8846 8847 0
h 2840 -7948 0
h 2840 -8844 0
h 2840 -8845 0
h 2840 -8846 0
h 2840 -8847 0
h 8848 -6982 -6999 0
h -8848 6982 0
h -8848 6999 0
h 8849 -6979 -6999 0
h -8849 6979 0
h -8849 6999 0
h 8850 -6979 -6995 0
h -8850 6979 0
h -8850 6995 0
h 8851 -6982 -6995 -7001 0
h -8851 6982 0
h -8851 6995 0
h -8851 7001 0
h -2843 6973 8848 8849 8850 8851 0
h 2843 -6973 0
h 2843 -8848 0
h 2843 -8849 0
h 2843 -8850 0
h 2843 -8851 0
h 8852 -6993 -6997 0
h -8852 6993 0
h -8852 6997 0
h 8853 -6991 -6985 0
h -8853 6991 0
h -8853 6985 0
h 8854 -6991 -6997 0
h -8854 6991 0
h -8854 6997 0
h 8855 -6993 -6985 -7001 0
h -8855 6993 0
h -8855 6985 0
h -8855 7001 0
h -2836 6987 8852 8853 8854 8855 0
h 2836 -6987 0
h 2836 -8852 0
h 2836 -8853 0
h 2836 -8854 0
h 2836 -8855 0
h 8856 -6993 -6979 0
h -8856 6993 0
h -8856 6979 0
h 8857 -6991 -6982 0
h -8857 6991 0
h -8857 6982 0
h 8858 -6991 -6979 0
h -8858 6991 0
h -8858 6979 0
h 8859 -6993 -6982 -7001 0
h -8859 6993 0
h -8859 6982 0
h -8859 7001 0
h -2845 6970 8856 8857 8858 8859 0
h 2845 -6970 0
h 2845 -8856 0
h 2845 -8857 0
h 2845 -8858 0
h 2845 -8859 0
h 8860 -6993 -6991 0
h -8860 6993 0
h -8860 6991 0
h 8004 -6991 -6991 0
h -8004 6991 0
h -8004 6991 0
h 8861 -6991 -6993 0
h -8861 6991 0
h -8861 6993 0
h 8862 -6993 -6993 -7001 0
h -8862 6993 0
h -8862 6993 0
h -8862 7001 0
h -2848 6989 8860 8004 8861 8862 0
h 2848 -6989 0
h 2848 -8860 0
h 2848 -8004 0
h 2848 -8861 0
h 2848 -8862 0
h 8863 -6687 -6687 0
h -8863 6687 0
h -8863 6687 0
h -3705 6673 8863 0
h 3705 -6673 0
h 3705 -8863 0
h 8864 -6687 -6682 0
h -8864 6687 0
h -8864 6682 0
h -3878 6668 8864 0
h 3878 -6668 0
h 3878 -8864 0
h 8865 -6687 -6684 0
h -8865 6687 0
h -8865 6684 0
h -3703 6667 8865 0
h 3703 -6667 0
h 3703 -8865 0
h 8866 -6694 -6684 0
h -8866 6694 0
h -8866 6684 0
h -3713 6689 8866 0
h 3713 -6689 0
h 3713 -8866 0
h 8867 -6687 -6748 0
h -8867 6687 0
h -8867 6748 0
h -3708 6701 8867 0
h 3708 -6701 0
h 3708 -8867 0
h 8868 -6687 -6738 0
h -8868 6687 0
h -8868 6738 0
h -3711 6708 8868 0
h 3711 -6708 0
h 3711 -8868 0
h 8869 -6694 -6738 0
h -8869 6694 0
h -8869 6738 0
h -3714 6713 8869 0
h 3714 -6713 0
h 3714 -8869 0
h 8870 -6682 -6694 0
h -8870 6682 0
h -8870 6694 0
h -3877 6691 8870 0
h 3877 -6691 0
h 3877 -8870 0
h 8871 -6682 -6682 0
h -8871 6682 0
h -8871 6682 0
h -3883 6672 8871 0
h 3883 -6672 0
h 3883 -8871 0
h 8872 -6682 -6748 0
h -8872 6682 0
h -8872 6748 0
h -3888 6696 8872 0
h 3888 -6696 0
h 3888 -8872 0
h 8873 -6682 -6738 0
h -8873 6682 0
h -8873 6738 0
h -3893 6703 8873 0
h 3893 -6703 0
h 3893 -8873 0
h 8874 -6684 -6738 0
h -8874 6684 0
h -8874 6738 0
h -3710 6705 8874 0
h 3710 -6705 0
h 3710 -8874 0
h 8875 -6748 -6694 0
h -8875 6748 0
h -8875 6694 0
h -3716 6743 8875 0
h 3716 -6743 0
h 3716 -8875 0
h 8876 -6748 -6684 0
h -8876 6748 0
h -8876 6684 0
h -3707 6699 8876 0
h 3707 -6699 0
h 3707 -8876 0
h 8877 -6748 -6748 0
h -8877 6748 0
h -8877 6748 0
h -3719 6753 8877 0
h 3719 -6753 0
h 3719 -8877 0
h 8878 -7565 -7565 0
h -8878 7565 0
h -8878 7565 0
h -2386 7530 8878 0
h 2386 -7530 0
h 2386 -8878 0
h 8879 -7565 -7560 0
h -8879 7565 0
h -8879 7560 0
h -4250 7525 8879 0
h 4250 -7525 0
h 4250 -8879 0
h 8880 -7565 -7562 0
h -8880 7565 0
h -8880 7562 0
h -2384 7524 8880 0
h 2384 -7524 0
h 2384 -8880 0
h 8881 -7570 -7562 0
h -8881 7570 0
h -8881 7562 0
h -2394 7546 8881 0
h 2394 -7546 0
h 2394 -8881 0
h 8882 -7565 -7590 0
h -8882 7565 0
h -8882 7590 0
h -2389 7537 8882 0
h 2389 -7537 0
h 2389 -8882 0
h 8883 -7565 -7595 0
h -8883 7565 0
h -8883 7595 0
h -2392 7544 8883 0
h 2392 -7544 0
h 2392 -8883 0
h 8884 -7570 -7595 0
h -8884 7570 0
h -8884 7595 0
h -2395 7551 8884 0
h 2395 -7551 0
h 2395 -8884 0
h 8885 -7560 -7570 0
h -8885 7560 0
h -8885 7570 0
h -3957 7548 8885 0
h 3957 -7548 0
h 3957 -8885 0
h 8886 -7560 -7560 0
h -8886 7560 0
h -8886 7560 0
h -3959 7529 8886 0
h 3959 -7529 0
h 3959 -8886 0
h 8887 -7560 -7590 0
h -8887 7560 0
h -8887 7590 0
h -3961 7532 8887 0
h 3961 -7532 0
h 3961 -8887 0
h 8888 -7560 -7595 0
h -8888 7560 0
h -8888 7595 0
h -3963 7539 8888 0
h 3963 -7539 0
h 3963 -8888 0
h 8889 -7562 -7595 0
h -8889 7562 0
h -8889 7595 0
h -2391 7541 8889 0
h 2391 -7541 0
h 2391 -8889 0
h 8890 -7590 -7570 0
h -8890 7590 0
h -8890 7570 0
h -2397 7575 8890 0
h 2397 -7575 0
h 2397 -8890 0
h 8891 -7590 -7562 0
h -8891 7590 0
h -8891 7562 0
h -2388 7535 8891 0
h 2388 -7535 0
h 2388 -8891 0
h 8892 -7590 -7590 0
h -8892 7590 0
h -8892 7590 0
h -2400 7580 8892 0
h 2400 -7580 0
h 2400 -8892 0
h 8893 -7912 -7912 0
h -8893 7912 0
h -8893 7912 0
h -1348 7906 8893 0
h 1348 -7906 0
h 1348 -8893 0
h 8894 -7912 -8895 0
h -8894 7912 0
h -8894 8895 0
h -4432 8896 8894 0
h 4432 -8896 0
h 4432 -8894 0
h 8897 -7912 -7911 0
h -8897 7912 0
h -8897 7911 0
h -1346 7905 8897 0
h 1346 -7905 0
h 1346 -8897 0
h 8898 -7915 -7911 0
h -8898 7915 0
h -8898 7911 0
h -1356 7914 8898 0
h 1356 -7914 0
h 1356 -8898 0
h 8899 -7912 -7937 0
h -8899 7912 0
h -8899 7937 0
h -1351 7918 8899 0
h 1351 -7918 0
h 1351 -8899 0
h 8900 -7912 -7933 0
h -8900 7912 0
h -8900 7933 0
h -1354 7921 8900 0
h 1354 -7921 0
h 1354 -8900 0
h 8901 -7915 -7933 0
h -8901 7915 0
h -8901 7933 0
h -1357 7923 8901 0
h 1357 -7923 0
h 1357 -8901 0
h 8902 -8895 -7915 0
h -8902 8895 0
h -8902 7915 0
h -4431 8903 8902 0
h 4431 -8903 0
h 4431 -8902 0
h 8904 -8895 -8895 0
h -8904 8895 0
h -8904 8895 0
h -4437 8905 8904 0
h 4437 -8905 0
h 4437 -8904 0
h 8906 -8895 -7937 0
h -8906 8895 0
h -8906 7937 0
h -4442 8907 8906 0
h 4442 -8907 0
h 4442 -8906 0
h 8908 -8895 -7933 0
h -8908 8895 0
h -8908 7933 0
h -4447 8909 8908 0
h 4447 -8909 0
h 4447 -8908 0
h 8910 -7911 -7933 0
h -8910 7911 0
h -8910 7933 0
h -1353 7920 8910 0
h 1353 -7920 0
h 1353 -8910 0
h 8911 -7937 -7915 0
h -8911 7937 0
h -8911 7915 0
h -1359 7935 8911 0
h 1359 -7935 0
h 1359 -8911 0
h 8912 -7937 -7911 0
h -8912 7937 0
h -8912 7911 0
h -1350 7917 8912 0
h 1350 -7917 0
h 1350 -8912 0
h 8913 -7937 -7937 0
h -8913 7937 0
h -8913 7937 0
h -1362 7939 8913 0
h 1362 -7939 0
h 1362 -8913 0
h 8914 -6550 -6547 0
h -8914 6550 0
h -8914 6547 0
h 8915 -6547 -6547 0
h -8915 6547 0
h -8915 6547 0
h 8916 -6547 -6550 0
h -8916 6547 0
h -8916 6550 0
h 8917 -6550 -6550 -6565 0
h -8917 6550 0
h -8917 6550 0
h -8917 6565 0
h -1723 6544 8914 8915 8916 8917 0
h 1723 -6544 0
h 1723 -8914 0
h 1723 -8915 0
h 1723 -8916 0
h 1723 -8917 0
h 8918 -6550 -8102 0
h -8918 6550 0
h -8918 8102 0
h 8919 -6547 -8102 0
h -8919 6547 0
h -8919 8102 0
h 8920 -6547 -8107 0
h -8920 6547 0
h -8920 8107 0
h 8921 -6550 -8107 -6565 0
h -8921 6550 0
h -8921 8107 0
h -8921 6565 0
h -1719 8096 8918 8919 8920 8921 0
h 1719 -8096 0
h 1719 -8918 0
h 1719 -8919 0
h 1719 -8920 0
h 1719 -8921 0
h 8922 -6550 -6546 0
h -8922 6550 0
h -8922 6546 0
h 8923 -6547 -6549 0
h -8923 6547 0
h -8923 6549 0
h 8924 -6547 -6546 0
h -8924 6547 0
h -8924 6546 0
h 8925 -6550 -6549 -6565 0
h -8925 6550 0
h -8925 6549 0
h -8925 6565 0
h -1743 6543 8922 8923 8924 8925 0
h 1743 -6543 0
h 1743 -8922 0
h 1743 -8923 0
h 1743 -8924 0
h 1743 -8925 0
h 8926 -6553 -6546 0
h -8926 6553 0
h -8926 6546 0
h 8927 -6563 -6546 0
h -8927 6563 0
h -8927 6546 0
h 8928 -6563 -6549 0
h -8928 6563 0
h -8928 6549 0
h 8929 -6553 -6549 -6565 0
h -8929 6553 0
h -8929 6549 0
h -8929 6565 0
h -1741 6552 8926 8927 8928 8929 0
h 1741 -6552 0
h 1741 -8926 0
h 1741 -8927 0
h 1741 -8928 0
h 1741 -8929 0
h 8930 -6550 -6567 0
h -8930 6550 0
h -8930 6567 0
h 8931 -6547 -6567 0
h -8931 6547 0
h -8931 6567 0
h 8932 -6547 -6575 0
h -8932 6547 0
h -8932 6575 0
h 8933 -6550 -6575 -6565 0
h -8933 6550 0
h -8933 6575 0
h -8933 6565 0
h -1727 6556 8930 8931 8932 8933 0
h 1727 -6556 0
h 1727 -8930 0
h 1727 -8931 0
h 1727 -8932 0
h 1727 -8933 0
h 8934 -6550 -6569 0
h -8934 6550 0
h -8934 6569 0
h 8935 -6547 -6571 0
h -8935 6547 0
h -8935 6571 0
h 8936 -6547 -6569 0
h -8936 6547 0
h -8936 6569 0
h 8937 -6550 -6571 -6565 0
h -8937 6550 0
h -8937 6571 0
h -8937 6565 0
h -1734 6559 8934 8935 8936 8937 0
h 1734 -6559 0
h 1734 -8934 0
h 1734 -8935 0
h 1734 -8936 0
h 1734 -8937 0
h 8938 -6553 -6569 0
h -8938 6553 0
h -8938 6569 0
h 8939 -6563 -6569 0
h -8939 6563 0
h -8939 6569 0
h 8940 -6563 -6571 0
h -8940 6563 0
h -8940 6571 0
h 8941 -6553 -6571 -6565 0
h -8941 6553 0
h -8941 6571 0
h -8941 6565 0
h -1736 6561 8938 8939 8940 8941 0
h 1736 -6561 0
h 1736 -8938 0
h 1736 -8939 0
h 1736 -8940 0
h 1736 -8941 0
h 8942 -8107 -6563 0
h -8942 8107 0
h -8942 6563 0
h 8943 -8102 -6553 0
h -8943 8102 0
h -8943 6553 0
h 8944 -8102 -6563 0
h -8944 8102 0
h -8944 6563 0
h 8945 -8107 -6553 -6565 0
h -8945 8107 0
h -8945 6553 0
h -8945 6565 0
h -1718 8113 8942 8943 8944 8945 0
h 1718 -8113 0
h 1718 -8942 0
h 1718 -8943 0
h 1718 -8944 0
h 1718 -8945 0
h 8946 -8107 -8102 0
h -8946 8107 0
h -8946 8102 0
h 8135 -8102 -8102 0
h -8135 8102 0
h -8135 8102 0
h 8947 -8102 -8107 0
h -8947 8102 0
h -8947 8107 0
h 8948 -8107 -8107 -6565 0
h -8948 8107 0
h -8948 8107 0
h -8948 6565 0
h -1725 8100 8946 8135 8947 8948 0
h 1725 -8100 0
h 1725 -8946 0
h 1725 -8135 0
h 1725 -8947 0
h 1725 -8948 0
h 8949 -8107 -6567 0
h -8949 8107 0
h -8949 6567 0
h 8950 -8102 -6567 0
h -8950 8102 0
h -8950 6567 0
h 8951 -8102 -6575 0
h -8951 8102 0
h -8951 6575 0
h 8952 -8107 -6575 -6565 0
h -8952 8107 0
h -8952 6575 0
h -8952 6565 0
h -1732 8117 8949 8950 8951 8952 0
h 1732 -8117 0
h 1732 -8949 0
h 1732 -8950 0
h 1732 -8951 0
h 1732 -8952 0
h 8953 -8107 -6569 0
h -8953 8107 0
h -8953 6569 0
h 8954 -8102 -6571 0
h -8954 8102 0
h -8954 6571 0
h 8955 -8102 -6569 0
h -8955 8102 0
h -8955 6569 0
h 8956 -8107 -6571 -6565 0
h -8956 8107 0
h -8956 6571 0
h -8956 6565 0
h -1739 8122 8953 8954 8955 8956 0
h 1739 -8122 0
h 1739 -8953 0
h 1739 -8954 0
h 1739 -8955 0
h 1739 -8956 0
h 8957 -6549 -6569 0
h -8957 6549 0
h -8957 6569 0
h 8958 -6546 -6569 0
h -8958 6546 0
h -8958 6569 0
h 8959 -6546 -6571 0
h -8959 6546 0
h -8959 6571 0
h 8960 -6549 -6571 -6565 0
h -8960 6549 0
h -8960 6571 0
h -8960 6565 0
h -1746 6558 8957 8958 8959 8960 0
h 1746 -6558 0
h 1746 -8957 0
h 1746 -8958 0
h 1746 -8959 0
h 1746 -8960 0
h 8961 -6575 -6563 0
h -8961 6575 0
h -8961 6563 0
h 8962 -6567 -6553 0
h -8962 6567 0
h -8962 6553 0
h 8963 -6567 -6563 0
h -8963 6567 0
h -8963 6563 0
h 8964 -6575 -6553 -6565 0
h -8964 6575 0
h -8964 6553 0
h -8964 6565 0
h -1730 6573 8961 8962 8963 8964 0
h 1730 -6573 0
h 1730 -8961 0
h 1730 -8962 0
h 1730 -8963 0
h 1730 -8964 0
h 8965 -6575 -6546 0
h -8965 6575 0
h -8965 6546 0
h 8966 -6567 -6549 0
h -8966 6567 0
h -8966 6549 0
h 8967 -6567 -6546 0
h -8967 6567 0
h -8967 6546 0
h 8968 -6575 -6549 -6565 0
h -8968 6575 0
h -8968 6549 0
h -8968 6565 0
h -1751 6555 8965 8966 8967 8968 0
h 1751 -6555 0
h 1751 -8965 0
h 1751 -8966 0
h 1751 -8967 0
h 1751 -8968 0
h 8969 -6575 -6567 0
h -8969 6575 0
h -8969 6567 0
h 8970 -6567 -6567 0
h -8970 6567 0
h -8970 6567 0
h 8971 -6567 -6575 0
h -8971 6567 0
h -8971 6575 0
h 8972 -6575 -6575 -6565 0
h -8972 6575 0
h -8972 6575 0
h -8972 6565 0
h -1757 6577 8969 8970 8971 8972 0
h 1757 -6577 0
h 1757 -8969 0
h 1757 -8970 0
h 1757 -8971 0
h 1757 -8972 0
h 8973 -6667 -6667 0
h -8973 6667 0
h -8973 6667 0
h -6197 6673 8973 0
h 6197 -6673 0
h 6197 -8973 0
h 8974 -6667 -6678 0
h -8974 6667 0
h -8974 6678 0
h -6193 6680 8974 0
h 6193 -6680 0
h 6193 -8974 0
h 8975 -6667 -6684 0
h -8975 6667 0
h -8975 6684 0
h -6211 6687 8975 0
h 6211 -6687 0
h 6211 -8975 0
h 8976 -6689 -6684 0
h -8976 6689 0
h -8976 6684 0
h -5750 6694 8976 0
h 5750 -6694 0
h 5750 -8976 0
h 8977 -6667 -6699 0
h -8977 6667 0
h -8977 6699 0
h -6200 6701 8977 0
h 6200 -6701 0
h 6200 -8977 0
h 8978 -6667 -6705 0
h -8978 6667 0
h -8978 6705 0
h -6205 6708 8978 0
h 6205 -6708 0
h 6205 -8978 0
h 8979 -6689 -6705 0
h -8979 6689 0
h -8979 6705 0
h -5747 6713 8979 0
h 5747 -6713 0
h 5747 -8979 0
h 8980 -6678 -6689 0
h -8980 6678 0
h -8980 6689 0
h -5740 6718 8980 0
h 5740 -6718 0
h 5740 -8980 0
h 8981 -6678 -6678 0
h -8981 6678 0
h -8981 6678 0
h -5742 6723 8981 0
h 5742 -6723 0
h 5742 -8981 0
h 8982 -6678 -6699 0
h -8982 6678 0
h -8982 6699 0
h -5745 6728 8982 0
h 5745 -6728 0
h 5745 -8982 0
h 8983 -6678 -6705 0
h -8983 6678 0
h -8983 6705 0
h -5748 6733 8983 0
h 5748 -6733 0
h 5748 -8983 0
h 8984 -6684 -6705 0
h -8984 6684 0
h -8984 6705 0
h -5751 6738 8984 0
h 5751 -6738 0
h 5751 -8984 0
h 8985 -6699 -6689 0
h -8985 6699 0
h -8985 6689 0
h -5744 6743 8985 0
h 5744 -6743 0
h 5744 -8985 0
h 8986 -6699 -6684 0
h -8986 6699 0
h -8986 6684 0
h -5753 6748 8986 0
h 5753 -6748 0
h 5753 -8986 0
h 8987 -6699 -6699 0
h -8987 6699 0
h -8987 6699 0
h -5756 6753 8987 0
h 5756 -6753 0
h 5756 -8987 0
h 8988 -7183 -7183 0
h -8988 7183 0
h -8988 7183 0
h -2624 7148 8988 0
h 2624 -7148 0
h 2624 -8988 0
h 8989 -7183 -7178 0
h -8989 7183 0
h -8989 7178 0
h -3037 7143 8989 0
h 3037 -7143 0
h 3037 -8989 0
h 8990 -7183 -7180 0
h -8990 7183 0
h -8990 7180 0
h -2622 7142 8990 0
h 2622 -7142 0
h 2622 -8990 0
h 8991 -7188 -7180 0
h -8991 7188 0
h -8991 7180 0
h -2632 7164 8991 0
h 2632 -7164 0
h 2632 -8991 0
h 8992 -7183 -7208 0
h -8992 7183 0
h -8992 7208 0
h -2627 7155 8992 0
h 2627 -7155 0
h 2627 -8992 0
h 8993 -7183 -7213 0
h -8993 7183 0
h -8993 7213 0
h -2630 7162 8993 0
h 2630 -7162 0
h 2630 -8993 0
h 8994 -7188 -7213 0
h -8994 7188 0
h -8994 7213 0
h -2633 7169 8994 0
h 2633 -7169 0
h 2633 -8994 0
h 8995 -7178 -7188 0
h -8995 7178 0
h -8995 7188 0
h -3041 7166 8995 0
h 3041 -7166 0
h 3041 -8995 0
h 8996 -7178 -7178 0
h -8996 7178 0
h -8996 7178 0
h -3044 7147 8996 0
h 3044 -7147 0
h 3044 -8996 0
h 8997 -7178 -7208 0
h -8997 7178 0
h -8997 7208 0
h -3870 7150 8997 0
h 3870 -7150 0
h 3870 -8997 0
h 8998 -7178 -7213 0
h -8998 7178 0
h -8998 7213 0
h -3036 7157 8998 0
h 3036 -7157 0
h 3036 -8998 0
h 8999 -7180 -7213 0
h -8999 7180 0
h -8999 7213 0
h -2629 7159 8999 0
h 2629 -7159 0
h 2629 -8999 0
h 9000 -7208 -7188 0
h -9000 7208 0
h -9000 7188 0
h -2635 7193 9000 0
h 2635 -7193 0
h 2635 -9000 0
h 9001 -7208 -7180 0
h -9001 7208 0
h -9001 7180 0
h -2626 7153 9001 0
h 2626 -7153 0
h 2626 -9001 0
h 9002 -7208 -7208 0
h -9002 7208 0
h -9002 7208 0
h -2638 7198 9002 0
h 2638 -7198 0
h 2638 -9002 0
h 9003 -6455 -6455 0
h -9003 6455 0
h -9003 6455 0
h -5309 6461 9003 0
h 5309 -6461 0
h 5309 -9003 0
h 9004 -6455 -6466 0
h -9004 6455 0
h -9004 6466 0
h -5305 6468 9004 0
h 5305 -6468 0
h 5305 -9004 0
h 9005 -6455 -6472 0
h -9005 6455 0
h -9005 6472 0
h -5329 6475 9005 0
h 5329 -6475 0
h 5329 -9005 0
h 9006 -6477 -6472 0
h -9006 6477 0
h -9006 6472 0
h -5327 6482 9006 0
h 5327 -6482 0
h 5327 -9006 0
h 9007 -6455 -6487 0
h -9007 6455 0
h -9007 6487 0
h -5313 6489 9007 0
h 5313 -6489 0
h 5313 -9007 0
h 9008 -6455 -6493 0
h -9008 6455 0
h -9008 6493 0
h -5320 6496 9008 0
h 5320 -6496 0
h 5320 -9008 0
h 9009 -6477 -6493 0
h -9009 6477 0
h -9009 6493 0
h -5322 6501 9009 0
h 5322 -6501 0
h 5322 -9009 0
h 9010 -6466 -6477 0
h -9010 6466 0
h -9010 6477 0
h -5304 6506 9010 0
h 5304 -6506 0
h 5304 -9010 0
h 9011 -6466 -6466 0
h -9011 6466 0
h -9011 6466 0
h -5311 6511 9011 0
h 5311 -6511 0
h 5311 -9011 0
h 9012 -6466 -6487 0
h -9012 6466 0
h -9012 6487 0
h -5318 6516 9012 0
h 5318 -6516 0
h 5318 -9012 0
h 9013 -6466 -6493 0
h -9013 6466 0
h -9013 6493 0
h -5325 6521 9013 0
h 5325 -6521 0
h 5325 -9013 0
h 9014 -6472 -6493 0
h -9014 6472 0
h -9014 6493 0
h -5332 6526 9014 0
h 5332 -6526 0
h 5332 -9014 0
h 9015 -6487 -6477 0
h -9015 6487 0
h -9015 6477 0
h -5316 6531 9015 0
h 5316 -6531 0
h 5316 -9015 0
h 9016 -6487 -6472 0
h -9016 6487 0
h -9016 6472 0
h -5337 6536 9016 0
h 5337 -6536 0
h 5337 -9016 0
h 9017 -6487 -6487 0
h -9017 6487 0
h -9017 6487 0
h -5343 6541 9017 0
h 5343 -6541 0
h 5343 -9017 0
h 9018 -7544 -7537 0
h -9018 7544 0
h -9018 7537 0
h 9019 -7537 -7537 0
h -9019 7537 0
h -9019 7537 0
h 9020 -7537 -7544 0
h -9020 7537 0
h -9020 7544 0
h 9021 -7544 -7544 -7580 0
h -9021 7544 0
h -9021 7544 0
h -9021 7580 0
h -2947 7530 9018 9019 9020 9021 0
h 2947 -7530 0
h 2947 -9018 0
h 2947 -9019 0
h 2947 -9020 0
h 2947 -9021 0
h 9022 -7544 -7532 0
h -9022 7544 0
h -9022 7532 0
h 9023 -7537 -7532 0
h -9023 7537 0
h -9023 7532 0
h 9024 -7537 -7539 0
h -9024 7537 0
h -9024 7539 0
h 9025 -7544 -7539 -7580 0
h -9025 7544 0
h -9025 7539 0
h -9025 7580 0
h -2941 7525 9022 9023 9024 9025 0
h 2941 -7525 0
h 2941 -9022 0
h 2941 -9023 0
h 2941 -9024 0
h 2941 -9025 0
h 9026 -7544 -7535 0
h -9026 7544 0
h -9026 7535 0
h 9027 -7537 -7541 0
h -9027 7537 0
h -9027 7541 0
h 9028 -7537 -7535 0
h -9028 7537 0
h -9028 7535 0
h 9029 -7544 -7541 -7580 0
h -9029 7544 0
h -9029 7541 0
h -9029 7580 0
h -2940 7524 9026 9027 9028 9029 0
h 2940 -7524 0
h 2940 -9026 0
h 2940 -9027 0
h 2940 -9028 0
h 2940 -9029 0
h 9030 -7551 -7535 0
h -9030 7551 0
h -9030 7535 0
h 9031 -7575 -7535 0
h -9031 7575 0
h -9031 7535 0
h 9032 -7575 -7541 0
h -9032 7575 0
h -9032 7541 0
h 9033 -7551 -7541 -7580 0
h -9033 7551 0
h -9033 7541 0
h -9033 7580 0
h -2963 7546 9030 9031 9032 9033 0
h 2963 -7546 0
h 2963 -9030 0
h 2963 -9031 0
h 2963 -9032 0
h 2963 -9033 0
h 9034 -7544 -7585 0
h -9034 7544 0
h -9034 7585 0
h 9035 -7537 -7585 0
h -9035 7537 0
h -9035 7585 0
h 9036 -7537 -7605 0
h -9036 7537 0
h -9036 7605 0
h 9037 -7544 -7605 -7580 0
h -9037 7544 0
h -9037 7605 0
h -9037 7580 0
h -2954 7558 9034 9035 9036 9037 0
h 2954 -7558 0
h 2954 -9034 0
h 2954 -9035 0
h 2954 -9036 0
h 2954 -9037 0
h 9038 -7544 -7590 0
h -9038 7544 0
h -9038 7590 0
h 9039 -7537 -7595 0
h -9039 7537 0
h -9039 7595 0
h 9040 -7537 -7590 0
h -9040 7537 0
h -9040 7590 0
h 9041 -7544 -7595 -7580 0
h -9041 7544 0
h -9041 7595 0
h -9041 7580 0
h -2961 7565 9038 9039 9040 9041 0
h 2961 -7565 0
h 2961 -9038 0
h 2961 -9039 0
h 2961 -9040 0
h 2961 -9041 0
h 9042 -7551 -7590 0
h -9042 7551 0
h -9042 7590 0
h 9043 -7575 -7590 0
h -9043 7575 0
h -9043 7590 0
h 9044 -7575 -7595 0
h -9044 7575 0
h -9044 7595 0
h 9045 -7551 -7595 -7580 0
h -9045 7551 0
h -9045 7595 0
h -9045 7580 0
h -2968 7570 9042 9043 9044 9045 0
h 2968 -7570 0
h 2968 -9042 0
h 2968 -9043 0
h 2968 -9044 0
h 2968 -9045 0
h 9046 -7539 -7575 0
h -9046 7539 0
h -9046 7575 0
h 9047 -7532 -7551 0
h -9047 7532 0
h -9047 7551 0
h 9048 -7532 -7575 0
h -9048 7532 0
h -9048 7575 0
h 9049 -7539 -7551 -7580 0
h -9049 7539 0
h -9049 7551 0
h -9049 7580 0
h -2965 7548 9046 9047 9048 9049 0
h 2965 -7548 0
h 2965 -9046 0
h 2965 -9047 0
h 2965 -9048 0
h 2965 -9049 0
h 9050 -7539 -7532 0
h -9050 7539 0
h -9050 7532 0
h 7577 -7532 -7532 0
h -7577 7532 0
h -7577 7532 0
h 9051 -7532 -7539 0
h -9051 7532 0
h -9051 7539 0
h 9052 -7539 -7539 -7580 0
h -9052 7539 0
h -9052 7539 0
h -9052 7580 0
h -2945 7529 9050 7577 9051 9052 0
h 2945 -7529 0
h 2945 -9050 0
h 2945 -7577 0
h 2945 -9051 0
h 2945 -9052 0
h 9053 -7539 -7585 0
h -9053 7539 0
h -9053 7585 0
h 9054 -7532 -7585 0
h -9054 7532 0
h -9054 7585 0
h 9055 -7532 -7605 0
h -9055 7532 0
h -9055 7605 0
h 9056 -7539 -7605 -7580 0
h -9056 7539 0
h -9056 7605 0
h -9056 7580 0
h -2949 7553 9053 9054 9055 9056 0
h 2949 -7553 0
h 2949 -9053 0
h 2949 -9054 0
h 2949 -9055 0
h 2949 -9056 0
h 9057 -7539 -7590 0
h -9057 7539 0
h -9057 7590 0
h 9058 -7532 -7595 0
h -9058 7532 0
h -9058 7595 0
h 9059 -7532 -7590 0
h -9059 7532 0
h -9059 7590 0
h 9060 -7539 -7595 -7580 0
h -9060 7539 0
h -9060 7595 0
h -9060 7580 0
h -2956 7560 9057 9058 9059 9060 0
h 2956 -7560 0
h 2956 -9057 0
h 2956 -9058 0
h 2956 -9059 0
h 2956 -9060 0
h 9061 -7541 -7590 0
h -9061 7541 0
h -9061 7590 0
h 9062 -7535 -7590 0
h -9062 7535 0
h -9062 7590 0
h 9063 -7535 -7595 0
h -9063 7535 0
h -9063 7595 0
h 9064 -7541 -7595 -7580 0
h -9064 7541 0
h -9064 7595 0
h -9064 7580 0
h -2958 7562 9061 9062 9063 9064 0
h 2958 -7562 0
h 2958 -9061 0
h 2958 -9062 0
h 2958 -9063 0
h 2958 -9064 0
h 9065 -7605 -7575 0
h -9065 7605 0
h -9065 7575 0
h 9066 -7585 -7551 0
h -9066 7585 0
h -9066 7551 0
h 9067 -7585 -7575 0
h -9067 7585 0
h -9067 7575 0
h 9068 -7605 -7551 -7580 0
h -9068 7605 0
h -9068 7551 0
h -9068 7580 0
h -2973 7600 9065 9066 9067 9068 0
h 2973 -7600 0
h 2973 -9065 0
h 2973 -9066 0
h 2973 -9067 0
h 2973 -9068 0
h 9069 -7605 -7535 0
h -9069 7605 0
h -9069 7535 0
h 9070 -7585 -7541 0
h -9070 7585 0
h -9070 7541 0
h 9071 -7585 -7535 0
h -9071 7585 0
h -9071 7535 0
h 9072 -7605 -7541 -7580 0
h -9072 7605 0
h -9072 7541 0
h -9072 7580 0
h -2952 7556 9069 9070 9071 9072 0
h 2952 -7556 0
h 2952 -9069 0
h 2952 -9070 0
h 2952 -9071 0
h 2952 -9072 0
h 9073 -7605 -7585 0
h -9073 7605 0
h -9073 7585 0
h 9074 -7585 -7585 0
h -9074 7585 0
h -9074 7585 0
h 9075 -7585 -7605 0
h -9075 7585 0
h -9075 7605 0
h 9076 -7605 -7605 -7580 0
h -9076 7605 0
h -9076 7605 0
h -9076 7580 0
h -2979 7610 9073 9074 9075 9076 0
h 2979 -7610 0
h 2979 -9073 0
h 2979 -9074 0
h 2979 -9075 0
h 2979 -9076 0
h 9077 -7025 -7022 0
h -9077 7025 0
h -9077 7022 0
h 9078 -7022 -7022 0
h -9078 7022 0
h -9078 7022 0
h 9079 -7022 -7025 0
h -9079 7022 0
h -9079 7025 0
h 9080 -7025 -7025 -7040 0
h -9080 7025 0
h -9080 7025 0
h -9080 7040 0
h -1763 7019 9077 9078 9079 9080 0
h 1763 -7019 0
h 1763 -9077 0
h 1763 -9078 0
h 1763 -9079 0
h 1763 -9080 0
h 9081 -7025 -9082 0
h -9081 7025 0
h -9081 9082 0
h 9083 -7022 -9082 0
h -9083 7022 0
h -9083 9082 0
h 9084 -7022 -9085 0
h -9084 7022 0
h -9084 9085 0
h 9086 -7025 -9085 -7040 0
h -9086 7025 0
h -9086 9085 0
h -9086 7040 0
h -1759 9087 9081 9083 9084 9086 0
h 1759 -9087 0
h 1759 -9081 0
h 1759 -9083 0
h 1759 -9084 0
h 1759 -9086 0
h 9088 -7025 -7021 0
h -9088 7025 0
h -9088 7021 0
h 9089 -7022 -7024 0
h -9089 7022 0
h -9089 7024 0
h 9090 -7022 -7021 0
h -9090 7022 0
h -9090 7021 0
h 9091 -7025 -7024 -7040 0
h -9091 7025 0
h -9091 7024 0
h -9091 7040 0
h -1777 7018 9088 9089 9090 9091 0
h 1777 -7018 0
h 1777 -9088 0
h 1777 -9089 0
h 1777 -9090 0
h 1777 -9091 0
h 9092 -7028 -7021 0
h -9092 7028 0
h -9092 7021 0
h 9093 -7038 -7021 0
h -9093 7038 0
h -9093 7021 0
h 9094 -7038 -7024 0
h -9094 7038 0
h -9094 7024 0
h 9095 -7028 -7024 -7040 0
h -9095 7028 0
h -9095 7024 0
h -9095 7040 0
h -1415 7027 9092 9093 9094 9095 0
h 1415 -7027 0
h 1415 -9092 0
h 1415 -9093 0
h 1415 -9094 0
h 1415 -9095 0
h 9096 -7025 -7042 0
h -9096 7025 0
h -9096 7042 0
h 9097 -7022 -7042 0
h -9097 7022 0
h -9097 7042 0
h 9098 -7022 -7050 0
h -9098 7022 0
h -9098 7050 0
h 9099 -7025 -7050 -7040 0
h -9099 7025 0
h -9099 7050 0
h -9099 7040 0
h -1766 7031 9096 9097 9098 9099 0
h 1766 -7031 0
h 1766 -9096 0
h 1766 -9097 0
h 1766 -9098 0
h 1766 -9099 0
h 9100 -7025 -7044 0
h -9100 7025 0
h -9100 7044 0
h 9101 -7022 -7046 0
h -9101 7022 0
h -9101 7046 0
h 9102 -7022 -7044 0
h -9102 7022 0
h -9102 7044 0
h 9103 -7025 -7046 -7040 0
h -9103 7025 0
h -9103 7046 0
h -9103 7040 0
h -1771 7034 9100 9101 9102 9103 0
h 1771 -7034 0
h 1771 -9100 0
h 1771 -9101 0
h 1771 -9102 0
h 1771 -9103 0
h 9104 -7028 -7044 0
h -9104 7028 0
h -9104 7044 0
h 9105 -7038 -7044 0
h -9105 7038 0
h -9105 7044 0
h 9106 -7038 -7046 0
h -9106 7038 0
h -9106 7046 0
h 9107 -7028 -7046 -7040 0
h -9107 7028 0
h -9107 7046 0
h -9107 7040 0
h -1412 7036 9104 9105 9106 9107 0
h 1412 -7036 0
h 1412 -9104 0
h 1412 -9105 0
h 1412 -9106 0
h 1412 -9107 0
h 9108 -9085 -7038 0
h -9108 9085 0
h -9108 7038 0
h 9109 -9082 -7028 0
h -9109 9082 0
h -9109 7028 0
h 9110 -9082 -7038 0
h -9110 9082 0
h -9110 7038 0
h 9111 -9085 -7028 -7040 0
h -9111 9085 0
h -9111 7028 0
h -9111 7040 0
h -1405 9112 9108 9109 9110 9111 0
h 1405 -9112 0
h 1405 -9108 0
h 1405 -9109 0
h 1405 -9110 0
h 1405 -9111 0
h 9113 -9085 -9082 0
h -9113 9085 0
h -9113 9082 0
h 9114 -9082 -9082 0
h -9114 9082 0
h -9114 9082 0
h 9115 -9082 -9085 0
h -9115 9082 0
h -9115 9085 0
h 9116 -9085 -9085 -7040 0
h -9116 9085 0
h -9116 9085 0
h -9116 7040 0
h -1407 9117 9113 9114 9115 9116 0
h 1407 -9117 0
h 1407 -9113 0
h 1407 -9114 0
h 1407 -9115 0
h 1407 -9116 0
h 9118 -9085 -7042 0
h -9118 9085 0
h -9118 7042 0
h 9119 -9082 -7042 0
h -9119 9082 0
h -9119 7042 0
h 9120 -9082 -7050 0
h -9120 9082 0
h -9120 7050 0
h 9121 -9085 -7050 -7040 0
h -9121 9085 0
h -9121 7050 0
h -9121 7040 0
h -1410 9122 9118 9119 9120 9121 0
h 1410 -9122 0
h 1410 -9118 0
h 1410 -9119 0
h 1410 -9120 0
h 1410 -9121 0
h 9123 -9085 -7044 0
h -9123 9085 0
h -9123 7044 0
h 9124 -9082 -7046 0
h -9124 9082 0
h -9124 7046 0
h 9125 -9082 -7044 0
h -9125 9082 0
h -9125 7044 0
h 9126 -9085 -7046 -7040 0
h -9126 9085 0
h -9126 7046 0
h -9126 7040 0
h -1413 9127 9123 9124 9125 9126 0
h 1413 -9127 0
h 1413 -9123 0
h 1413 -9124 0
h 1413 -9125 0
h 1413 -9126 0
h 9128 -7024 -7044 0
h -9128 7024 0
h -9128 7044 0
h 9129 -7021 -7044 0
h -9129 7021 0
h -9129 7044 0
h 9130 -7021 -7046 0
h -9130 7021 0
h -9130 7046 0
h 9131 -7024 -7046 -7040 0
h -9131 7024 0
h -9131 7046 0
h -9131 7040 0
h -1416 7033 9128 9129 9130 9131 0
h 1416 -7033 0
h 1416 -9128 0
h 1416 -9129 0
h 1416 -9130 0
h 1416 -9131 0
h 9132 -7050 -7038 0
h -9132 7050 0
h -9132 7038 0
h 9133 -7042 -7028 0
h -9133 7042 0
h -9133 7028 0
h 9134 -7042 -7038 0
h -9134 7042 0
h -9134 7038 0
h 9135 -7050 -7028 -7040 0
h -9135 7050 0
h -9135 7028 0
h -9135 7040 0
h -1409 7048 9132 9133 9134 9135 0
h 1409 -7048 0
h 1409 -9132 0
h 1409 -9133 0
h 1409 -9134 0
h 1409 -9135 0
h 9136 -7050 -7021 0
h -9136 7050 0
h -9136 7021 0
h 9137 -7042 -7024 0
h -9137 7042 0
h -9137 7024 0
h 9138 -7042 -7021 0
h -9138 7042 0
h -9138 7021 0
h 9139 -7050 -7024 -7040 0
h -9139 7050 0
h -9139 7024 0
h -9139 7040 0
h -1418 7030 9136 9137 9138 9139 0
h 1418 -7030 0
h 1418 -9136 0
h 1418 -9137 0
h 1418 -9138 0
h 1418 -9139 0
h 9140 -7050 -7042 0
h -9140 7050 0
h -9140 7042 0
h 9141 -7042 -7042 0
h -9141 7042 0
h -9141 7042 0
h 9142 -7042 -7050 0
h -9142 7042 0
h -9142 7050 0
h 9143 -7050 -7050 -7040 0
h -9143 7050 0
h -9143 7050 0
h -9143 7040 0
h -1421 7052 9140 9141 9142 9143 0
h 1421 -7052 0
h 1421 -9140 0
h 1421 -9141 0
h 1421 -9142 0
h 1421 -9143 0
h 9144 -8643 -8643 0
h -9144 8643 0
h -9144 8643 0
h -1487 8649 9144 0
h 1487 -8649 0
h 1487 -9144 0
h 9145 -8643 -8654 0
h -9145 8643 0
h -9145 8654 0
h -1483 8656 9145 0
h 1483 -8656 0
h 1483 -9145 0
h 9146 -8643 -8660 0
h -9146 8643 0
h -9146 8660 0
h -1507 8663 9146 0
h 1507 -8663 0
h 1507 -9146 0
h 9147 -8665 -8660 0
h -9147 8665 0
h -9147 8660 0
h -1505 8670 9147 0
h 1505 -8670 0
h 1505 -9147 0
h 9148 -8643 -8675 0
h -9148 8643 0
h -9148 8675 0
h -1491 8677 9148 0
h 1491 -8677 0
h 1491 -9148 0
h 9149 -8643 -8681 0
h -9149 8643 0
h -9149 8681 0
h -1498 8684 9149 0
h 1498 -8684 0
h 1498 -9149 0
h 9150 -8665 -8681 0
h -9150 8665 0
h -9150 8681 0
h -1500 8689 9150 0
h 1500 -8689 0
h 1500 -9150 0
h 9151 -8654 -8665 0
h -9151 8654 0
h -9151 8665 0
h -1482 8694 9151 0
h 1482 -8694 0
h 1482 -9151 0
h 9152 -8654 -8654 0
h -9152 8654 0
h -9152 8654 0
h -1489 8699 9152 0
h 1489 -8699 0
h 1489 -9152 0
h 9153 -8654 -8675 0
h -9153 8654 0
h -9153 8675 0
h -1496 8704 9153 0
h 1496 -8704 0
h 1496 -9153 0
h 9154 -8654 -8681 0
h -9154 8654 0
h -9154 8681 0
h -1503 8709 9154 0
h 1503 -8709 0
h 1503 -9154 0
h 9155 -8660 -8681 0
h -9155 8660 0
h -9155 8681 0
h -1510 8714 9155 0
h 1510 -8714 0
h 1510 -9155 0
h 9156 -8675 -8665 0
h -9156 8675 0
h -9156 8665 0
h -1494 8719 9156 0
h 1494 -8719 0
h 1494 -9156 0
h 9157 -8675 -8660 0
h -9157 8675 0
h -9157 8660 0
h -1515 8724 9157 0
h 1515 -8724 0
h 1515 -9157 0
h 9158 -8675 -8675 0
h -9158 8675 0
h -9158 8675 0
h -1521 8729 9158 0
h 1521 -8729 0
h 1521 -9158 0
h 9159 -8028 -8021 0
h -9159 8028 0
h -9159 8021 0
h 9160 -8021 -8021 0
h -9160 8021 0
h -9160 8021 0
h 9161 -8021 -8028 0
h -9161 8021 0
h -9161 8028 0
h 9162 -8028 -8028 -8064 0
h -9162 8028 0
h -9162 8028 0
h -9162 8064 0
h -2432 8014 9159 9160 9161 9162 0
h 2432 -8014 0
h 2432 -9159 0
h 2432 -9160 0
h 2432 -9161 0
h 2432 -9162 0
h 9163 -8028 -8016 0
h -9163 8028 0
h -9163 8016 0
h 9164 -8021 -8016 0
h -9164 8021 0
h -9164 8016 0
h 9165 -8021 -8023 0
h -9165 8021 0
h -9165 8023 0
h 9166 -8028 -8023 -8064 0
h -9166 8028 0
h -9166 8023 0
h -9166 8064 0
h -2428 8009 9163 9164 9165 9166 0
h 2428 -8009 0
h 2428 -9163 0
h 2428 -9164 0
h 2428 -9165 0
h 2428 -9166 0
h 9167 -8028 -8019 0
h -9167 8028 0
h -9167 8019 0
h 9168 -8021 -8025 0
h -9168 8021 0
h -9168 8025 0
h 9169 -8021 -8019 0
h -9169 8021 0
h -9169 8019 0
h 9170 -8028 -8025 -8064 0
h -9170 8028 0
h -9170 8025 0
h -9170 8064 0
h -2452 8008 9167 9168 9169 9170 0
h 2452 -8008 0
h 2452 -9167 0
h 2452 -9168 0
h 2452 -9169 0
h 2452 -9170 0
h 9171 -8035 -8019 0
h -9171 8035 0
h -9171 8019 0
h 9172 -8059 -8019 0
h -9172 8059 0
h -9172 8019 0
h 9173 -8059 -8025 0
h -9173 8059 0
h -9173 8025 0
h 9174 -8035 -8025 -8064 0
h -9174 8035 0
h -9174 8025 0
h -9174 8064 0
h -2450 8030 9171 9172 9173 9174 0
h 2450 -8030 0
h 2450 -9171 0
h 2450 -9172 0
h 2450 -9173 0
h 2450 -9174 0
h 9175 -8028 -8069 0
h -9175 8028 0
h -9175 8069 0
h 9176 -8021 -8069 0
h -9176 8021 0
h -9176 8069 0
h 9177 -8021 -8089 0
h -9177 8021 0
h -9177 8089 0
h 9178 -8028 -8089 -8064 0
h -9178 8028 0
h -9178 8089 0
h -9178 8064 0
h -2436 8042 9175 9176 9177 9178 0
h 2436 -8042 0
h 2436 -9175 0
h 2436 -9176 0
h 2436 -9177 0
h 2436 -9178 0
h 9179 -8028 -8074 0
h -9179 8028 0
h -9179 8074 0
h 9180 -8021 -8079 0
h -9180 8021 0
h -9180 8079 0
h 9181 -8021 -8074 0
h -9181 8021 0
h -9181 8074 0
h 9182 -8028 -8079 -8064 0
h -9182 8028 0
h -9182 8079 0
h -9182 8064 0
h -2443 8049 9179 9180 9181 9182 0
h 2443 -8049 0
h 2443 -9179 0
h 2443 -9180 0
h 2443 -9181 0
h 2443 -9182 0
h 9183 -8035 -8074 0
h -9183 8035 0
h -9183 8074 0
h 9184 -8059 -8074 0
h -9184 8059 0
h -9184 8074 0
h 9185 -8059 -8079 0
h -9185 8059 0
h -9185 8079 0
h 9186 -8035 -8079 -8064 0
h -9186 8035 0
h -9186 8079 0
h -9186 8064 0
h -2445 8054 9183 9184 9185 9186 0
h 2445 -8054 0
h 2445 -9183 0
h 2445 -9184 0
h 2445 -9185 0
h 2445 -9186 0
h 9187 -8023 -8059 0
h -9187 8023 0
h -9187 8059 0
h 9188 -8016 -8035 0
h -9188 8016 0
h -9188 8035 0
h 9189 -8016 -8059 0
h -9189 8016 0
h -9189 8059 0
h 9190 -8023 -8035 -8064 0
h -9190 8023 0
h -9190 8035 0
h -9190 8064 0
h -2427 8032 9187 9188 9189 9190 0
h 2427 -8032 0
h 2427 -9187 0
h 2427 -9188 0
h 2427 -9189 0
h 2427 -9190 0
h 9191 -8023 -8016 0
h -9191 8023 0
h -9191 8016 0
h 8061 -8016 -8016 0
h -8061 8016 0
h -8061 8016 0
h 9192 -8016 -8023 0
h -9192 8016 0
h -9192 8023 0
h 9193 -8023 -8023 -8064 0
h -9193 8023 0
h -9193 8023 0
h -9193 8064 0
h -2434 8013 9191 8061 9192 9193 0
h 2434 -8013 0
h 2434 -9191 0
h 2434 -8061 0
h 2434 -9192 0
h 2434 -9193 0
h 9194 -8023 -8069 0
h -9194 8023 0
h -9194 8069 0
h 9195 -8016 -8069 0
h -9195 8016 0
h -9195 8069 0
h 9196 -8016 -8089 0
h -9196 8016 0
h -9196 8089 0
h 9197 -8023 -8089 -8064 0
h -9197 8023 0
h -9197 8089 0
h -9197 8064 0
h -2441 8037 9194 9195 9196 9197 0
h 2441 -8037 0
h 2441 -9194 0
h 2441 -9195 0
h 2441 -9196 0
h 2441 -9197 0
h 9198 -8023 -8074 0
h -9198 8023 0
h -9198 8074 0
h 9199 -8016 -8079 0
h -9199 8016 0
h -9199 8079 0
h 9200 -8016 -8074 0
h -9200 8016 0
h -9200 8074 0
h 9201 -8023 -8079 -8064 0
h -9201 8023 0
h -9201 8079 0
h -9201 8064 0
h -2448 8044 9198 9199 9200 9201 0
h 2448 -8044 0
h 2448 -9198 0
h 2448 -9199 0
h 2448 -9200 0
h 2448 -9201 0
h 9202 -8025 -8074 0
h -9202 8025 0
h -9202 8074 0
h 9203 -8019 -8074 0
h -9203 8019 0
h -9203 8074 0
h 9204 -8019 -8079 0
h -9204 8019 0
h -9204 8079 0
h 9205 -8025 -8079 -8064 0
h -9205 8025 0
h -9205 8079 0
h -9205 8064 0
h -2455 8046 9202 9203 9204 9205 0
h 2455 -8046 0
h 2455 -9202 0
h 2455 -9203 0
h 2455 -9204 0
h 2455 -9205 0
h 9206 -8089 -8059 0
h -9206 8089 0
h -9206 8059 0
h 9207 -8069 -8035 0
h -9207 8069 0
h -9207 8035 0
h 9208 -8069 -8059 0
h -9208 8069 0
h -9208 8059 0
h 9209 -8089 -8035 -8064 0
h -9209 8089 0
h -9209 8035 0
h -9209 8064 0
h -2439 8084 9206 9207 9208 9209 0
h 2439 -8084 0
h 2439 -9206 0
h 2439 -9207 0
h 2439 -9208 0
h 2439 -9209 0
h 9210 -8089 -8019 0
h -9210 8089 0
h -9210 8019 0
h 9211 -8069 -8025 0
h -9211 8069 0
h -9211 8025 0
h 9212 -8069 -8019 0
h -9212 8069 0
h -9212 8019 0
h 9213 -8089 -8025 -8064 0
h -9213 8089 0
h -9213 8025 0
h -9213 8064 0
h -2460 8040 9210 9211 9212 9213 0
h 2460 -8040 0
h 2460 -9210 0
h 2460 -9211 0
h 2460 -9212 0
h 2460 -9213 0
h 9214 -8089 -8069 0
h -9214 8089 0
h -9214 8069 0
h 9215 -8069 -8069 0
h -9215 8069 0
h -9215 8069 0
h 9216 -8069 -8089 0
h -9216 8069 0
h -9216 8089 0
h 9217 -8089 -8089 -8064 0
h -9217 8089 0
h -9217 8089 0
h -9217 8064 0
h -2466 8094 9214 9215 9216 9217 0
h 2466 -8094 0
h 2466 -9214 0
h 2466 -9215 0
h 2466 -9216 0
h 2466 -9217 0
h 9218 -7565 -7558 0
h -9218 7565 0
h -9218 7558 0
h 9219 -7558 -7558 0
h -9219 7558 0
h -9219 7558 0
h 9220 -7558 -7565 0
h -9220 7558 0
h -9220 7565 0
h 9221 -7565 -7565 -7610 0
h -9221 7565 0
h -9221 7565 0
h -9221 7610 0
h -1666 7530 9218 9219 9220 9221 0
h 1666 -7530 0
h 1666 -9218 0
h 1666 -9219 0
h 1666 -9220 0
h 1666 -9221 0
h 9222 -7565 -7553 0
h -9222 7565 0
h -9222 7553 0
h 9223 -7558 -7553 0
h -9223 7558 0
h -9223 7553 0
h 9224 -7558 -7560 0
h -9224 7558 0
h -9224 7560 0
h 9225 -7565 -7560 -7610 0
h -9225 7565 0
h -9225 7560 0
h -9225 7610 0
h -1660 7525 9222 9223 9224 9225 0
h 1660 -7525 0
h 1660 -9222 0
h 1660 -9223 0
h 1660 -9224 0
h 1660 -9225 0
h 9226 -7565 -7556 0
h -9226 7565 0
h -9226 7556 0
h 9227 -7558 -7562 0
h -9227 7558 0
h -9227 7562 0
h 9228 -7558 -7556 0
h -9228 7558 0
h -9228 7556 0
h 9229 -7565 -7562 -7610 0
h -9229 7565 0
h -9229 7562 0
h -9229 7610 0
h -1659 7524 9226 9227 9228 9229 0
h 1659 -7524 0
h 1659 -9226 0
h 1659 -9227 0
h 1659 -9228 0
h 1659 -9229 0
h 9230 -7570 -7556 0
h -9230 7570 0
h -9230 7556 0
h 9231 -7600 -7556 0
h -9231 7600 0
h -9231 7556 0
h 9232 -7600 -7562 0
h -9232 7600 0
h -9232 7562 0
h 9233 -7570 -7562 -7610 0
h -9233 7570 0
h -9233 7562 0
h -9233 7610 0
h -1682 7546 9230 9231 9232 9233 0
h 1682 -7546 0
h 1682 -9230 0
h 1682 -9231 0
h 1682 -9232 0
h 1682 -9233 0
h 9234 -7565 -7585 0
h -9234 7565 0
h -9234 7585 0
h 9235 -7558 -7585 0
h -9235 7558 0
h -9235 7585 0
h 9236 -7558 -7590 0
h -9236 7558 0
h -9236 7590 0
h 9237 -7565 -7590 -7610 0
h -9237 7565 0
h -9237 7590 0
h -9237 7610 0
h -1673 7537 9234 9235 9236 9237 0
h 1673 -7537 0
h 1673 -9234 0
h 1673 -9235 0
h 1673 -9236 0
h 1673 -9237 0
h 9238 -7565 -7605 0
h -9238 7565 0
h -9238 7605 0
h 9239 -7558 -7595 0
h -9239 7558 0
h -9239 7595 0
h 9240 -7558 -7605 0
h -9240 7558 0
h -9240 7605 0
h 9241 -7565 -7595 -7610 0
h -9241 7565 0
h -9241 7595 0
h -9241 7610 0
h -1680 7544 9238 9239 9240 9241 0
h 1680 -7544 0
h 1680 -9238 0
h 1680 -9239 0
h 1680 -9240 0
h 1680 -9241 0
h 9242 -7570 -7605 0
h -9242 7570 0
h -9242 7605 0
h 9243 -7600 -7605 0
h -9243 7600 0
h -9243 7605 0
h 9244 -7600 -7595 0
h -9244 7600 0
h -9244 7595 0
h 9245 -7570 -7595 -7610 0
h -9245 7570 0
h -9245 7595 0
h -9245 7610 0
h -1687 7551 9242 9243 9244 9245 0
h 1687 -7551 0
h 1687 -9242 0
h 1687 -9243 0
h 1687 -9244 0
h 1687 -9245 0
h 9246 -7560 -7600 0
h -9246 7560 0
h -9246 7600 0
h 9247 -7553 -7570 0
h -9247 7553 0
h -9247 7570 0
h 9248 -7553 -7600 0
h -9248 7553 0
h -9248 7600 0
h 9249 -7560 -7570 -7610 0
h -9249 7560 0
h -9249 7570 0
h -9249 7610 0
h -1684 7548 9246 9247 9248 9249 0
h 1684 -7548 0
h 1684 -9246 0
h 1684 -9247 0
h 1684 -9248 0
h 1684 -9249 0
h 9250 -7560 -7553 0
h -9250 7560 0
h -9250 7553 0
h 7607 -7553 -7553 0
h -7607 7553 0
h -7607 7553 0
h 9251 -7553 -7560 0
h -9251 7553 0
h -9251 7560 0
h 9252 -7560 -7560 -7610 0
h -9252 7560 0
h -9252 7560 0
h -9252 7610 0
h -1664 7529 9250 7607 9251 9252 0
h 1664 -7529 0
h 1664 -9250 0
h 1664 -7607 0
h 1664 -9251 0
h 1664 -9252 0
h 9253 -7560 -7585 0
h -9253 7560 0
h -9253 7585 0
h 9254 -7553 -7585 0
h -9254 7553 0
h -9254 7585 0
h 9255 -7553 -7590 0
h -9255 7553 0
h -9255 7590 0
h 9256 -7560 -7590 -7610 0
h -9256 7560 0
h -9256 7590 0
h -9256 7610 0
h -1668 7532 9253 9254 9255 9256 0
h 1668 -7532 0
h 1668 -9253 0
h 1668 -9254 0
h 1668 -9255 0
h 1668 -9256 0
h 9257 -7560 -7605 0
h -9257 7560 0
h -9257 7605 0
h 9258 -7553 -7595 0
h -9258 7553 0
h -9258 7595 0
h 9259 -7553 -7605 0
h -9259 7553 0
h -9259 7605 0
h 9260 -7560 -7595 -7610 0
h -9260 7560 0
h -9260 7595 0
h -9260 7610 0
h -1675 7539 9257 9258 9259 9260 0
h 1675 -7539 0
h 1675 -9257 0
h 1675 -9258 0
h 1675 -9259 0
h 1675 -9260 0
h 9261 -7562 -7605 0
h -9261 7562 0
h -9261 7605 0
h 9262 -7556 -7605 0
h -9262 7556 0
h -9262 7605 0
h 9263 -7556 -7595 0
h -9263 7556 0
h -9263 7595 0
h 9264 -7562 -7595 -7610 0
h -9264 7562 0
h -9264 7595 0
h -9264 7610 0
h -1677 7541 9261 9262 9263 9264 0
h 1677 -7541 0
h 1677 -9261 0
h 1677 -9262 0
h 1677 -9263 0
h 1677 -9264 0
h 9265 -7590 -7600 0
h -9265 7590 0
h -9265 7600 0
h 9266 -7585 -7570 0
h -9266 7585 0
h -9266 7570 0
h 9267 -7585 -7600 0
h -9267 7585 0
h -9267 7600 0
h 9268 -7590 -7570 -7610 0
h -9268 7590 0
h -9268 7570 0
h -9268 7610 0
h -1692 7575 9265 9266 9267 9268 0
h 1692 -7575 0
h 1692 -9265 0
h 1692 -9266 0
h 1692 -9267 0
h 1692 -9268 0
h 9269 -7590 -7556 0
h -9269 7590 0
h -9269 7556 0
h 9270 -7585 -7562 0
h -9270 7585 0
h -9270 7562 0
h 9271 -7585 -7556 0
h -9271 7585 0
h -9271 7556 0
h 9272 -7590 -7562 -7610 0
h -9272 7590 0
h -9272 7562 0
h -9272 7610 0
h -1671 7535 9269 9270 9271 9272 0
h 1671 -7535 0
h 1671 -9269 0
h 1671 -9270 0
h 1671 -9271 0
h 1671 -9272 0
h 9273 -7590 -7585 0
h -9273 7590 0
h -9273 7585 0
h 9074 -7585 -7585 0
h -9074 7585 0
h -9074 7585 0
h 9274 -7585 -7590 0
h -9274 7585 0
h -9274 7590 0
h 9275 -7590 -7590 -7610 0
h -9275 7590 0
h -9275 7590 0
h -9275 7610 0
h -1698 7580 9273 9074 9274 9275 0
h 1698 -7580 0
h 1698 -9273 0
h 1698 -9074 0
h 1698 -9274 0
h 1698 -9275 0
h 9276 -8028 -8028 0
h -9276 8028 0
h -9276 8028 0
h -1271 8014 9276 0
h 1271 -8014 0
h 1271 -9276 0
h 9277 -8028 -8023 0
h -9277 8028 0
h -9277 8023 0
h -1265 8009 9277 0
h 1265 -8009 0
h 1265 -9277 0
h 9278 -8028 -8025 0
h -9278 8028 0
h -9278 8025 0
h -1264 8008 9278 0
h 1264 -8008 0
h 1264 -9278 0
h 9279 -8035 -8025 0
h -9279 8035 0
h -9279 8025 0
h -1287 8030 9279 0
h 1287 -8030 0
h 1287 -9279 0
h 9280 -8028 -8089 0
h -9280 8028 0
h -9280 8089 0
h -1278 8042 9280 0
h 1278 -8042 0
h 1278 -9280 0
h 9281 -8028 -8079 0
h -9281 8028 0
h -9281 8079 0
h -1285 8049 9281 0
h 1285 -8049 0
h 1285 -9281 0
h 9282 -8035 -8079 0
h -9282 8035 0
h -9282 8079 0
h -1292 8054 9282 0
h 1292 -8054 0
h 1292 -9282 0
h 9283 -8023 -8035 0
h -9283 8023 0
h -9283 8035 0
h -1289 8032 9283 0
h 1289 -8032 0
h 1289 -9283 0
h 9284 -8023 -8023 0
h -9284 8023 0
h -9284 8023 0
h -1269 8013 9284 0
h 1269 -8013 0
h 1269 -9284 0
h 9285 -8023 -8089 0
h -9285 8023 0
h -9285 8089 0
h -1273 8037 9285 0
h 1273 -8037 0
h 1273 -9285 0
h 9286 -8023 -8079 0
h -9286 8023 0
h -9286 8079 0
h -1280 8044 9286 0
h 1280 -8044 0
h 1280 -9286 0
h 9287 -8025 -8079 0
h -9287 8025 0
h -9287 8079 0
h -1282 8046 9287 0
h 1282 -8046 0
h 1282 -9287 0
h 9288 -8089 -8035 0
h -9288 8089 0
h -9288 8035 0
h -1297 8084 9288 0
h 1297 -8084 0
h 1297 -9288 0
h 9289 -8089 -8025 0
h -9289 8089 0
h -9289 8025 0
h -1276 8040 9289 0
h 1276 -8040 0
h 1276 -9289 0
h 9290 -8089 -8089 0
h -9290 8089 0
h -9290 8089 0
h -1303 8094 9290 0
h 1303 -8094 0
h 1303 -9290 0
h 9291 -7162 -7155 0
h -9291 7162 0
h -9291 7155 0
h 9292 -7155 -7155 0
h -9292 7155 0
h -9292 7155 0
h 9293 -7155 -7162 0
h -9293 7155 0
h -9293 7162 0
h 9294 -7162 -7162 -7198 0
h -9294 7162 0
h -9294 7162 0
h -9294 7198 0
h -1602 7148 9291 9292 9293 9294 0
h 1602 -7148 0
h 1602 -9291 0
h 1602 -9292 0
h 1602 -9293 0
h 1602 -9294 0
h 9295 -7162 -7150 0
h -9295 7162 0
h -9295 7150 0
h 9296 -7155 -7150 0
h -9296 7155 0
h -9296 7150 0
h 9297 -7155 -7157 0
h -9297 7155 0
h -9297 7157 0
h 9298 -7162 -7157 -7198 0
h -9298 7162 0
h -9298 7157 0
h -9298 7198 0
h -5354 7143 9295 9296 9297 9298 0
h 5354 -7143 0
h 5354 -9295 0
h 5354 -9296 0
h 5354 -9297 0
h 5354 -9298 0
h 9299 -7162 -7153 0
h -9299 7162 0
h -9299 7153 0
h 9300 -7155 -7159 0
h -9300 7155 0
h -9300 7159 0
h 9301 -7155 -7153 0
h -9301 7155 0
h -9301 7153 0
h 9302 -7162 -7159 -7198 0
h -9302 7162 0
h -9302 7159 0
h -9302 7198 0
h -1600 7142 9299 9300 9301 9302 0
h 1600 -7142 0
h 1600 -9299 0
h 1600 -9300 0
h 1600 -9301 0
h 1600 -9302 0
h 9303 -7169 -7153 0
h -9303 7169 0
h -9303 7153 0
h 9304 -7193 -7153 0
h -9304 7193 0
h -9304 7153 0
h 9305 -7193 -7159 0
h -9305 7193 0
h -9305 7159 0
h 9306 -7169 -7159 -7198 0
h -9306 7169 0
h -9306 7159 0
h -9306 7198 0
h -1610 7164 9303 9304 9305 9306 0
h 1610 -7164 0
h 1610 -9303 0
h 1610 -9304 0
h 1610 -9305 0
h 1610 -9306 0
h 9307 -7162 -7203 0
h -9307 7162 0
h -9307 7203 0
h 9308 -7155 -7203 0
h -9308 7155 0
h -9308 7203 0
h 9309 -7155 -7223 0
h -9309 7155 0
h -9309 7223 0
h 9310 -7162 -7223 -7198 0
h -9310 7162 0
h -9310 7223 0
h -9310 7198 0
h -1605 7176 9307 9308 9309 9310 0
h 1605 -7176 0
h 1605 -9307 0
h 1605 -9308 0
h 1605 -9309 0
h 1605 -9310 0
h 9311 -7162 -7208 0
h -9311 7162 0
h -9311 7208 0
h 9312 -7155 -7213 0
h -9312 7155 0
h -9312 7213 0
h 9313 -7155 -7208 0
h -9313 7155 0
h -9313 7208 0
h 9314 -7162 -7213 -7198 0
h -9314 7162 0
h -9314 7213 0
h -9314 7198 0
h -1608 7183 9311 9312 9313 9314 0
h 1608 -7183 0
h 1608 -9311 0
h 1608 -9312 0
h 1608 -9313 0
h 1608 -9314 0
h 9315 -7169 -7208 0
h -9315 7169 0
h -9315 7208 0
h 9316 -7193 -7208 0
h -9316 7193 0
h -9316 7208 0
h 9317 -7193 -7213 0
h -9317 7193 0
h -9317 7213 0
h 9318 -7169 -7213 -7198 0
h -9318 7169 0
h -9318 7213 0
h -9318 7198 0
h -1611 7188 9315 9316 9317 9318 0
h 1611 -7188 0
h 1611 -9315 0
h 1611 -9316 0
h 1611 -9317 0
h 1611 -9318 0
h 9319 -7157 -7193 0
h -9319 7157 0
h -9319 7193 0
h 9320 -7150 -7169 0
h -9320 7150 0
h -9320 7169 0
h 9321 -7150 -7193 0
h -9321 7150 0
h -9321 7193 0
h 9322 -7157 -7169 -7198 0
h -9322 7157 0
h -9322 7169 0
h -9322 7198 0
h -5353 7166 9319 9320 9321 9322 0
h 5353 -7166 0
h 5353 -9319 0
h 5353 -9320 0
h 5353 -9321 0
h 5353 -9322 0
h 9323 -7157 -7150 0
h -9323 7157 0
h -9323 7150 0
h 7195 -7150 -7150 0
h -7195 7150 0
h -7195 7150 0
h 9324 -7150 -7157 0
h -9324 7150 0
h -9324 7157 0
h 9325 -7157 -7157 -7198 0
h -9325 7157 0
h -9325 7157 0
h -9325 7198 0
h -5359 7147 9323 7195 9324 9325 0
h 5359 -7147 0
h 5359 -9323 0
h 5359 -7195 0
h 5359 -9324 0
h 5359 -9325 0
h 9326 -7157 -7203 0
h -9326 7157 0
h -9326 7203 0
h 9327 -7150 -7203 0
h -9327 7150 0
h -9327 7203 0
h 9328 -7150 -7223 0
h -9328 7150 0
h -9328 7223 0
h 9329 -7157 -7223 -7198 0
h -9329 7157 0
h -9329 7223 0
h -9329 7198 0
h -5364 7171 9326 9327 9328 9329 0
h 5364 -7171 0
h 5364 -9326 0
h 5364 -9327 0
h 5364 -9328 0
h 5364 -9329 0
h 9330 -7157 -7208 0
h -9330 7157 0
h -9330 7208 0
h 9331 -7150 -7213 0
h -9331 7150 0
h -9331 7213 0
h 9332 -7150 -7208 0
h -9332 7150 0
h -9332 7208 0
h 9333 -7157 -7213 -7198 0
h -9333 7157 0
h -9333 7213 0
h -9333 7198 0
h -5369 7178 9330 9331 9332 9333 0
h 5369 -7178 0
h 5369 -9330 0
h 5369 -9331 0
h 5369 -9332 0
h 5369 -9333 0
h 9334 -7159 -7208 0
h -9334 7159 0
h -9334 7208 0
h 9335 -7153 -7208 0
h -9335 7153 0
h -9335 7208 0
h 9336 -7153 -7213 0
h -9336 7153 0
h -9336 7213 0
h 9337 -7159 -7213 -7198 0
h -9337 7159 0
h -9337 7213 0
h -9337 7198 0
h -1607 7180 9334 9335 9336 9337 0
h 1607 -7180 0
h 1607 -9334 0
h 1607 -9335 0
h 1607 -9336 0
h 1607 -9337 0
h 9338 -7223 -7193 0
h -9338 7223 0
h -9338 7193 0
h 9339 -7203 -7169 0
h -9339 7203 0
h -9339 7169 0
h 9340 -7203 -7193 0
h -9340 7203 0
h -9340 7193 0
h 9341 -7223 -7169 -7198 0
h -9341 7223 0
h -9341 7169 0
h -9341 7198 0
h -1613 7218 9338 9339 9340 9341 0
h 1613 -7218 0
h 1613 -9338 0
h 1613 -9339 0
h 1613 -9340 0
h 1613 -9341 0
h 9342 -7223 -7153 0
h -9342 7223 0
h -9342 7153 0
h 9343 -7203 -7159 0
h -9343 7203 0
h -9343 7159 0
h 9344 -7203 -7153 0
h -9344 7203 0
h -9344 7153 0
h 9345 -7223 -7159 -7198 0
h -9345 7223 0
h -9345 7159 0
h -9345 7198 0
h -1604 7174 9342 9343 9344 9345 0
h 1604 -7174 0
h 1604 -9342 0
h 1604 -9343 0
h 1604 -9344 0
h 1604 -9345 0
h 9346 -7223 -7203 0
h -9346 7223 0
h -9346 7203 0
h 7901 -7203 -7203 0
h -7901 7203 0
h -7901 7203 0
h 9347 -7203 -7223 0
h -9347 7203 0
h -9347 7223 0
h 9348 -7223 -7223 -7198 0
h -9348 7223 0
h -9348 7223 0
h -9348 7198 0
h -1616 7228 9346 7901 9347 9348 0
h 1616 -7228 0
h 1616 -9346 0
h 1616 -7901 0
h 1616 -9347 0
h 1616 -9348 0
h 9349 -7648 -8526 0
h -9349 7648 0
h -9349 8526 0
h 9350 -8526 -8526 0
h -9350 8526 0
h -9350 8526 0
h 9351 -8526 -7648 0
h -9351 8526 0
h -9351 7648 0
h 9352 -7648 -7648 -8556 0
h -9352 7648 0
h -9352 7648 0
h -9352 8556 0
h -2472 7649 9349 9350 9351 9352 0
h 2472 -7649 0
h 2472 -9349 0
h 2472 -9350 0
h 2472 -9351 0
h 2472 -9352 0
h 9353 -7648 -8521 0
h -9353 7648 0
h -9353 8521 0
h 9354 -8526 -8521 0
h -9354 8526 0
h -9354 8521 0
h 9355 -8526 -7651 0
h -9355 8526 0
h -9355 7651 0
h 9356 -7648 -7651 -8556 0
h -9356 7648 0
h -9356 7651 0
h -9356 8556 0
h -2468 7652 9353 9354 9355 9356 0
h 2468 -7652 0
h 2468 -9353 0
h 2468 -9354 0
h 2468 -9355 0
h 2468 -9356 0
h 9357 -7648 -8524 0
h -9357 7648 0
h -9357 8524 0
h 9358 -8526 -7654 0
h -9358 8526 0
h -9358 7654 0
h 9359 -8526 -8524 0
h -9359 8526 0
h -9359 8524 0
h 9360 -7648 -7654 -8556 0
h -9360 7648 0
h -9360 7654 0
h -9360 8556 0
h -2486 7655 9357 9358 9359 9360 0
h 2486 -7655 0
h 2486 -9357 0
h 2486 -9358 0
h 2486 -9359 0
h 2486 -9360 0
h 9361 -7657 -8524 0
h -9361 7657 0
h -9361 8524 0
h 9362 -8551 -8524 0
h -9362 8551 0
h -9362 8524 0
h 9363 -8551 -7654 0
h -9363 8551 0
h -9363 7654 0
h 9364 -7657 -7654 -8556 0
h -9364 7657 0
h -9364 7654 0
h -9364 8556 0
h -2345 7658 9361 9362 9363 9364 0
h 2345 -7658 0
h 2345 -9361 0
h 2345 -9362 0
h 2345 -9363 0
h 2345 -9364 0
h 9365 -7648 -8561 0
h -9365 7648 0
h -9365 8561 0
h 9366 -8526 -8561 0
h -9366 8526 0
h -9366 8561 0
h 9367 -8526 -7660 0
h -9367 8526 0
h -9367 7660 0
h 9368 -7648 -7660 -8556 0
h -9368 7648 0
h -9368 7660 0
h -9368 8556 0
h -2475 7661 9365 9366 9367 9368 0
h 2475 -7661 0
h 2475 -9365 0
h 2475 -9366 0
h 2475 -9367 0
h 2475 -9368 0
h 9369 -7648 -8566 0
h -9369 7648 0
h -9369 8566 0
h 9370 -8526 -7663 0
h -9370 8526 0
h -9370 7663 0
h 9371 -8526 -8566 0
h -9371 8526 0
h -9371 8566 0
h 9372 -7648 -7663 -8556 0
h -9372 7648 0
h -9372 7663 0
h -9372 8556 0
h -2480 7664 9369 9370 9371 9372 0
h 2480 -7664 0
h 2480 -9369 0
h 2480 -9370 0
h 2480 -9371 0
h 2480 -9372 0
h 9373 -7657 -8566 0
h -9373 7657 0
h -9373 8566 0
h 9374 -8551 -8566 0
h -9374 8551 0
h -9374 8566 0
h 9375 -8551 -7663 0
h -9375 8551 0
h -9375 7663 0
h 9376 -7657 -7663 -8556 0
h -9376 7657 0
h -9376 7663 0
h -9376 8556 0
h -2342 7666 9373 9374 9375 9376 0
h 2342 -7666 0
h 2342 -9373 0
h 2342 -9374 0
h 2342 -9375 0
h 2342 -9376 0
h 9377 -7651 -8551 0
h -9377 7651 0
h -9377 8551 0
h 9378 -8521 -7657 0
h -9378 8521 0
h -9378 7657 0
h 9379 -8521 -8551 0
h -9379 8521 0
h -9379 8551 0
h 9380 -7651 -7657 -8556 0
h -9380 7651 0
h -9380 7657 0
h -9380 8556 0
h -2335 7668 9377 9378 9379 9380 0
h 2335 -7668 0
h 2335 -9377 0
h 2335 -9378 0
h 2335 -9379 0
h 2335 -9380 0
h 9381 -7651 -8521 0
h -9381 7651 0
h -9381 8521 0
h 8553 -8521 -8521 0
h -8553 8521 0
h -8553 8521 0
h 9382 -8521 -7651 0
h -9382 8521 0
h -9382 7651 0
h 9383 -7651 -7651 -8556 0
h -9383 7651 0
h -9383 7651 0
h -9383 8556 0
h -2337 7670 9381 8553 9382 9383 0
h 2337 -7670 0
h 2337 -9381 0
h 2337 -8553 0
h 2337 -9382 0
h 2337 -9383 0
h 9384 -7651 -8561 0
h -9384 7651 0
h -9384 8561 0
h 9385 -8521 -8561 0
h -9385 8521 0
h -9385 8561 0
h 9386 -8521 -7660 0
h -9386 8521 0
h -9386 7660 0
h 9387 -7651 -7660 -8556 0
h -9387 7651 0
h -9387 7660 0
h -9387 8556 0
h -2340 7672 9384 9385 9386 9387 0
h 2340 -7672 0
h 2340 -9384 0
h 2340 -9385 0
h 2340 -9386 0
h 2340 -9387 0
h 9388 -7651 -8566 0
h -9388 7651 0
h -9388 8566 0
h 9389 -8521 -7663 0
h -9389 8521 0
h -9389 7663 0
h 9390 -8521 -8566 0
h -9390 8521 0
h -9390 8566 0
h 9391 -7651 -7663 -8556 0
h -9391 7651 0
h -9391 7663 0
h -9391 8556 0
h -2343 7674 9388 9389 9390 9391 0
h 2343 -7674 0
h 2343 -9388 0
h 2343 -9389 0
h 2343 -9390 0
h 2343 -9391 0
h 9392 -7654 -8566 0
h -9392 7654 0
h -9392 8566 0
h 9393 -8524 -8566 0
h -9393 8524 0
h -9393 8566 0
h 9394 -8524 -7663 0
h -9394 8524 0
h -9394 7663 0
h 9395 -7654 -7663 -8556 0
h -9395 7654 0
h -9395 7663 0
h -9395 8556 0
h -2346 7676 9392 9393 9394 9395 0
h 2346 -7676 0
h 2346 -9392 0
h 2346 -9393 0
h 2346 -9394 0
h 2346 -9395 0
h 9396 -7660 -8551 0
h -9396 7660 0
h -9396 8551 0
h 9397 -8561 -7657 0
h -9397 8561 0
h -9397 7657 0
h 9398 -8561 -8551 0
h -9398 8561 0
h -9398 8551 0
h 9399 -7660 -7657 -8556 0
h -9399 7660 0
h -9399 7657 0
h -9399 8556 0
h -2339 7678 9396 9397 9398 9399 0
h 2339 -7678 0
h 2339 -9396 0
h 2339 -9397 0
h 2339 -9398 0
h 2339 -9399 0
h 9400 -7660 -8524 0
h -9400 7660 0
h -9400 8524 0
h 9401 -8561 -7654 0
h -9401 8561 0
h -9401 7654 0
h 9402 -8561 -8524 0
h -9402 8561 0
h -9402 8524 0
h 9403 -7660 -7654 -8556 0
h -9403 7660 0
h -9403 7654 0
h -9403 8556 0
h -2348 7680 9400 9401 9402 9403 0
h 2348 -7680 0
h 2348 -9400 0
h 2348 -9401 0
h 2348 -9402 0
h 2348 -9403 0
h 9404 -7660 -8561 0
h -9404 7660 0
h -9404 8561 0
h 9405 -8561 -8561 0
h -9405 8561 0
h -9405 8561 0
h 9406 -8561 -7660 0
h -9406 8561 0
h -9406 7660 0
h 9407 -7660 -7660 -8556 0
h -9407 7660 0
h -9407 7660 0
h -9407 8556 0
h -2351 7682 9404 9405 9406 9407 0
h 2351 -7682 0
h 2351 -9404 0
h 2351 -9405 0
h 2351 -9406 0
h 2351 -9407 0
h 9408 -6579 -6579 0
h -9408 6579 0
h -9408 6579 0
h -1963 6585 9408 0
h 1963 -6585 0
h 1963 -9408 0
h 9409 -6579 -6590 0
h -9409 6579 0
h -9409 6590 0
h -1959 6592 9409 0
h 1959 -6592 0
h 1959 -9409 0
h 9410 -6579 -6596 0
h -9410 6579 0
h -9410 6596 0
h -1983 6599 9410 0
h 1983 -6599 0
h 1983 -9410 0
h 9411 -6601 -6596 0
h -9411 6601 0
h -9411 6596 0
h -1981 6606 9411 0
h 1981 -6606 0
h 1981 -9411 0
h 9412 -6579 -6611 0
h -9412 6579 0
h -9412 6611 0
h -1967 6613 9412 0
h 1967 -6613 0
h 1967 -9412 0
h 9413 -6579 -6617 0
h -9413 6579 0
h -9413 6617 0
h -1974 6620 9413 0
h 1974 -6620 0
h 1974 -9413 0
h 9414 -6601 -6617 0
h -9414 6601 0
h -9414 6617 0
h -1976 6625 9414 0
h 1976 -6625 0
h 1976 -9414 0
h 9415 -6590 -6601 0
h -9415 6590 0
h -9415 6601 0
h -1958 6630 9415 0
h 1958 -6630 0
h 1958 -9415 0
h 9416 -6590 -6590 0
h -9416 6590 0
h -9416 6590 0
h -1965 6635 9416 0
h 1965 -6635 0
h 1965 -9416 0
h 9417 -6590 -6611 0
h -9417 6590 0
h -9417 6611 0
h -1972 6640 9417 0
h 1972 -6640 0
h 1972 -9417 0
h 9418 -6590 -6617 0
h -9418 6590 0
h -9418 6617 0
h -1979 6645 9418 0
h 1979 -6645 0
h 1979 -9418 0
h 9419 -6596 -6617 0
h -9419 6596 0
h -9419 6617 0
h -1986 6650 9419 0
h 1986 -6650 0
h 1986 -9419 0
h 9420 -6611 -6601 0
h -9420 6611 0
h -9420 6601 0
h -1970 6655 9420 0
h 1970 -6655 0
h 1970 -9420 0
h 9421 -6611 -6596 0
h -9421 6611 0
h -9421 6596 0
h -1991 6660 9421 0
h 1991 -6660 0
h 1991 -9421 0
h 9422 -6611 -6611 0
h -9422 6611 0
h -9422 6611 0
h -1997 6665 9422 0
h 1997 -6665 0
h 1997 -9422 0
h 9423 -8326 -8326 0
h -9423 8326 0
h -9423 8326 0
h -1369 8332 9423 0
h 1369 -8332 0
h 1369 -9423 0
h 9424 -8326 -8337 0
h -9424 8326 0
h -9424 8337 0
h -1365 8339 9424 0
h 1365 -8339 0
h 1365 -9424 0
h 9425 -8326 -8343 0
h -9425 8326 0
h -9425 8343 0
h -1389 8346 9425 0
h 1389 -8346 0
h 1389 -9425 0
h 9426 -8348 -8343 0
h -9426 8348 0
h -9426 8343 0
h -1387 8353 9426 0
h 1387 -8353 0
h 1387 -9426 0
h 9427 -8326 -8358 0
h -9427 8326 0
h -9427 8358 0
h -1373 8360 9427 0
h 1373 -8360 0
h 1373 -9427 0
h 9428 -8326 -8364 0
h -9428 8326 0
h -9428 8364 0
h -1380 8367 9428 0
h 1380 -8367 0
h 1380 -9428 0
h 9429 -8348 -8364 0
h -9429 8348 0
h -9429 8364 0
h -1382 8372 9429 0
h 1382 -8372 0
h 1382 -9429 0
h 9430 -8337 -8348 0
h -9430 8337 0
h -9430 8348 0
h -1364 8377 9430 0
h 1364 -8377 0
h 1364 -9430 0
h 9431 -8337 -8337 0
h -9431 8337 0
h -9431 8337 0
h -1371 8382 9431 0
h 1371 -8382 0
h 1371 -9431 0
h 9432 -8337 -8358 0
h -9432 8337 0
h -9432 8358 0
h -1378 8387 9432 0
h 1378 -8387 0
h 1378 -9432 0
h 9433 -8337 -8364 0
h -9433 8337 0
h -9433 8364 0
h -1385 8392 9433 0
h 1385 -8392 0
h 1385 -9433 0
h 9434 -8343 -8364 0
h -9434 8343 0
h -9434 8364 0
h -1392 8397 9434 0
h 1392 -8397 0
h 1392 -9434 0
h 9435 -8358 -8348 0
h -9435 8358 0
h -9435 8348 0
h -1376 8402 9435 0
h 1376 -8402 0
h 1376 -9435 0
h 9436 -8358 -8343 0
h -9436 8358 0
h -9436 8343 0
h -1397 8407 9436 0
h 1397 -8407 0
h 1397 -9436 0
h 9437 -8358 -8358 0
h -9437 8358 0
h -9437 8358 0
h -1403 8412 9437 0
h 1403 -8412 0
h 1403 -9437 0
h 9438 -7018 -9087 0
h -9438 7018 0
h -9438 9087 0
h 9439 -9087 -9087 0
h -9439 9087 0
h -9439 9087 0
h 9440 -9087 -7018 0
h -9440 9087 0
h -9440 7018 0
h 9441 -7018 -7018 -9117 0
h -9441 7018 0
h -9441 7018 0
h -9441 9117 0
h -3528 7019 9438 9439 9440 9441 0
h 3528 -7019 0
h 3528 -9438 0
h 3528 -9439 0
h 3528 -9440 0
h 3528 -9441 0
h 9442 -7018 -9082 0
h -9442 7018 0
h -9442 9082 0
h 9443 -9087 -9082 0
h -9443 9087 0
h -9443 9082 0
h 9444 -9087 -7021 0
h -9444 9087 0
h -9444 7021 0
h 9445 -7018 -7021 -9117 0
h -9445 7018 0
h -9445 7021 0
h -9445 9117 0
h -3524 7022 9442 9443 9444 9445 0
h 3524 -7022 0
h 3524 -9442 0
h 3524 -9443 0
h 3524 -9444 0
h 3524 -9445 0
h 9446 -7018 -9085 0
h -9446 7018 0
h -9446 9085 0
h 9447 -9087 -7024 0
h -9447 9087 0
h -9447 7024 0
h 9448 -9087 -9085 0
h -9448 9087 0
h -9448 9085 0
h 9449 -7018 -7024 -9117 0
h -9449 7018 0
h -9449 7024 0
h -9449 9117 0
h -3548 7025 9446 9447 9448 9449 0
h 3548 -7025 0
h 3548 -9446 0
h 3548 -9447 0
h 3548 -9448 0
h 3548 -9449 0
h 9450 -7027 -9085 0
h -9450 7027 0
h -9450 9085 0
h 9451 -9112 -9085 0
h -9451 9112 0
h -9451 9085 0
h 9452 -9112 -7024 0
h -9452 9112 0
h -9452 7024 0
h 9453 -7027 -7024 -9117 0
h -9453 7027 0
h -9453 7024 0
h -9453 9117 0
h -3546 7028 9450 9451 9452 9453 0
h 3546 -7028 0
h 3546 -9450 0
h 3546 -9451 0
h 3546 -9452 0
h 3546 -9453 0
h 9454 -7018 -9122 0
h -9454 7018 0
h -9454 9122 0
h 9455 -9087 -9122 0
h -9455 9087 0
h -9455 9122 0
h 9456 -9087 -7030 0
h -9456 9087 0
h -9456 7030 0
h 9457 -7018 -7030 -9117 0
h -9457 7018 0
h -9457 7030 0
h -9457 9117 0
h -3532 7031 9454 9455 9456 9457 0
h 3532 -7031 0
h 3532 -9454 0
h 3532 -9455 0
h 3532 -9456 0
h 3532 -9457 0
h 9458 -7018 -9127 0
h -9458 7018 0
h -9458 9127 0
h 9459 -9087 -7033 0
h -9459 9087 0
h -9459 7033 0
h 9460 -9087 -9127 0
h -9460 9087 0
h -9460 9127 0
h 9461 -7018 -7033 -9117 0
h -9461 7018 0
h -9461 7033 0
h -9461 9117 0
h -3539 7034 9458 9459 9460 9461 0
h 3539 -7034 0
h 3539 -9458 0
h 3539 -9459 0
h 3539 -9460 0
h 3539 -9461 0
h 9462 -7027 -9127 0
h -9462 7027 0
h -9462 9127 0
h 9463 -9112 -9127 0
h -9463 9112 0
h -9463 9127 0
h 9464 -9112 -7033 0
h -9464 9112 0
h -9464 7033 0
h 9465 -7027 -7033 -9117 0
h -9465 7027 0
h -9465 7033 0
h -9465 9117 0
h -3541 7036 9462 9463 9464 9465 0
h 3541 -7036 0
h 3541 -9462 0
h 3541 -9463 0
h 3541 -9464 0
h 3541 -9465 0
h 9466 -7021 -9112 0
h -9466 7021 0
h -9466 9112 0
h 9467 -9082 -7027 0
h -9467 9082 0
h -9467 7027 0
h 9468 -9082 -9112 0
h -9468 9082 0
h -9468 9112 0
h 9469 -7021 -7027 -9117 0
h -9469 7021 0
h -9469 7027 0
h -9469 9117 0
h -3523 7038 9466 9467 9468 9469 0
h 3523 -7038 0
h 3523 -9466 0
h 3523 -9467 0
h 3523 -9468 0
h 3523 -9469 0
h 9470 -7021 -9082 0
h -9470 7021 0
h -9470 9082 0
h 9114 -9082 -9082 0
h -9114 9082 0
h -9114 9082 0
h 9471 -9082 -7021 0
h -9471 9082 0
h -9471 7021 0
h 9472 -7021 -7021 -9117 0
h -9472 7021 0
h -9472 7021 0
h -9472 9117 0
h -3530 7040 9470 9114 9471 9472 0
h 3530 -7040 0
h 3530 -9470 0
h 3530 -9114 0
h 3530 -9471 0
h 3530 -9472 0
h 9473 -7021 -9122 0
h -9473 7021 0
h -9473 9122 0
h 9474 -9082 -9122 0
h -9474 9082 0
h -9474 9122 0
h 9475 -9082 -7030 0
h -9475 9082 0
h -9475 7030 0
h 9476 -7021 -7030 -9117 0
h -9476 7021 0
h -9476 7030 0
h -9476 9117 0
h -3537 7042 9473 9474 9475 9476 0
h 3537 -7042 0
h 3537 -9473 0
h 3537 -9474 0
h 3537 -9475 0
h 3537 -9476 0
h 9477 -7021 -9127 0
h -9477 7021 0
h -9477 9127 0
h 9478 -9082 -7033 0
h -9478 9082 0
h -9478 7033 0
h 9479 -9082 -9127 0
h -9479 9082 0
h -9479 9127 0
h 9480 -7021 -7033 -9117 0
h -9480 7021 0
h -9480 7033 0
h -9480 9117 0
h -3544 7044 9477 9478 9479 9480 0
h 3544 -7044 0
h 3544 -9477 0
h 3544 -9478 0
h 3544 -9479 0
h 3544 -9480 0
h 9481 -7024 -9127 0
h -9481 7024 0
h -9481 9127 0
h 9482 -9085 -9127 0
h -9482 9085 0
h -9482 9127 0
h 9483 -9085 -7033 0
h -9483 9085 0
h -9483 7033 0
h 9484 -7024 -7033 -9117 0
h -9484 7024 0
h -9484 7033 0
h -9484 9117 0
h -3551 7046 9481 9482 9483 9484 0
h 3551 -7046 0
h 3551 -9481 0
h 3551 -9482 0
h 3551 -9483 0
h 3551 -9484 0
h 9485 -7030 -9112 0
h -9485 7030 0
h -9485 9112 0
h 9486 -9122 -7027 0
h -9486 9122 0
h -9486 7027 0
h 9487 -9122 -9112 0
h -9487 9122 0
h -9487 9112 0
h 9488 -7030 -7027 -9117 0
h -9488 7030 0
h -9488 7027 0
h -9488 9117 0
h -3535 7048 9485 9486 9487 9488 0
h 3535 -7048 0
h 3535 -9485 0
h 3535 -9486 0
h 3535 -9487 0
h 3535 -9488 0
h 9489 -7030 -9085 0
h -9489 7030 0
h -9489 9085 0
h 9490 -9122 -7024 0
h -9490 9122 0
h -9490 7024 0
h 9491 -9122 -9085 0
h -9491 9122 0
h -9491 9085 0
h 9492 -7030 -7024 -9117 0
h -9492 7030 0
h -9492 7024 0
h -9492 9117 0
h -3556 7050 9489 9490 9491 9492 0
h 3556 -7050 0
h 3556 -9489 0
h 3556 -9490 0
h 3556 -9491 0
h 3556 -9492 0
h 9493 -7030 -9122 0
h -9493 7030 0
h -9493 9122 0
h 9494 -9122 -9122 0
h -9494 9122 0
h -9494 9122 0
h 9495 -9122 -7030 0
h -9495 9122 0
h -9495 7030 0
h 9496 -7030 -7030 -9117 0
h -9496 7030 0
h -9496 7030 0
h -9496 9117 0
h -3562 7052 9493 9494 9495 9496 0
h 3562 -7052 0
h 3562 -9493 0
h 3562 -9494 0
h 3562 -9495 0
h 3562 -9496 0
h 9497 -7421 -7421 0
h -9497 7421 0
h -9497 7421 0
h -5583 7427 9497 0
h 5583 -7427 0
h 5583 -9497 0
h 9498 -7421 -7432 0
h -9498 7421 0
h -9498 7432 0
h -5579 7434 9498 0
h 5579 -7434 0
h 5579 -9498 0
h 9499 -7421 -7438 0
h -9499 7421 0
h -9499 7438 0
h -5597 7441 9499 0
h 5597 -7441 0
h 5597 -9499 0
h 9500 -7443 -7438 0
h -9500 7443 0
h -9500 7438 0
h -4390 7448 9500 0
h 4390 -7448 0
h 4390 -9500 0
h 9501 -7421 -7453 0
h -9501 7421 0
h -9501 7453 0
h -5586 7455 9501 0
h 5586 -7455 0
h 5586 -9501 0
h 9502 -7421 -7459 0
h -9502 7421 0
h -9502 7459 0
h -5591 7462 9502 0
h 5591 -7462 0
h 5591 -9502 0
h 9503 -7443 -7459 0
h -9503 7443 0
h -9503 7459 0
h -4387 7467 9503 0
h 4387 -7467 0
h 4387 -9503 0
h 9504 -7432 -7443 0
h -9504 7432 0
h -9504 7443 0
h -4380 7472 9504 0
h 4380 -7472 0
h 4380 -9504 0
h 9505 -7432 -7432 0
h -9505 7432 0
h -9505 7432 0
h -4382 7477 9505 0
h 4382 -7477 0
h 4382 -9505 0
h 9506 -7432 -7453 0
h -9506 7432 0
h -9506 7453 0
h -4385 7482 9506 0
h 4385 -7482 0
h 4385 -9506 0
h 9507 -7432 -7459 0
h -9507 7432 0
h -9507 7459 0
h -4388 7487 9507 0
h 4388 -7487 0
h 4388 -9507 0
h 9508 -7438 -7459 0
h -9508 7438 0
h -9508 7459 0
h -4391 7492 9508 0
h 4391 -7492 0
h 4391 -9508 0
h 9509 -7453 -7443 0
h -9509 7453 0
h -9509 7443 0
h -4384 7497 9509 0
h 4384 -7497 0
h 4384 -9509 0
h 9510 -7453 -7438 0
h -9510 7453 0
h -9510 7438 0
h -4393 7502 9510 0
h 4393 -7502 0
h 4393 -9510 0
h 9511 -7453 -7453 0
h -9511 7453 0
h -9511 7453 0
h -4396 7507 9511 0
h 4396 -7507 0
h 4396 -9511 0
h 9512 -7743 -7743 0
h -9512 7743 0
h -9512 7743 0
h -6142 7749 9512 0
h 6142 -7749 0
h 6142 -9512 0
h 9513 -7743 -7754 0
h -9513 7743 0
h -9513 7754 0
h -6138 7756 9513 0
h 6138 -7756 0
h 6138 -9513 0
h 9514 -7743 -7760 0
h -9514 7743 0
h -9514 7760 0
h -6156 7763 9514 0
h 6156 -7763 0
h 6156 -9514 0
h 9515 -7765 -7760 0
h -9515 7765 0
h -9515 7760 0
h -3026 7770 9515 0
h 3026 -7770 0
h 3026 -9515 0
h 9516 -7743 -7775 0
h -9516 7743 0
h -9516 7775 0
h -6145 7777 9516 0
h 6145 -7777 0
h 6145 -9516 0
h 9517 -7743 -7781 0
h -9517 7743 0
h -9517 7781 0
h -6150 7784 9517 0
h 6150 -7784 0
h 6150 -9517 0
h 9518 -7765 -7781 0
h -9518 7765 0
h -9518 7781 0
h -3023 7789 9518 0
h 3023 -7789 0
h 3023 -9518 0
h 9519 -7754 -7765 0
h -9519 7754 0
h -9519 7765 0
h -3016 7794 9519 0
h 3016 -7794 0
h 3016 -9519 0
h 9520 -7754 -7754 0
h -9520 7754 0
h -9520 7754 0
h -3018 7799 9520 0
h 3018 -7799 0
h 3018 -9520 0
h 9521 -7754 -7775 0
h -9521 7754 0
h -9521 7775 0
h -3021 7804 9521 0
h 3021 -7804 0
h 3021 -9521 0
h 9522 -7754 -7781 0
h -9522 7754 0
h -9522 7781 0
h -3024 7809 9522 0
h 3024 -7809 0
h 3024 -9522 0
h 9523 -7760 -7781 0
h -9523 7760 0
h -9523 7781 0
h -3027 7814 9523 0
h 3027 -7814 0
h 3027 -9523 0
h 9524 -7775 -7765 0
h -9524 7775 0
h -9524 7765 0
h -3020 7819 9524 0
h 3020 -7819 0
h 3020 -9524 0
h 9525 -7775 -7760 0
h -9525 7775 0
h -9525 7760 0
h -3029 7824 9525 0
h 3029 -7824 0
h 3029 -9525 0
h 9526 -7775 -7775 0
h -9526 7775 0
h -9526 7775 0
h -3032 7829 9526 0
h 3032 -7829 0
h 3032 -9526 0
h 9527 -7142 -7142 0
h -9527 7142 0
h -9527 7142 0
h -1528 7148 9527 0
h 1528 -7148 0
h 1528 -9527 0
h 9528 -7142 -7153 0
h -9528 7142 0
h -9528 7153 0
h -1524 7155 9528 0
h 1524 -7155 0
h 1524 -9528 0
h 9529 -7142 -7159 0
h -9529 7142 0
h -9529 7159 0
h -1548 7162 9529 0
h 1548 -7162 0
h 1548 -9529 0
h 9530 -7164 -7159 0
h -9530 7164 0
h -9530 7159 0
h -1546 7169 9530 0
h 1546 -7169 0
h 1546 -9530 0
h 9531 -7142 -7174 0
h -9531 7142 0
h -9531 7174 0
h -1532 7176 9531 0
h 1532 -7176 0
h 1532 -9531 0
h 9532 -7142 -7180 0
h -9532 7142 0
h -9532 7180 0
h -1539 7183 9532 0
h 1539 -7183 0
h 1539 -9532 0
h 9533 -7164 -7180 0
h -9533 7164 0
h -9533 7180 0
h -1541 7188 9533 0
h 1541 -7188 0
h 1541 -9533 0
h 9534 -7153 -7164 0
h -9534 7153 0
h -9534 7164 0
h -1523 7193 9534 0
h 1523 -7193 0
h 1523 -9534 0
h 9535 -7153 -7153 0
h -9535 7153 0
h -9535 7153 0
h -1530 7198 9535 0
h 1530 -7198 0
h 1530 -9535 0
h 9536 -7153 -7174 0
h -9536 7153 0
h -9536 7174 0
h -1537 7203 9536 0
h 1537 -7203 0
h 1537 -9536 0
h 9537 -7153 -7180 0
h -9537 7153 0
h -9537 7180 0
h -1544 7208 9537 0
h 1544 -7208 0
h 1544 -9537 0
h 9538 -7159 -7180 0
h -9538 7159 0
h -9538 7180 0
h -1551 7213 9538 0
h 1551 -7213 0
h 1551 -9538 0
h 9539 -7174 -7164 0
h -9539 7174 0
h -9539 7164 0
h -1535 7218 9539 0
h 1535 -7218 0
h 1535 -9539 0
h 9540 -7174 -7159 0
h -9540 7174 0
h -9540 7159 0
h -1556 7223 9540 0
h 1556 -7223 0
h 1556 -9540 0
h 9541 -7174 -7174 0
h -9541 7174 0
h -9541 7174 0
h -1562 7228 9541 0
h 1562 -7228 0
h 1562 -9541 0
h 9542 -6755 -6755 0
h -9542 6755 0
h -9542 6755 0
h -3744 6761 9542 0
h 3744 -6761 0
h 3744 -9542 0
h 9543 -6755 -6766 0
h -9543 6755 0
h -9543 6766 0
h -3740 6768 9543 0
h 3740 -6768 0
h 3740 -9543 0
h 9544 -6755 -6772 0
h -9544 6755 0
h -9544 6772 0
h -3764 6775 9544 0
h 3764 -6775 0
h 3764 -9544 0
h 9545 -6777 -6772 0
h -9545 6777 0
h -9545 6772 0
h -3762 6782 9545 0
h 3762 -6782 0
h 3762 -9545 0
h 9546 -6755 -6787 0
h -9546 6755 0
h -9546 6787 0
h -3748 6789 9546 0
h 3748 -6789 0
h 3748 -9546 0
h 9547 -6755 -6793 0
h -9547 6755 0
h -9547 6793 0
h -3755 6796 9547 0
h 3755 -6796 0
h 3755 -9547 0
h 9548 -6777 -6793 0
h -9548 6777 0
h -9548 6793 0
h -3757 6801 9548 0
h 3757 -6801 0
h 3757 -9548 0
h 9549 -6766 -6777 0
h -9549 6766 0
h -9549 6777 0
h -3739 6806 9549 0
h 3739 -6806 0
h 3739 -9549 0
h 9550 -6766 -6766 0
h -9550 6766 0
h -9550 6766 0
h -3746 6811 9550 0
h 3746 -6811 0
h 3746 -9550 0
h 9551 -6766 -6787 0
h -9551 6766 0
h -9551 6787 0
h -3753 6816 9551 0
h 3753 -6816 0
h 3753 -9551 0
h 9552 -6766 -6793 0
h -9552 6766 0
h -9552 6793 0
h -3760 6821 9552 0
h 3760 -6821 0
h 3760 -9552 0
h 9553 -6772 -6793 0
h -9553 6772 0
h -9553 6793 0
h -3767 6826 9553 0
h 3767 -6826 0
h 3767 -9553 0
h 9554 -6787 -6777 0
h -9554 6787 0
h -9554 6777 0
h -3751 6831 9554 0
h 3751 -6831 0
h 3751 -9554 0
h 9555 -6787 -6772 0
h -9555 6787 0
h -9555 6772 0
h -3772 6836 9555 0
h 3772 -6836 0
h 3772 -9555 0
h 9556 -6787 -6787 0
h -9556 6787 0
h -9556 6787 0
h -3778 6841 9556 0
h 3778 -6841 0
h 3778 -9556 0
h 9557 -6550 -6550 0
h -9557 6550 0
h -9557 6550 0
h -2171 6544 9557 0
h 2171 -6544 0
h 2171 -9557 0
h 9558 -6550 -8107 0
h -9558 6550 0
h -9558 8107 0
h -3224 8096 9558 0
h 3224 -8096 0
h 3224 -9558 0
h 9559 -6550 -6549 0
h -9559 6550 0
h -9559 6549 0
h -2169 6543 9559 0
h 2169 -6543 0
h 2169 -9559 0
h 9560 -6553 -6549 0
h -9560 6553 0
h -9560 6549 0
h -2009 6552 9560 0
h 2009 -6552 0
h 2009 -9560 0
h 9561 -6550 -6575 0
h -9561 6550 0
h -9561 6575 0
h -2173 6556 9561 0
h 2173 -6556 0
h 2173 -9561 0
h 9562 -6550 -6571 0
h -9562 6550 0
h -9562 6571 0
h -2175 6559 9562 0
h 2175 -6559 0
h 2175 -9562 0
h 9563 -6553 -6571 0
h -9563 6553 0
h -9563 6571 0
h -2006 6561 9563 0
h 2006 -6561 0
h 2006 -9563 0
h 9564 -8107 -6553 0
h -9564 8107 0
h -9564 6553 0
h -1999 8113 9564 0
h 1999 -8113 0
h 1999 -9564 0
h 9565 -8107 -8107 0
h -9565 8107 0
h -9565 8107 0
h -2001 8100 9565 0
h 2001 -8100 0
h 2001 -9565 0
h 9566 -8107 -6575 0
h -9566 8107 0
h -9566 6575 0
h -2004 8117 9566 0
h 2004 -8117 0
h 2004 -9566 0
h 9567 -8107 -6571 0
h -9567 8107 0
h -9567 6571 0
h -2007 8122 9567 0
h 2007 -8122 0
h 2007 -9567 0
h 9568 -6549 -6571 0
h -9568 6549 0
h -9568 6571 0
h -2010 6558 9568 0
h 2010 -6558 0
h 2010 -9568 0
h 9569 -6575 -6553 0
h -9569 6575 0
h -9569 6553 0
h -2003 6573 9569 0
h 2003 -6573 0
h 2003 -9569 0
h 9570 -6575 -6549 0
h -9570 6575 0
h -9570 6549 0
h -2012 6555 9570 0
h 2012 -6555 0
h 2012 -9570 0
h 9571 -6575 -6575 0
h -9571 6575 0
h -9571 6575 0
h -2015 6577 9571 0
h 2015 -6577 0
h 2015 -9571 0
h 9572 -7025 -7025 0
h -9572 7025 0
h -9572 7025 0
h -2040 7019 9572 0
h 2040 -7019 0
h 2040 -9572 0
h 9573 -7025 -9085 0
h -9573 7025 0
h -9573 9085 0
h -2036 9087 9573 0
h 2036 -9087 0
h 2036 -9573 0
h 9574 -7025 -7024 0
h -9574 7025 0
h -9574 7024 0
h -2060 7018 9574 0
h 2060 -7018 0
h 2060 -9574 0
h 9575 -7028 -7024 0
h -9575 7028 0
h -9575 7024 0
h -2058 7027 9575 0
h 2058 -7027 0
h 2058 -9575 0
h 9576 -7025 -7050 0
h -9576 7025 0
h -9576 7050 0
h -2044 7031 9576 0
h 2044 -7031 0
h 2044 -9576 0
h 9577 -7025 -7046 0
h -9577 7025 0
h -9577 7046 0
h -2051 7034 9577 0
h 2051 -7034 0
h 2051 -9577 0
h 9578 -7028 -7046 0
h -9578 7028 0
h -9578 7046 0
h -2053 7036 9578 0
h 2053 -7036 0
h 2053 -9578 0
h 9579 -9085 -7028 0
h -9579 9085 0
h -9579 7028 0
h -2035 9112 9579 0
h 2035 -9112 0
h 2035 -9579 0
h 9580 -9085 -9085 0
h -9580 9085 0
h -9580 9085 0
h -2042 9117 9580 0
h 2042 -9117 0
h 2042 -9580 0
h 9581 -9085 -7050 0
h -9581 9085 0
h -9581 7050 0
h -2049 9122 9581 0
h 2049 -9122 0
h 2049 -9581 0
h 9582 -9085 -7046 0
h -9582 9085 0
h -9582 7046 0
h -2056 9127 9582 0
h 2056 -9127 0
h 2056 -9582 0
h 9583 -7024 -7046 0
h -9583 7024 0
h -9583 7046 0
h -2063 7033 9583 0
h 2063 -7033 0
h 2063 -9583 0
h 9584 -7050 -7028 0
h -9584 7050 0
h -9584 7028 0
h -2047 7048 9584 0
h 2047 -7048 0
h 2047 -9584 0
h 9585 -7050 -7024 0
h -9585 7050 0
h -9585 7024 0
h -2068 7030 9585 0
h 2068 -7030 0
h 2068 -9585 0
h 9586 -7050 -7050 0
h -9586 7050 0
h -9586 7050 0
h -2074 7052 9586 0
h 2074 -7052 0
h 2074 -9586 0
h 9587 -7655 -7655 0
h -9587 7655 0
h -9587 7655 0
h -6029 7649 9587 0
h 6029 -7649 0
h 6029 -9587 0
h 9588 -7655 -8524 0
h -9588 7655 0
h -9588 8524 0
h -6025 8526 9588 0
h 6025 -8526 0
h 6025 -9588 0
h 9589 -7655 -7654 0
h -9589 7655 0
h -9589 7654 0
h -6049 7648 9589 0
h 6049 -7648 0
h 6049 -9589 0
h 9590 -7658 -7654 0
h -9590 7658 0
h -9590 7654 0
h -6047 7657 9590 0
h 6047 -7657 0
h 6047 -9590 0
h 9591 -7655 -7680 0
h -9591 7655 0
h -9591 7680 0
h -6033 7661 9591 0
h 6033 -7661 0
h 6033 -9591 0
h 9592 -7655 -7676 0
h -9592 7655 0
h -9592 7676 0
h -6040 7664 9592 0
h 6040 -7664 0
h 6040 -9592 0
h 9593 -7658 -7676 0
h -9593 7658 0
h -9593 7676 0
h -6042 7666 9593 0
h 6042 -7666 0
h 6042 -9593 0
h 9594 -8524 -7658 0
h -9594 8524 0
h -9594 7658 0
h -6024 8551 9594 0
h 6024 -8551 0
h 6024 -9594 0
h 9595 -8524 -8524 0
h -9595 8524 0
h -9595 8524 0
h -6031 8556 9595 0
h 6031 -8556 0
h 6031 -9595 0
h 9596 -8524 -7680 0
h -9596 8524 0
h -9596 7680 0
h -6038 8561 9596 0
h 6038 -8561 0
h 6038 -9596 0
h 9597 -8524 -7676 0
h -9597 8524 0
h -9597 7676 0
h -6045 8566 9597 0
h 6045 -8566 0
h 6045 -9597 0
h 9598 -7654 -7676 0
h -9598 7654 0
h -9598 7676 0
h -6052 7663 9598 0
h 6052 -7663 0
h 6052 -9598 0
h 9599 -7680 -7658 0
h -9599 7680 0
h -9599 7658 0
h -6036 7678 9599 0
h 6036 -7678 0
h 6036 -9599 0
h 9600 -7680 -7654 0
h -9600 7680 0
h -9600 7654 0
h -6057 7660 9600 0
h 6057 -7660 0
h 6057 -9600 0
h 9601 -7680 -7680 0
h -9601 7680 0
h -9601 7680 0
h -6063 7682 9601 0
h 6063 -7682 0
h 6063 -9601 0
h 9602 -7912 -7909 0
h -9602 7912 0
h -9602 7909 0
h 9603 -7909 -7909 0
h -9603 7909 0
h -9603 7909 0
h 9604 -7909 -7912 0
h -9604 7909 0
h -9604 7912 0
h 9605 -7912 -7912 -7927 0
h -9605 7912 0
h -9605 7912 0
h -9605 7927 0
h -3976 7906 9602 9603 9604 9605 0
h 3976 -7906 0
h 3976 -9602 0
h 3976 -9603 0
h 3976 -9604 0
h 3976 -9605 0
h 9606 -7912 -9607 0
h -9606 7912 0
h -9606 9607 0
h 9608 -7909 -9607 0
h -9608 7909 0
h -9608 9607 0
h 9609 -7909 -8895 0
h -9609 7909 0
h -9609 8895 0
h 9610 -7912 -8895 -7927 0
h -9610 7912 0
h -9610 8895 0
h -9610 7927 0
h -3970 8896 9606 9608 9609 9610 0
h 3970 -8896 0
h 3970 -9606 0
h 3970 -9608 0
h 3970 -9609 0
h 3970 -9610 0
h 9611 -7912 -7908 0
h -9611 7912 0
h -9611 7908 0
h 9612 -7909 -7911 0
h -9612 7909 0
h -9612 7911 0
h 9613 -7909 -7908 0
h -9613 7909 0
h -9613 7908 0
h 9614 -7912 -7911 -7927 0
h -9614 7912 0
h -9614 7911 0
h -9614 7927 0
h -3969 7905 9611 9612 9613 9614 0
h 3969 -7905 0
h 3969 -9611 0
h 3969 -9612 0
h 3969 -9613 0
h 3969 -9614 0
h 9615 -7915 -7908 0
h -9615 7915 0
h -9615 7908 0
h 9616 -7925 -7908 0
h -9616 7925 0
h -9616 7908 0
h 9617 -7925 -7911 0
h -9617 7925 0
h -9617 7911 0
h 9618 -7915 -7911 -7927 0
h -9618 7915 0
h -9618 7911 0
h -9618 7927 0
h -3992 7914 9615 9616 9617 9618 0
h 3992 -7914 0
h 3992 -9615 0
h 3992 -9616 0
h 3992 -9617 0
h 3992 -9618 0
h 9619 -7912 -7929 0
h -9619 7912 0
h -9619 7929 0
h 9620 -7909 -7929 0
h -9620 7909 0
h -9620 7929 0
h 9621 -7909 -7937 0
h -9621 7909 0
h -9621 7937 0
h 9622 -7912 -7937 -7927 0
h -9622 7912 0
h -9622 7937 0
h -9622 7927 0
h -3983 7918 9619 9620 9621 9622 0
h 3983 -7918 0
h 3983 -9619 0
h 3983 -9620 0
h 3983 -9621 0
h 3983 -9622 0
h 9623 -7912 -7931 0
h -9623 7912 0
h -9623 7931 0
h 9624 -7909 -7933 0
h -9624 7909 0
h -9624 7933 0
h 9625 -7909 -7931 0
h -9625 7909 0
h -9625 7931 0
h 9626 -7912 -7933 -7927 0
h -9626 7912 0
h -9626 7933 0
h -9626 7927 0
h -3990 7921 9623 9624 9625 9626 0
h 3990 -7921 0
h 3990 -9623 0
h 3990 -9624 0
h 3990 -9625 0
h 3990 -9626 0
h 9627 -7915 -7931 0
h -9627 7915 0
h -9627 7931 0
h 9628 -7925 -7931 0
h -9628 7925 0
h -9628 7931 0
h 9629 -7925 -7933 0
h -9629 7925 0
h -9629 7933 0
h 9630 -7915 -7933 -7927 0
h -9630 7915 0
h -9630 7933 0
h -9630 7927 0
h -3997 7923 9627 9628 9629 9630 0
h 3997 -7923 0
h 3997 -9627 0
h 3997 -9628 0
h 3997 -9629 0
h 3997 -9630 0
h 9631 -8895 -7925 0
h -9631 8895 0
h -9631 7925 0
h 9632 -9607 -7915 0
h -9632 9607 0
h -9632 7915 0
h 9633 -9607 -7925 0
h -9633 9607 0
h -9633 7925 0
h 9634 -8895 -7915 -7927 0
h -9634 8895 0
h -9634 7915 0
h -9634 7927 0
h -3994 8903 9631 9632 9633 9634 0
h 3994 -8903 0
h 3994 -9631 0
h 3994 -9632 0
h 3994 -9633 0
h 3994 -9634 0
h 9635 -8895 -9607 0
h -9635 8895 0
h -9635 9607 0
h 9636 -9607 -9607 0
h -9636 9607 0
h -9636 9607 0
h 9637 -9607 -8895 0
h -9637 9607 0
h -9637 8895 0
h 9638 -8895 -8895 -7927 0
h -9638 8895 0
h -9638 8895 0
h -9638 7927 0
h -3974 8905 9635 9636 9637 9638 0
h 3974 -8905 0
h 3974 -9635 0
h 3974 -9636 0
h 3974 -9637 0
h 3974 -9638 0
h 9639 -8895 -7929 0
h -9639 8895 0
h -9639 7929 0
h 9640 -9607 -7929 0
h -9640 9607 0
h -9640 7929 0
h 9641 -9607 -7937 0
h -9641 9607 0
h -9641 7937 0
h 9642 -8895 -7937 -7927 0
h -9642 8895 0
h -9642 7937 0
h -9642 7927 0
h -3978 8907 9639 9640 9641 9642 0
h 3978 -8907 0
h 3978 -9639 0
h 3978 -9640 0
h 3978 -9641 0
h 3978 -9642 0
h 9643 -8895 -7931 0
h -9643 8895 0
h -9643 7931 0
h 9644 -9607 -7933 0
h -9644 9607 0
h -9644 7933 0
h 9645 -9607 -7931 0
h -9645 9607 0
h -9645 7931 0
h 9646 -8895 -7933 -7927 0
h -9646 8895 0
h -9646 7933 0
h -9646 7927 0
h -3985 8909 9643 9644 9645 9646 0
h 3985 -8909 0
h 3985 -9643 0
h 3985 -9644 0
h 3985 -9645 0
h 3985 -9646 0
h 9647 -7911 -7931 0
h -9647 7911 0
h -9647 7931 0
h 9648 -7908 -7931 0
h -9648 7908 0
h -9648 7931 0
h 9649 -7908 -7933 0
h -9649 7908 0
h -9649 7933 0
h 9650 -7911 -7933 -7927 0
h -9650 7911 0
h -9650 7933 0
h -9650 7927 0
h -3987 7920 9647 9648 9649 9650 0
h 3987 -7920 0
h 3987 -9647 0
h 3987 -9648 0
h 3987 -9649 0
h 3987 -9650 0
h 9651 -7937 -7925 0
h -9651 7937 0
h -9651 7925 0
h 9652 -7929 -7915 0
h -9652 7929 0
h -9652 7915 0
h 9653 -7929 -7925 0
h -9653 7929 0
h -9653 7925 0
h 9654 -7937 -7915 -7927 0
h -9654 7937 0
h -9654 7915 0
h -9654 7927 0
h -4002 7935 9651 9652 9653 9654 0
h 4002 -7935 0
h 4002 -9651 0
h 4002 -9652 0
h 4002 -9653 0
h 4002 -9654 0
h 9655 -7937 -7908 0
h -9655 7937 0
h -9655 7908 0
h 9656 -7929 -7911 0
h -9656 7929 0
h -9656 7911 0
h 9657 -7929 -7908 0
h -9657 7929 0
h -9657 7908 0
h 9658 -7937 -7911 -7927 0
h -9658 7937 0
h -9658 7911 0
h -9658 7927 0
h -3981 7917 9655 9656 9657 9658 0
h 3981 -7917 0
h 3981 -9655 0
h 3981 -9656 0
h 3981 -9657 0
h 3981 -9658 0
h 9659 -7937 -7929 0
h -9659 7937 0
h -9659 7929 0
h 9660 -7929 -7929 0
h -9660 7929 0
h -9660 7929 0
h 9661 -7929 -7937 0
h -9661 7929 0
h -9661 7937 0
h 9662 -7937 -7937 -7927 0
h -9662 7937 0
h -9662 7937 0
h -9662 7927 0
h -4008 7939 9659 9660 9661 9662 0
h 4008 -7939 0
h 4008 -9659 0
h 4008 -9660 0
h 4008 -9661 0
h 4008 -9662 0
h 9663 -6983 -6983 0
h -9663 6983 0
h -9663 6983 0
h -2796 6968 9663 0
h 2796 -6968 0
h 2796 -9663 0
h 9664 -6983 -7990 0
h -9664 6983 0
h -9664 7990 0
h -2792 7950 9664 0
h 2792 -7950 0
h 2792 -9664 0
h 9665 -6983 -6982 0
h -9665 6983 0
h -9665 6982 0
h -2816 6967 9665 0
h 2816 -6967 0
h 2816 -9665 0
h 9666 -6985 -6982 0
h -9666 6985 0
h -9666 6982 0
h -2814 6976 9666 0
h 2814 -6976 0
h 2814 -9666 0
h 9667 -6983 -6993 0
h -9667 6983 0
h -9667 6993 0
h -2800 6971 9667 0
h 2800 -6971 0
h 2800 -9667 0
h 9668 -6983 -6995 0
h -9668 6983 0
h -9668 6995 0
h -2807 6974 9668 0
h 2807 -6974 0
h 2807 -9668 0
h 9669 -6985 -6995 0
h -9669 6985 0
h -9669 6995 0
h -2809 6977 9669 0
h 2809 -6977 0
h 2809 -9669 0
h 9670 -7990 -6985 0
h -9670 7990 0
h -9670 6985 0
h -2791 7975 9670 0
h 2791 -7975 0
h 2791 -9670 0
h 9671 -7990 -7990 0
h -9671 7990 0
h -9671 7990 0
h -2798 7980 9671 0
h 2798 -7980 0
h 2798 -9671 0
h 9672 -7990 -6993 0
h -9672 7990 0
h -9672 6993 0
h -2805 7945 9672 0
h 2805 -7945 0
h 2805 -9672 0
h 9673 -7990 -6995 0
h -9673 7990 0
h -9673 6995 0
h -2812 7948 9673 0
h 2812 -7948 0
h 2812 -9673 0
h 9674 -6982 -6995 0
h -9674 6982 0
h -9674 6995 0
h -2819 6973 9674 0
h 2819 -6973 0
h 2819 -9674 0
h 9675 -6993 -6985 0
h -9675 6993 0
h -9675 6985 0
h -2803 6987 9675 0
h 2803 -6987 0
h 2803 -9675 0
h 9676 -6993 -6982 0
h -9676 6993 0
h -9676 6982 0
h -2824 6970 9676 0
h 2824 -6970 0
h 2824 -9676 0
h 9677 -6993 -6993 0
h -9677 6993 0
h -9677 6993 0
h -2830 6989 9677 0
h 2830 -6989 0
h 2830 -9677 0
h 9678 -7544 -7544 0
h -9678 7544 0
h -9678 7544 0
h -3801 7530 9678 0
h 3801 -7530 0
h 3801 -9678 0
h 9679 -7544 -7539 0
h -9679 7544 0
h -9679 7539 0
h -3797 7525 9679 0
h 3797 -7525 0
h 3797 -9679 0
h 9680 -7544 -7541 0
h -9680 7544 0
h -9680 7541 0
h -3821 7524 9680 0
h 3821 -7524 0
h 3821 -9680 0
h 9681 -7551 -7541 0
h -9681 7551 0
h -9681 7541 0
h -3819 7546 9681 0
h 3819 -7546 0
h 3819 -9681 0
h 9682 -7544 -7605 0
h -9682 7544 0
h -9682 7605 0
h -3805 7558 9682 0
h 3805 -7558 0
h 3805 -9682 0
h 9683 -7544 -7595 0
h -9683 7544 0
h -9683 7595 0
h -3812 7565 9683 0
h 3812 -7565 0
h 3812 -9683 0
h 9684 -7551 -7595 0
h -9684 7551 0
h -9684 7595 0
h -3814 7570 9684 0
h 3814 -7570 0
h 3814 -9684 0
h 9685 -7539 -7551 0
h -9685 7539 0
h -9685 7551 0
h -3796 7548 9685 0
h 3796 -7548 0
h 3796 -9685 0
h 9686 -7539 -7539 0
h -9686 7539 0
h -9686 7539 0
h -3803 7529 9686 0
h 3803 -7529 0
h 3803 -9686 0
h 9687 -7539 -7605 0
h -9687 7539 0
h -9687 7605 0
h -3810 7553 9687 0
h 3810 -7553 0
h 3810 -9687 0
h 9688 -7539 -7595 0
h -9688 7539 0
h -9688 7595 0
h -3817 7560 9688 0
h 3817 -7560 0
h 3817 -9688 0
h 9689 -7541 -7595 0
h -9689 7541 0
h -9689 7595 0
h -3824 7562 9689 0
h 3824 -7562 0
h 3824 -9689 0
h 9690 -7605 -7551 0
h -9690 7605 0
h -9690 7551 0
h -3808 7600 9690 0
h 3808 -7600 0
h 3808 -9690 0
h 9691 -7605 -7541 0
h -9691 7605 0
h -9691 7541 0
h -3829 7556 9691 0
h 3829 -7556 0
h 3829 -9691 0
h 9692 -7605 -7605 0
h -9692 7605 0
h -9692 7605 0
h -3835 7610 9692 0
h 3835 -7610 0
h 3835 -9692 0
h 9693 -7095 -7088 0
h -9693 7095 0
h -9693 7088 0
h 9694 -7088 -7088 0
h -9694 7088 0
h -9694 7088 0
h 9695 -7088 -7095 0
h -9695 7088 0
h -9695 7095 0
h 9696 -7095 -7095 -7140 0
h -9696 7095 0
h -9696 7095 0
h -9696 7140 0
h -1584 7060 9693 9694 9695 9696 0
h 1584 -7060 0
h 1584 -9693 0
h 1584 -9694 0
h 1584 -9695 0
h 1584 -9696 0
h 9697 -7095 -7115 0
h -9697 7095 0
h -9697 7115 0
h 9698 -7088 -7115 0
h -9698 7088 0
h -9698 7115 0
h 9699 -7088 -7120 0
h -9699 7088 0
h -9699 7120 0
h 9700 -7095 -7120 -7140 0
h -9700 7095 0
h -9700 7120 0
h -9700 7140 0
h -1587 7067 9697 9698 9699 9700 0
h 1587 -7067 0
h 1587 -9697 0
h 1587 -9698 0
h 1587 -9699 0
h 1587 -9700 0
h 9701 -7095 -7135 0
h -9701 7095 0
h -9701 7135 0
h 9702 -7088 -7125 0
h -9702 7088 0
h -9702 7125 0
h 9703 -7088 -7135 0
h -9703 7088 0
h -9703 7135 0
h 9704 -7095 -7125 -7140 0
h -9704 7095 0
h -9704 7125 0
h -9704 7140 0
h -1590 7074 9701 9702 9703 9704 0
h 1590 -7074 0
h 1590 -9701 0
h 1590 -9702 0
h 1590 -9703 0
h 1590 -9704 0
h 9705 -7100 -7135 0
h -9705 7100 0
h -9705 7135 0
h 9706 -7130 -7135 0
h -9706 7130 0
h -9706 7135 0
h 9707 -7130 -7125 0
h -9707 7130 0
h -9707 7125 0
h 9708 -7100 -7125 -7140 0
h -9708 7100 0
h -9708 7125 0
h -9708 7140 0
h -1593 7081 9705 9706 9707 9708 0
h 1593 -7081 0
h 1593 -9705 0
h 1593 -9706 0
h 1593 -9707 0
h 1593 -9708 0
h 9709 -7095 -7083 0
h -9709 7095 0
h -9709 7083 0
h 9710 -7088 -7083 0
h -9710 7088 0
h -9710 7083 0
h 9711 -7088 -7090 0
h -9711 7088 0
h -9711 7090 0
h 9712 -7095 -7090 -7140 0
h -9712 7095 0
h -9712 7090 0
h -9712 7140 0
h -2989 7055 9709 9710 9711 9712 0
h 2989 -7055 0
h 2989 -9709 0
h 2989 -9710 0
h 2989 -9711 0
h 2989 -9712 0
h 9713 -7095 -7086 0
h -9713 7095 0
h -9713 7086 0
h 9714 -7088 -7092 0
h -9714 7088 0
h -9714 7092 0
h 9715 -7088 -7086 0
h -9715 7088 0
h -9715 7086 0
h 9716 -7095 -7092 -7140 0
h -9716 7095 0
h -9716 7092 0
h -9716 7140 0
h -1582 7054 9713 9714 9715 9716 0
h 1582 -7054 0
h 1582 -9713 0
h 1582 -9714 0
h 1582 -9715 0
h 1582 -9716 0
h 9717 -7100 -7086 0
h -9717 7100 0
h -9717 7086 0
h 9718 -7130 -7086 0
h -9718 7130 0
h -9718 7086 0
h 9719 -7130 -7092 0
h -9719 7130 0
h -9719 7092 0
h 9720 -7100 -7092 -7140 0
h -9720 7100 0
h -9720 7092 0
h -9720 7140 0
h -1592 7076 9717 9718 9719 9720 0
h 1592 -7076 0
h 1592 -9717 0
h 1592 -9718 0
h 1592 -9719 0
h 1592 -9720 0
h 9721 -7120 -7130 0
h -9721 7120 0
h -9721 7130 0
h 9722 -7115 -7100 0
h -9722 7115 0
h -9722 7100 0
h 9723 -7115 -7130 0
h -9723 7115 0
h -9723 7130 0
h 9724 -7120 -7100 -7140 0
h -9724 7120 0
h -9724 7100 0
h -9724 7140 0
h -1595 7105 9721 9722 9723 9724 0
h 1595 -7105 0
h 1595 -9721 0
h 1595 -9722 0
h 1595 -9723 0
h 1595 -9724 0
h 9725 -7120 -7115 0
h -9725 7120 0
h -9725 7115 0
h 8639 -7115 -7115 0
h -8639 7115 0
h -8639 7115 0
h 9726 -7115 -7120 0
h -9726 7115 0
h -9726 7120 0
h 9727 -7120 -7120 -7140 0
h -9727 7120 0
h -9727 7120 0
h -9727 7140 0
h -1598 7110 9725 8639 9726 9727 0
h 1598 -7110 0
h 1598 -9725 0
h 1598 -8639 0
h 1598 -9726 0
h 1598 -9727 0
h 9728 -7120 -7083 0
h -9728 7120 0
h -9728 7083 0
h 9729 -7115 -7083 0
h -9729 7115 0
h -9729 7083 0
h 9730 -7115 -7090 0
h -9730 7115 0
h -9730 7090 0
h 9731 -7120 -7090 -7140 0
h -9731 7120 0
h -9731 7090 0
h -9731 7140 0
h -2733 7062 9728 9729 9730 9731 0
h 2733 -7062 0
h 2733 -9728 0
h 2733 -9729 0
h 2733 -9730 0
h 2733 -9731 0
h 9732 -7120 -7086 0
h -9732 7120 0
h -9732 7086 0
h 9733 -7115 -7092 0
h -9733 7115 0
h -9733 7092 0
h 9734 -7115 -7086 0
h -9734 7115 0
h -9734 7086 0
h 9735 -7120 -7092 -7140 0
h -9735 7120 0
h -9735 7092 0
h -9735 7140 0
h -1586 7065 9732 9733 9734 9735 0
h 1586 -7065 0
h 1586 -9732 0
h 1586 -9733 0
h 1586 -9734 0
h 1586 -9735 0
h 9736 -7125 -7086 0
h -9736 7125 0
h -9736 7086 0
h 9737 -7135 -7086 0
h -9737 7135 0
h -9737 7086 0
h 9738 -7135 -7092 0
h -9738 7135 0
h -9738 7092 0
h 9739 -7125 -7092 -7140 0
h -9739 7125 0
h -9739 7092 0
h -9739 7140 0
h -1589 7071 9736 9737 9738 9739 0
h 1589 -7071 0
h 1589 -9736 0
h 1589 -9737 0
h 1589 -9738 0
h 1589 -9739 0
h 9740 -7090 -7130 0
h -9740 7090 0
h -9740 7130 0
h 9741 -7083 -7100 0
h -9741 7083 0
h -9741 7100 0
h 9742 -7083 -7130 0
h -9742 7083 0
h -9742 7130 0
h 9743 -7090 -7100 -7140 0
h -9743 7090 0
h -9743 7100 0
h -9743 7140 0
h -2732 7078 9740 9741 9742 9743 0
h 2732 -7078 0
h 2732 -9740 0
h 2732 -9741 0
h 2732 -9742 0
h 2732 -9743 0
h 9744 -7090 -7135 0
h -9744 7090 0
h -9744 7135 0
h 9745 -7083 -7125 0
h -9745 7083 0
h -9745 7125 0
h 9746 -7083 -7135 0
h -9746 7083 0
h -9746 7135 0
h 9747 -7090 -7125 -7140 0
h -9747 7090 0
h -9747 7125 0
h -9747 7140 0
h -2737 7069 9744 9745 9746 9747 0
h 2737 -7069 0
h 2737 -9744 0
h 2737 -9745 0
h 2737 -9746 0
h 2737 -9747 0
h 9748 -7090 -7083 0
h -9748 7090 0
h -9748 7083 0
h 7137 -7083 -7083 0
h -7137 7083 0
h -7137 7083 0
h 9749 -7083 -7090 0
h -9749 7083 0
h -9749 7090 0
h 9750 -7090 -7090 -7140 0
h -9750 7090 0
h -9750 7090 0
h -9750 7140 0
h -2740 7059 9748 7137 9749 9750 0
h 2740 -7059 0
h 2740 -9748 0
h 2740 -7137 0
h 2740 -9749 0
h 2740 -9750 0
h 9751 -8414 -9752 0
h -9751 8414 0
h -9751 9752 0
h 9753 -9752 -9752 0
h -9753 9752 0
h -9753 9752 0
h 9754 -9752 -8414 0
h -9754 9752 0
h -9754 8414 0
h 9755 -8414 -8414 -9756 0
h -9755 8414 0
h -9755 8414 0
h -9755 9756 0
h -2863 8415 9751 9753 9754 9755 0
h 2863 -8415 0
h 2863 -9751 0
h 2863 -9753 0
h 2863 -9754 0
h 2863 -9755 0
h 9757 -8414 -9758 0
h -9757 8414 0
h -9757 9758 0
h 9759 -9752 -9758 0
h -9759 9752 0
h -9759 9758 0
h 9760 -9752 -8417 0
h -9760 9752 0
h -9760 8417 0
h 9761 -8414 -8417 -9756 0
h -9761 8414 0
h -9761 8417 0
h -9761 9756 0
h -2859 8418 9757 9759 9760 9761 0
h 2859 -8418 0
h 2859 -9757 0
h 2859 -9759 0
h 2859 -9760 0
h 2859 -9761 0
h 9762 -8414 -9763 0
h -9762 8414 0
h -9762 9763 0
h 9764 -9752 -8420 0
h -9764 9752 0
h -9764 8420 0
h 9765 -9752 -9763 0
h -9765 9752 0
h -9765 9763 0
h 9766 -8414 -8420 -9756 0
h -9766 8414 0
h -9766 8420 0
h -9766 9756 0
h -2883 8421 9762 9764 9765 9766 0
h 2883 -8421 0
h 2883 -9762 0
h 2883 -9764 0
h 2883 -9765 0
h 2883 -9766 0
h 9767 -8423 -9763 0
h -9767 8423 0
h -9767 9763 0
h 9768 -9769 -9763 0
h -9768 9769 0
h -9768 9763 0
h 9770 -9769 -8420 0
h -9770 9769 0
h -9770 8420 0
h 9771 -8423 -8420 -9756 0
h -9771 8423 0
h -9771 8420 0
h -9771 9756 0
h -2881 8424 9767 9768 9770 9771 0
h 2881 -8424 0
h 2881 -9767 0
h 2881 -9768 0
h 2881 -9770 0
h 2881 -9771 0
h 9772 -8414 -9773 0
h -9772 8414 0
h -9772 9773 0
h 9774 -9752 -9773 0
h -9774 9752 0
h -9774 9773 0
h 9775 -9752 -8426 0
h -9775 9752 0
h -9775 8426 0
h 9776 -8414 -8426 -9756 0
h -9776 8414 0
h -9776 8426 0
h -9776 9756 0
h -2867 8427 9772 9774 9775 9776 0
h 2867 -8427 0
h 2867 -9772 0
h 2867 -9774 0
h 2867 -9775 0
h 2867 -9776 0
h 9777 -8414 -9778 0
h -9777 8414 0
h -9777 9778 0
h 9779 -9752 -8429 0
h -9779 9752 0
h -9779 8429 0
h 9780 -9752 -9778 0
h -9780 9752 0
h -9780 9778 0
h 9781 -8414 -8429 -9756 0
h -9781 8414 0
h -9781 8429 0
h -9781 9756 0
h -2874 8430 9777 9779 9780 9781 0
h 2874 -8430 0
h 2874 -9777 0
h 2874 -9779 0
h 2874 -9780 0
h 2874 -9781 0
h 9782 -8423 -9778 0
h -9782 8423 0
h -9782 9778 0
h 9783 -9769 -9778 0
h -9783 9769 0
h -9783 9778 0
h 9784 -9769 -8429 0
h -9784 9769 0
h -9784 8429 0
h 9785 -8423 -8429 -9756 0
h -9785 8423 0
h -9785 8429 0
h -9785 9756 0
h -2876 8432 9782 9783 9784 9785 0
h 2876 -8432 0
h 2876 -9782 0
h 2876 -9783 0
h 2876 -9784 0
h 2876 -9785 0
h 9786 -8417 -9769 0
h -9786 8417 0
h -9786 9769 0
h 9787 -9758 -8423 0
h -9787 9758 0
h -9787 8423 0
h 9788 -9758 -9769 0
h -9788 9758 0
h -9788 9769 0
h 9789 -8417 -8423 -9756 0
h -9789 8417 0
h -9789 8423 0
h -9789 9756 0
h -2858 8434 9786 9787 9788 9789 0
h 2858 -8434 0
h 2858 -9786 0
h 2858 -9787 0
h 2858 -9788 0
h 2858 -9789 0
h 9790 -8417 -9758 0
h -9790 8417 0
h -9790 9758 0
h 9791 -9758 -9758 0
h -9791 9758 0
h -9791 9758 0
h 9792 -9758 -8417 0
h -9792 9758 0
h -9792 8417 0
h 9793 -8417 -8417 -9756 0
h -9793 8417 0
h -9793 8417 0
h -9793 9756 0
h -2865 8436 9790 9791 9792 9793 0
h 2865 -8436 0
h 2865 -9790 0
h 2865 -9791 0
h 2865 -9792 0
h 2865 -9793 0
h 9794 -8417 -9773 0
h -9794 8417 0
h -9794 9773 0
h 9795 -9758 -9773 0
h -9795 9758 0
h -9795 9773 0
h 9796 -9758 -8426 0
h -9796 9758 0
h -9796 8426 0
h 9797 -8417 -8426 -9756 0
h -9797 8417 0
h -9797 8426 0
h -9797 9756 0
h -2872 8438 9794 9795 9796 9797 0
h 2872 -8438 0
h 2872 -9794 0
h 2872 -9795 0
h 2872 -9796 0
h 2872 -9797 0
h 9798 -8417 -9778 0
h -9798 8417 0
h -9798 9778 0
h 9799 -9758 -8429 0
h -9799 9758 0
h -9799 8429 0
h 9800 -9758 -9778 0
h -9800 9758 0
h -9800 9778 0
h 9801 -8417 -8429 -9756 0
h -9801 8417 0
h -9801 8429 0
h -9801 9756 0
h -2879 8440 9798 9799 9800 9801 0
h 2879 -8440 0
h 2879 -9798 0
h 2879 -9799 0
h 2879 -9800 0
h 2879 -9801 0
h 9802 -8420 -9778 0
h -9802 8420 0
h -9802 9778 0
h 9803 -9763 -9778 0
h -9803 9763 0
h -9803 9778 0
h 9804 -9763 -8429 0
h -9804 9763 0
h -9804 8429 0
h 9805 -8420 -8429 -9756 0
h -9805 8420 0
h -9805 8429 0
h -9805 9756 0
h -2886 8442 9802 9803 9804 9805 0
h 2886 -8442 0
h 2886 -9802 0
h 2886 -9803 0
h 2886 -9804 0
h 2886 -9805 0
h 9806 -8426 -9769 0
h -9806 8426 0
h -9806 9769 0
h 9807 -9773 -8423 0
h -9807 9773 0
h -9807 8423 0
h 9808 -9773 -9769 0
h -9808 9773 0
h -9808 9769 0
h 9809 -8426 -8423 -9756 0
h -9809 8426 0
h -9809 8423 0
h -9809 9756 0
h -2870 8444 9806 9807 9808 9809 0
h 2870 -8444 0
h 2870 -9806 0
h 2870 -9807 0
h 2870 -9808 0
h 2870 -9809 0
h 9810 -8426 -9763 0
h -9810 8426 0
h -9810 9763 0
h 9811 -9773 -8420 0
h -9811 9773 0
h -9811 8420 0
h 9812 -9773 -9763 0
h -9812 9773 0
h -9812 9763 0
h 9813 -8426 -8420 -9756 0
h -9813 8426 0
h -9813 8420 0
h -9813 9756 0
h -2891 8446 9810 9811 9812 9813 0
h 2891 -8446 0
h 2891 -9810 0
h 2891 -9811 0
h 2891 -9812 0
h 2891 -9813 0
h 9814 -8426 -9773 0
h -9814 8426 0
h -9814 9773 0
h 9815 -9773 -9773 0
h -9815 9773 0
h -9815 9773 0
h 9816 -9773 -8426 0
h -9816 9773 0
h -9816 8426 0
h 9817 -8426 -8426 -9756 0
h -9817 8426 0
h -9817 8426 0
h -9817 9756 0
h -2897 8448 9814 9815 9816 9817 0
h 2897 -8448 0
h 2897 -9814 0
h 2897 -9815 0
h 2897 -9816 0
h 2897 -9817 0
h 9818 -8178 -9819 0
h -9818 8178 0
h -9818 9819 0
h 9820 -9819 -9819 0
h -9820 9819 0
h -9820 9819 0
h 9821 -9819 -8178 0
h -9821 9819 0
h -9821 8178 0
h 9822 -8178 -8178 -9823 0
h -9822 8178 0
h -9822 8178 0
h -9822 9823 0
h -4524 8179 9818 9820 9821 9822 0
h 4524 -8179 0
h 4524 -9818 0
h 4524 -9820 0
h 4524 -9821 0
h 4524 -9822 0
h 9824 -8178 -9825 0
h -9824 8178 0
h -9824 9825 0
h 9826 -9819 -9825 0
h -9826 9819 0
h -9826 9825 0
h 9827 -9819 -8181 0
h -9827 9819 0
h -9827 8181 0
h 9828 -8178 -8181 -9823 0
h -9828 8178 0
h -9828 8181 0
h -9828 9823 0
h -4520 8182 9824 9826 9827 9828 0
h 4520 -8182 0
h 4520 -9824 0
h 4520 -9826 0
h 4520 -9827 0
h 4520 -9828 0
h 9829 -8178 -9830 0
h -9829 8178 0
h -9829 9830 0
h 9831 -9819 -8184 0
h -9831 9819 0
h -9831 8184 0
h 9832 -9819 -9830 0
h -9832 9819 0
h -9832 9830 0
h 9833 -8178 -8184 -9823 0
h -9833 8178 0
h -9833 8184 0
h -9833 9823 0
h -4538 8185 9829 9831 9832 9833 0
h 4538 -8185 0
h 4538 -9829 0
h 4538 -9831 0
h 4538 -9832 0
h 4538 -9833 0
h 9834 -8187 -9830 0
h -9834 8187 0
h -9834 9830 0
h 9835 -9836 -9830 0
h -9835 9836 0
h -9835 9830 0
h 9837 -9836 -8184 0
h -9837 9836 0
h -9837 8184 0
h 9838 -8187 -8184 -9823 0
h -9838 8187 0
h -9838 8184 0
h -9838 9823 0
h -4173 8188 9834 9835 9837 9838 0
h 4173 -8188 0
h 4173 -9834 0
h 4173 -9835 0
h 4173 -9837 0
h 4173 -9838 0
h 9839 -8178 -9840 0
h -9839 8178 0
h -9839 9840 0
h 9841 -9819 -9840 0
h -9841 9819 0
h -9841 9840 0
h 9842 -9819 -8190 0
h -9842 9819 0
h -9842 8190 0
h 9843 -8178 -8190 -9823 0
h -9843 8178 0
h -9843 8190 0
h -9843 9823 0
h -4527 8191 9839 9841 9842 9843 0
h 4527 -8191 0
h 4527 -9839 0
h 4527 -9841 0
h 4527 -9842 0
h 4527 -9843 0
h 9844 -8178 -9845 0
h -9844 8178 0
h -9844 9845 0
h 9846 -9819 -8193 0
h -9846 9819 0
h -9846 8193 0
h 9847 -9819 -9845 0
h -9847 9819 0
h -9847 9845 0
h 9848 -8178 -8193 -9823 0
h -9848 8178 0
h -9848 8193 0
h -9848 9823 0
h -4532 8194 9844 9846 9847 9848 0
h 4532 -8194 0
h 4532 -9844 0
h 4532 -9846 0
h 4532 -9847 0
h 4532 -9848 0
h 9849 -8187 -9845 0
h -9849 8187 0
h -9849 9845 0
h 9850 -9836 -9845 0
h -9850 9836 0
h -9850 9845 0
h 9851 -9836 -8193 0
h -9851 9836 0
h -9851 8193 0
h 9852 -8187 -8193 -9823 0
h -9852 8187 0
h -9852 8193 0
h -9852 9823 0
h -4170 8196 9849 9850 9851 9852 0
h 4170 -8196 0
h 4170 -9849 0
h 4170 -9850 0
h 4170 -9851 0
h 4170 -9852 0
h 9853 -8181 -9836 0
h -9853 8181 0
h -9853 9836 0
h 9854 -9825 -8187 0
h -9854 9825 0
h -9854 8187 0
h 9855 -9825 -9836 0
h -9855 9825 0
h -9855 9836 0
h 9856 -8181 -8187 -9823 0
h -9856 8181 0
h -9856 8187 0
h -9856 9823 0
h -4163 8198 9853 9854 9855 9856 0
h 4163 -8198 0
h 4163 -9853 0
h 4163 -9854 0
h 4163 -9855 0
h 4163 -9856 0
h 9857 -8181 -9825 0
h -9857 8181 0
h -9857 9825 0
h 9858 -9825 -9825 0
h -9858 9825 0
h -9858 9825 0
h 9859 -9825 -8181 0
h -9859 9825 0
h -9859 8181 0
h 9860 -8181 -8181 -9823 0
h -9860 8181 0
h -9860 8181 0
h -9860 9823 0
h -4165 8200 9857 9858 9859 9860 0
h 4165 -8200 0
h 4165 -9857 0
h 4165 -9858 0
h 4165 -9859 0
h 4165 -9860 0
h 9861 -8181 -9840 0
h -9861 8181 0
h -9861 9840 0
h 9862 -9825 -9840 0
h -9862 9825 0
h -9862 9840 0
h 9863 -9825 -8190 0
h -9863 9825 0
h -9863 8190 0
h 9864 -8181 -8190 -9823 0
h -9864 8181 0
h -9864 8190 0
h -9864 9823 0
h -4168 8202 9861 9862 9863 9864 0
h 4168 -8202 0
h 4168 -9861 0
h 4168 -9862 0
h 4168 -9863 0
h 4168 -9864 0
h 9865 -8181 -9845 0
h -9865 8181 0
h -9865 9845 0
h 9866 -9825 -8193 0
h -9866 9825 0
h -9866 8193 0
h 9867 -9825 -9845 0
h -9867 9825 0
h -9867 9845 0
h 9868 -8181 -8193 -9823 0
h -9868 8181 0
h -9868 8193 0
h -9868 9823 0
h -4171 8204 9865 9866 9867 9868 0
h 4171 -8204 0
h 4171 -9865 0
h 4171 -9866 0
h 4171 -9867 0
h 4171 -9868 0
h 9869 -8184 -9845 0
h -9869 8184 0
h -9869 9845 0
h 9870 -9830 -9845 0
h -9870 9830 0
h -9870 9845 0
h 9871 -9830 -8193 0
h -9871 9830 0
h -9871 8193 0
h 9872 -8184 -8193 -9823 0
h -9872 8184 0
h -9872 8193 0
h -9872 9823 0
h -4174 8206 9869 9870 9871 9872 0
h 4174 -8206 0
h 4174 -9869 0
h 4174 -9870 0
h 4174 -9871 0
h 4174 -9872 0
h 9873 -8190 -9836 0
h -9873 8190 0
h -9873 9836 0
h 9874 -9840 -8187 0
h -9874 9840 0
h -9874 8187 0
h 9875 -9840 -9836 0
h -9875 9840 0
h -9875 9836 0
h 9876 -8190 -8187 -9823 0
h -9876 8190 0
h -9876 8187 0
h -9876 9823 0
h -4167 8208 9873 9874 9875 9876 0
h 4167 -8208 0
h 4167 -9873 0
h 4167 -9874 0
h 4167 -9875 0
h 4167 -9876 0
h 9877 -8190 -9830 0
h -9877 8190 0
h -9877 9830 0
h 9878 -9840 -8184 0
h -9878 9840 0
h -9878 8184 0
h 9879 -9840 -9830 0
h -9879 9840 0
h -9879 9830 0
h 9880 -8190 -8184 -9823 0
h -9880 8190 0
h -9880 8184 0
h -9880 9823 0
h -4176 8210 9877 9878 9879 9880 0
h 4176 -8210 0
h 4176 -9877 0
h 4176 -9878 0
h 4176 -9879 0
h 4176 -9880 0
h 9881 -8190 -9840 0
h -9881 8190 0
h -9881 9840 0
h 9882 -9840 -9840 0
h -9882 9840 0
h -9882 9840 0
h 9883 -9840 -8190 0
h -9883 9840 0
h -9883 8190 0
h 9884 -8190 -8190 -9823 0
h -9884 8190 0
h -9884 8190 0
h -9884 9823 0
h -4179 8212 9881 9882 9883 9884 0
h 4179 -8212 0
h 4179 -9881 0
h 4179 -9882 0
h 4179 -9883 0
h 4179 -9884 0
h 9885 -6599 -6592 0
h -9885 6599 0
h -9885 6592 0
h 9886 -6592 -6592 0
h -9886 6592 0
h -9886 6592 0
h 9887 -6592 -6599 0
h -9887 6592 0
h -9887 6599 0
h 9888 -6599 -6599 -6635 0
h -9888 6599 0
h -9888 6599 0
h -9888 6635 0
h -2647 6585 9885 9886 9887 9888 0
h 2647 -6585 0
h 2647 -9885 0
h 2647 -9886 0
h 2647 -9887 0
h 2647 -9888 0
h 9889 -6599 -6587 0
h -9889 6599 0
h -9889 6587 0
h 9890 -6592 -6587 0
h -9890 6592 0
h -9890 6587 0
h 9891 -6592 -6594 0
h -9891 6592 0
h -9891 6594 0
h 9892 -6599 -6594 -6635 0
h -9892 6599 0
h -9892 6594 0
h -9892 6635 0
h -2641 6580 9889 9890 9891 9892 0
h 2641 -6580 0
h 2641 -9889 0
h 2641 -9890 0
h 2641 -9891 0
h 2641 -9892 0
h 9893 -6599 -6590 0
h -9893 6599 0
h -9893 6590 0
h 9894 -6592 -6596 0
h -9894 6592 0
h -9894 6596 0
h 9895 -6592 -6590 0
h -9895 6592 0
h -9895 6590 0
h 9896 -6599 -6596 -6635 0
h -9896 6599 0
h -9896 6596 0
h -9896 6635 0
h -2640 6579 9893 9894 9895 9896 0
h 2640 -6579 0
h 2640 -9893 0
h 2640 -9894 0
h 2640 -9895 0
h 2640 -9896 0
h 9897 -6606 -6590 0
h -9897 6606 0
h -9897 6590 0
h 9898 -6630 -6590 0
h -9898 6630 0
h -9898 6590 0
h 9899 -6630 -6596 0
h -9899 6630 0
h -9899 6596 0
h 9900 -6606 -6596 -6635 0
h -9900 6606 0
h -9900 6596 0
h -9900 6635 0
h -2663 6601 9897 9898 9899 9900 0
h 2663 -6601 0
h 2663 -9897 0
h 2663 -9898 0
h 2663 -9899 0
h 2663 -9900 0
h 9901 -6599 -6640 0
h -9901 6599 0
h -9901 6640 0
h 9902 -6592 -6640 0
h -9902 6592 0
h -9902 6640 0
h 9903 -6592 -6660 0
h -9903 6592 0
h -9903 6660 0
h 9904 -6599 -6660 -6635 0
h -9904 6599 0
h -9904 6660 0
h -9904 6635 0
h -2654 6613 9901 9902 9903 9904 0
h 2654 -6613 0
h 2654 -9901 0
h 2654 -9902 0
h 2654 -9903 0
h 2654 -9904 0
h 9905 -6599 -6645 0
h -9905 6599 0
h -9905 6645 0
h 9906 -6592 -6650 0
h -9906 6592 0
h -9906 6650 0
h 9907 -6592 -6645 0
h -9907 6592 0
h -9907 6645 0
h 9908 -6599 -6650 -6635 0
h -9908 6599 0
h -9908 6650 0
h -9908 6635 0
h -2661 6620 9905 9906 9907 9908 0
h 2661 -6620 0
h 2661 -9905 0
h 2661 -9906 0
h 2661 -9907 0
h 2661 -9908 0
h 9909 -6606 -6645 0
h -9909 6606 0
h -9909 6645 0
h 9910 -6630 -6645 0
h -9910 6630 0
h -9910 6645 0
h 9911 -6630 -6650 0
h -9911 6630 0
h -9911 6650 0
h 9912 -6606 -6650 -6635 0
h -9912 6606 0
h -9912 6650 0
h -9912 6635 0
h -2668 6625 9909 9910 9911 9912 0
h 2668 -6625 0
h 2668 -9909 0
h 2668 -9910 0
h 2668 -9911 0
h 2668 -9912 0
h 9913 -6594 -6630 0
h -9913 6594 0
h -9913 6630 0
h 9914 -6587 -6606 0
h -9914 6587 0
h -9914 6606 0
h 9915 -6587 -6630 0
h -9915 6587 0
h -9915 6630 0
h 9916 -6594 -6606 -6635 0
h -9916 6594 0
h -9916 6606 0
h -9916 6635 0
h -2665 6603 9913 9914 9915 9916 0
h 2665 -6603 0
h 2665 -9913 0
h 2665 -9914 0
h 2665 -9915 0
h 2665 -9916 0
h 9917 -6594 -6587 0
h -9917 6594 0
h -9917 6587 0
h 6632 -6587 -6587 0
h -6632 6587 0
h -6632 6587 0
h 9918 -6587 -6594 0
h -9918 6587 0
h -9918 6594 0
h 9919 -6594 -6594 -6635 0
h -9919 6594 0
h -9919 6594 0
h -9919 6635 0
h -2645 6584 9917 6632 9918 9919 0
h 2645 -6584 0
h 2645 -9917 0
h 2645 -6632 0
h 2645 -9918 0
h 2645 -9919 0
h 9920 -6594 -6640 0
h -9920 6594 0
h -9920 6640 0
h 9921 -6587 -6640 0
h -9921 6587 0
h -9921 6640 0
h 9922 -6587 -6660 0
h -9922 6587 0
h -9922 6660 0
h 9923 -6594 -6660 -6635 0
h -9923 6594 0
h -9923 6660 0
h -9923 6635 0
h -2649 6608 9920 9921 9922 9923 0
h 2649 -6608 0
h 2649 -9920 0
h 2649 -9921 0
h 2649 -9922 0
h 2649 -9923 0
h 9924 -6594 -6645 0
h -9924 6594 0
h -9924 6645 0
h 9925 -6587 -6650 0
h -9925 6587 0
h -9925 6650 0
h 9926 -6587 -6645 0
h -9926 6587 0
h -9926 6645 0
h 9927 -6594 -6650 -6635 0
h -9927 6594 0
h -9927 6650 0
h -9927 6635 0
h -2656 6615 9924 9925 9926 9927 0
h 2656 -6615 0
h 2656 -9924 0
h 2656 -9925 0
h 2656 -9926 0
h 2656 -9927 0
h 9928 -6596 -6645 0
h -9928 6596 0
h -9928 6645 0
h 9929 -6590 -6645 0
h -9929 6590 0
h -9929 6645 0
h 9930 -6590 -6650 0
h -9930 6590 0
h -9930 6650 0
h 9931 -6596 -6650 -6635 0
h -9931 6596 0
h -9931 6650 0
h -9931 6635 0
h -2658 6617 9928 9929 9930 9931 0
h 2658 -6617 0
h 2658 -9928 0
h 2658 -9929 0
h 2658 -9930 0
h 2658 -9931 0
h 9932 -6660 -6630 0
h -9932 6660 0
h -9932 6630 0
h 9933 -6640 -6606 0
h -9933 6640 0
h -9933 6606 0
h 9934 -6640 -6630 0
h -9934 6640 0
h -9934 6630 0
h 9935 -6660 -6606 -6635 0
h -9935 6660 0
h -9935 6606 0
h -9935 6635 0
h -2673 6655 9932 9933 9934 9935 0
h 2673 -6655 0
h 2673 -9932 0
h 2673 -9933 0
h 2673 -9934 0
h 2673 -9935 0
h 9936 -6660 -6590 0
h -9936 6660 0
h -9936 6590 0
h 9937 -6640 -6596 0
h -9937 6640 0
h -9937 6596 0
h 9938 -6640 -6590 0
h -9938 6640 0
h -9938 6590 0
h 9939 -6660 -6596 -6635 0
h -9939 6660 0
h -9939 6596 0
h -9939 6635 0
h -2652 6611 9936 9937 9938 9939 0
h 2652 -6611 0
h 2652 -9936 0
h 2652 -9937 0
h 2652 -9938 0
h 2652 -9939 0
h 9940 -6660 -6640 0
h -9940 6660 0
h -9940 6640 0
h 9941 -6640 -6640 0
h -9941 6640 0
h -9941 6640 0
h 9942 -6640 -6660 0
h -9942 6640 0
h -9942 6660 0
h 9943 -6660 -6660 -6635 0
h -9943 6660 0
h -9943 6660 0
h -9943 6635 0
h -2679 6665 9940 9941 9942 9943 0
h 2679 -6665 0
h 2679 -9940 0
h 2679 -9941 0
h 2679 -9942 0
h 2679 -9943 0
h 9944 -8008 -8008 0
h -9944 8008 0
h -9944 8008 0
h -3412 8014 9944 0
h 3412 -8014 0
h 3412 -9944 0
h 9945 -8008 -8019 0
h -9945 8008 0
h -9945 8019 0
h -3408 8021 9945 0
h 3408 -8021 0
h 3408 -9945 0
h 9946 -8008 -8025 0
h -9946 8008 0
h -9946 8025 0
h -3426 8028 9946 0
h 3426 -8028 0
h 3426 -9946 0
h 9947 -8030 -8025 0
h -9947 8030 0
h -9947 8025 0
h -3328 8035 9947 0
h 3328 -8035 0
h 3328 -9947 0
h 9948 -8008 -8040 0
h -9948 8008 0
h -9948 8040 0
h -3415 8042 9948 0
h 3415 -8042 0
h 3415 -9948 0
h 9949 -8008 -8046 0
h -9949 8008 0
h -9949 8046 0
h -3420 8049 9949 0
h 3420 -8049 0
h 3420 -9949 0
h 9950 -8030 -8046 0
h -9950 8030 0
h -9950 8046 0
h -3325 8054 9950 0
h 3325 -8054 0
h 3325 -9950 0
h 9951 -8019 -8030 0
h -9951 8019 0
h -9951 8030 0
h -3318 8059 9951 0
h 3318 -8059 0
h 3318 -9951 0
h 9952 -8019 -8019 0
h -9952 8019 0
h -9952 8019 0
h -3320 8064 9952 0
h 3320 -8064 0
h 3320 -9952 0
h 9953 -8019 -8040 0
h -9953 8019 0
h -9953 8040 0
h -3323 8069 9953 0
h 3323 -8069 0
h 3323 -9953 0
h 9954 -8019 -8046 0
h -9954 8019 0
h -9954 8046 0
h -3326 8074 9954 0
h 3326 -8074 0
h 3326 -9954 0
h 9955 -8025 -8046 0
h -9955 8025 0
h -9955 8046 0
h -3329 8079 9955 0
h 3329 -8079 0
h 3329 -9955 0
h 9956 -8040 -8030 0
h -9956 8040 0
h -9956 8030 0
h -3322 8084 9956 0
h 3322 -8084 0
h 3322 -9956 0
h 9957 -8040 -8025 0
h -9957 8040 0
h -9957 8025 0
h -3331 8089 9957 0
h 3331 -8089 0
h 3331 -9957 0
h 9958 -8040 -8040 0
h -9958 8040 0
h -9958 8040 0
h -3334 8094 9958 0
h 3334 -8094 0
h 3334 -9958 0
h 9959 -7074 -7074 0
h -9959 7074 0
h -9959 7074 0
h -4948 7060 9959 0
h 4948 -7060 0
h 4948 -9959 0
h 9960 -7074 -7069 0
h -9960 7074 0
h -9960 7069 0
h -4944 7055 9960 0
h 4944 -7055 0
h 4944 -9960 0
h 9961 -7074 -7071 0
h -9961 7074 0
h -9961 7071 0
h -4968 7054 9961 0
h 4968 -7054 0
h 4968 -9961 0
h 9962 -7081 -7071 0
h -9962 7081 0
h -9962 7071 0
h -4966 7076 9962 0
h 4966 -7076 0
h 4966 -9962 0
h 9963 -7074 -7135 0
h -9963 7074 0
h -9963 7135 0
h -4952 7088 9963 0
h 4952 -7088 0
h 4952 -9963 0
h 9964 -7074 -7125 0
h -9964 7074 0
h -9964 7125 0
h -4959 7095 9964 0
h 4959 -7095 0
h 4959 -9964 0
h 9965 -7081 -7125 0
h -9965 7081 0
h -9965 7125 0
h -4961 7100 9965 0
h 4961 -7100 0
h 4961 -9965 0
h 9966 -7069 -7081 0
h -9966 7069 0
h -9966 7081 0
h -4943 7078 9966 0
h 4943 -7078 0
h 4943 -9966 0
h 9967 -7069 -7069 0
h -9967 7069 0
h -9967 7069 0
h -4950 7059 9967 0
h 4950 -7059 0
h 4950 -9967 0
h 9968 -7069 -7135 0
h -9968 7069 0
h -9968 7135 0
h -4957 7083 9968 0
h 4957 -7083 0
h 4957 -9968 0
h 9969 -7069 -7125 0
h -9969 7069 0
h -9969 7125 0
h -4964 7090 9969 0
h 4964 -7090 0
h 4964 -9969 0
h 9970 -7071 -7125 0
h -9970 7071 0
h -9970 7125 0
h -4971 7092 9970 0
h 4971 -7092 0
h 4971 -9970 0
h 9971 -7135 -7081 0
h -9971 7135 0
h -9971 7081 0
h -4955 7130 9971 0
h 4955 -7130 0
h 4955 -9971 0
h 9972 -7135 -7071 0
h -9972 7135 0
h -9972 7071 0
h -4976 7086 9972 0
h 4976 -7086 0
h 4976 -9972 0
h 9973 -7135 -7135 0
h -9973 7135 0
h -9973 7135 0
h -4982 7140 9973 0
h 4982 -7140 0
h 4982 -9973 0
h 9974 -7905 -8896 0
h -9974 7905 0
h -9974 8896 0
h 9975 -8896 -8896 0
h -9975 8896 0
h -9975 8896 0
h 9976 -8896 -7905 0
h -9976 8896 0
h -9976 7905 0
h 9977 -7905 -7905 -8905 0
h -9977 7905 0
h -9977 7905 0
h -9977 8905 0
h -5269 7906 9974 9975 9976 9977 0
h 5269 -7906 0
h 5269 -9974 0
h 5269 -9975 0
h 5269 -9976 0
h 5269 -9977 0
h 9978 -7905 -9607 0
h -9978 7905 0
h -9978 9607 0
h 9979 -8896 -9607 0
h -9979 8896 0
h -9979 9607 0
h 9980 -8896 -7908 0
h -9980 8896 0
h -9980 7908 0
h 9981 -7905 -7908 -8905 0
h -9981 7905 0
h -9981 7908 0
h -9981 8905 0
h -5265 7909 9978 9979 9980 9981 0
h 5265 -7909 0
h 5265 -9978 0
h 5265 -9979 0
h 5265 -9980 0
h 5265 -9981 0
h 9982 -7905 -8895 0
h -9982 7905 0
h -9982 8895 0
h 9983 -8896 -7911 0
h -9983 8896 0
h -9983 7911 0
h 9984 -8896 -8895 0
h -9984 8896 0
h -9984 8895 0
h 9985 -7905 -7911 -8905 0
h -9985 7905 0
h -9985 7911 0
h -9985 8905 0
h -5283 7912 9982 9983 9984 9985 0
h 5283 -7912 0
h 5283 -9982 0
h 5283 -9983 0
h 5283 -9984 0
h 5283 -9985 0
h 9986 -7914 -8895 0
h -9986 7914 0
h -9986 8895 0
h 9987 -8903 -8895 0
h -9987 8903 0
h -9987 8895 0
h 9988 -8903 -7911 0
h -9988 8903 0
h -9988 7911 0
h 9989 -7914 -7911 -8905 0
h -9989 7914 0
h -9989 7911 0
h -9989 8905 0
h -2255 7915 9986 9987 9988 9989 0
h 2255 -7915 0
h 2255 -9986 0
h 2255 -9987 0
h 2255 -9988 0
h 2255 -9989 0
h 9990 -7905 -8907 0
h -9990 7905 0
h -9990 8907 0
h 9991 -8896 -8907 0
h -9991 8896 0
h -9991 8907 0
h 9992 -8896 -7917 0
h -9992 8896 0
h -9992 7917 0
h 9993 -7905 -7917 -8905 0
h -9993 7905 0
h -9993 7917 0
h -9993 8905 0
h -5272 7918 9990 9991 9992 9993 0
h 5272 -7918 0
h 5272 -9990 0
h 5272 -9991 0
h 5272 -9992 0
h 5272 -9993 0
h 9994 -7905 -8909 0
h -9994 7905 0
h -9994 8909 0
h 9995 -8896 -7920 0
h -9995 8896 0
h -9995 7920 0
h 9996 -8896 -8909 0
h -9996 8896 0
h -9996 8909 0
h 9997 -7905 -7920 -8905 0
h -9997 7905 0
h -9997 7920 0
h -9997 8905 0
h -5277 7921 9994 9995 9996 9997 0
h 5277 -7921 0
h 5277 -9994 0
h 5277 -9995 0
h 5277 -9996 0
h 5277 -9997 0
h 9998 -7914 -8909 0
h -9998 7914 0
h -9998 8909 0
h 9999 -8903 -8909 0
h -9999 8903 0
h -9999 8909 0
h 10000 -8903 -7920 0
h -10000 8903 0
h -10000 7920 0
h 10001 -7914 -7920 -8905 0
h -10001 7914 0
h -10001 7920 0
h -10001 8905 0
h -2252 7923 9998 9999 10000 10001 0
h 2252 -7923 0
h 2252 -9998 0
h 2252 -9999 0
h 2252 -10000 0
h 2252 -10001 0
h 10002 -7908 -8903 0
h -10002 7908 0
h -10002 8903 0
h 10003 -9607 -7914 0
h -10003 9607 0
h -10003 7914 0
h 10004 -9607 -8903 0
h -10004 9607 0
h -10004 8903 0
h 10005 -7908 -7914 -8905 0
h -10005 7908 0
h -10005 7914 0
h -10005 8905 0
h -2245 7925 10002 10003 10004 10005 0
h 2245 -7925 0
h 2245 -10002 0
h 2245 -10003 0
h 2245 -10004 0
h 2245 -10005 0
h 10006 -7908 -9607 0
h -10006 7908 0
h -10006 9607 0
h 9636 -9607 -9607 0
h -9636 9607 0
h -9636 9607 0
h 10007 -9607 -7908 0
h -10007 9607 0
h -10007 7908 0
h 10008 -7908 -7908 -8905 0
h -10008 7908 0
h -10008 7908 0
h -10008 8905 0
h -2247 7927 10006 9636 10007 10008 0
h 2247 -7927 0
h 2247 -10006 0
h 2247 -9636 0
h 2247 -10007 0
h 2247 -10008 0
h 10009 -7908 -8907 0
h -10009 7908 0
h -10009 8907 0
h 10010 -9607 -8907 0
h -10010 9607 0
h -10010 8907 0
h 10011 -9607 -7917 0
h -10011 9607 0
h -10011 7917 0
h 10012 -7908 -7917 -8905 0
h -10012 7908 0
h -10012 7917 0
h -10012 8905 0
h -2250 7929 10009 10010 10011 10012 0
h 2250 -7929 0
h 2250 -10009 0
h 2250 -10010 0
h 2250 -10011 0
h 2250 -10012 0
h 10013 -7908 -8909 0
h -10013 7908 0
h -10013 8909 0
h 10014 -9607 -7920 0
h -10014 9607 0
h -10014 7920 0
h 10015 -9607 -8909 0
h -10015 9607 0
h -10015 8909 0
h 10016 -7908 -7920 -8905 0
h -10016 7908 0
h -10016 7920 0
h -10016 8905 0
h -2253 7931 10013 10014 10015 10016 0
h 2253 -7931 0
h 2253 -10013 0
h 2253 -10014 0
h 2253 -10015 0
h 2253 -10016 0
h 10017 -7911 -8909 0
h -10017 7911 0
h -10017 8909 0
h 10018 -8895 -8909 0
h -10018 8895 0
h -10018 8909 0
h 10019 -8895 -7920 0
h -10019 8895 0
h -10019 7920 0
h 10020 -7911 -7920 -8905 0
h -10020 7911 0
h -10020 7920 0
h -10020 8905 0
h -2256 7933 10017 10018 10019 10020 0
h 2256 -7933 0
h 2256 -10017 0
h 2256 -10018 0
h 2256 -10019 0
h 2256 -10020 0
h 10021 -7917 -8903 0
h -10021 7917 0
h -10021 8903 0
h 10022 -8907 -7914 0
h -10022 8907 0
h -10022 7914 0
h 10023 -8907 -8903 0
h -10023 8907 0
h -10023 8903 0
h 10024 -7917 -7914 -8905 0
h -10024 7917 0
h -10024 7914 0
h -10024 8905 0
h -2249 7935 10021 10022 10023 10024 0
h 2249 -7935 0
h 2249 -10021 0
h 2249 -10022 0
h 2249 -10023 0
h 2249 -10024 0
h 10025 -7917 -8895 0
h -10025 7917 0
h -10025 8895 0
h 10026 -8907 -7911 0
h -10026 8907 0
h -10026 7911 0
h 10027 -8907 -8895 0
h -10027 8907 0
h -10027 8895 0
h 10028 -7917 -7911 -8905 0
h -10028 7917 0
h -10028 7911 0
h -10028 8905 0
h -2258 7937 10025 10026 10027 10028 0
h 2258 -7937 0
h 2258 -10025 0
h 2258 -10026 0
h 2258 -10027 0
h 2258 -10028 0
h 10029 -7917 -8907 0
h -10029 7917 0
h -10029 8907 0
h 10030 -8907 -8907 0
h -10030 8907 0
h -10030 8907 0
h 10031 -8907 -7917 0
h -10031 8907 0
h -10031 7917 0
h 10032 -7917 -7917 -8905 0
h -10032 7917 0
h -10032 7917 0
h -10032 8905 0
h -2261 7939 10029 10030 10031 10032 0
h 2261 -7939 0
h 2261 -10029 0
h 2261 -10030 0
h 2261 -10031 0
h 2261 -10032 0
h 10033 -6967 -7950 0
h -10033 6967 0
h -10033 7950 0
h 10034 -7950 -7950 0
h -10034 7950 0
h -10034 7950 0
h 10035 -7950 -6967 0
h -10035 7950 0
h -10035 6967 0
h 10036 -6967 -6967 -7980 0
h -10036 6967 0
h -10036 6967 0
h -10036 7980 0
h -5221 6968 10033 10034 10035 10036 0
h 5221 -6968 0
h 5221 -10033 0
h 5221 -10034 0
h 5221 -10035 0
h 5221 -10036 0
h 10037 -6967 -7945 0
h -10037 6967 0
h -10037 7945 0
h 10038 -7950 -7945 0
h -10038 7950 0
h -10038 7945 0
h 10039 -7950 -6970 0
h -10039 7950 0
h -10039 6970 0
h 10040 -6967 -6970 -7980 0
h -10040 6967 0
h -10040 6970 0
h -10040 7980 0
h -5217 6971 10037 10038 10039 10040 0
h 5217 -6971 0
h 5217 -10037 0
h 5217 -10038 0
h 5217 -10039 0
h 5217 -10040 0
h 10041 -6967 -7948 0
h -10041 6967 0
h -10041 7948 0
h 10042 -7950 -6973 0
h -10042 7950 0
h -10042 6973 0
h 10043 -7950 -7948 0
h -10043 7950 0
h -10043 7948 0
h 10044 -6967 -6973 -7980 0
h -10044 6967 0
h -10044 6973 0
h -10044 7980 0
h -5241 6974 10041 10042 10043 10044 0
h 5241 -6974 0
h 5241 -10041 0
h 5241 -10042 0
h 5241 -10043 0
h 5241 -10044 0
h 10045 -6976 -7948 0
h -10045 6976 0
h -10045 7948 0
h 10046 -7975 -7948 0
h -10046 7975 0
h -10046 7948 0
h 10047 -7975 -6973 0
h -10047 7975 0
h -10047 6973 0
h 10048 -6976 -6973 -7980 0
h -10048 6976 0
h -10048 6973 0
h -10048 7980 0
h -5239 6977 10045 10046 10047 10048 0
h 5239 -6977 0
h 5239 -10045 0
h 5239 -10046 0
h 5239 -10047 0
h 5239 -10048 0
h 10049 -6967 -7985 0
h -10049 6967 0
h -10049 7985 0
h 10050 -7950 -7985 0
h -10050 7950 0
h -10050 7985 0
h 10051 -7950 -6979 0
h -10051 7950 0
h -10051 6979 0
h 10052 -6967 -6979 -7980 0
h -10052 6967 0
h -10052 6979 0
h -10052 7980 0
h -5225 6980 10049 10050 10051 10052 0
h 5225 -6980 0
h 5225 -10049 0
h 5225 -10050 0
h 5225 -10051 0
h 5225 -10052 0
h 10053 -6967 -7990 0
h -10053 6967 0
h -10053 7990 0
h 10054 -7950 -6982 0
h -10054 7950 0
h -10054 6982 0
h 10055 -7950 -7990 0
h -10055 7950 0
h -10055 7990 0
h 10056 -6967 -6982 -7980 0
h -10056 6967 0
h -10056 6982 0
h -10056 7980 0
h -5232 6983 10053 10054 10055 10056 0
h 5232 -6983 0
h 5232 -10053 0
h 5232 -10054 0
h 5232 -10055 0
h 5232 -10056 0
h 10057 -6976 -7990 0
h -10057 6976 0
h -10057 7990 0
h 10058 -7975 -7990 0
h -10058 7975 0
h -10058 7990 0
h 10059 -7975 -6982 0
h -10059 7975 0
h -10059 6982 0
h 10060 -6976 -6982 -7980 0
h -10060 6976 0
h -10060 6982 0
h -10060 7980 0
h -5234 6985 10057 10058 10059 10060 0
h 5234 -6985 0
h 5234 -10057 0
h 5234 -10058 0
h 5234 -10059 0
h 5234 -10060 0
h 10061 -6970 -7975 0
h -10061 6970 0
h -10061 7975 0
h 10062 -7945 -6976 0
h -10062 7945 0
h -10062 6976 0
h 10063 -7945 -7975 0
h -10063 7945 0
h -10063 7975 0
h 10064 -6970 -6976 -7980 0
h -10064 6970 0
h -10064 6976 0
h -10064 7980 0
h -5216 6987 10061 10062 10063 10064 0
h 5216 -6987 0
h 5216 -10061 0
h 5216 -10062 0
h 5216 -10063 0
h 5216 -10064 0
h 10065 -6970 -7945 0
h -10065 6970 0
h -10065 7945 0
h 7977 -7945 -7945 0
h -7977 7945 0
h -7977 7945 0
h 10066 -7945 -6970 0
h -10066 7945 0
h -10066 6970 0
h 10067 -6970 -6970 -7980 0
h -10067 6970 0
h -10067 6970 0
h -10067 7980 0
h -5223 6989 10065 7977 10066 10067 0
h 5223 -6989 0
h 5223 -10065 0
h 5223 -7977 0
h 5223 -10066 0
h 5223 -10067 0
h 10068 -6970 -7985 0
h -10068 6970 0
h -10068 7985 0
h 10069 -7945 -7985 0
h -10069 7945 0
h -10069 7985 0
h 10070 -7945 -6979 0
h -10070 7945 0
h -10070 6979 0
h 10071 -6970 -6979 -7980 0
h -10071 6970 0
h -10071 6979 0
h -10071 7980 0
h -5230 6991 10068 10069 10070 10071 0
h 5230 -6991 0
h 5230 -10068 0
h 5230 -10069 0
h 5230 -10070 0
h 5230 -10071 0
h 10072 -6970 -7990 0
h -10072 6970 0
h -10072 7990 0
h 10073 -7945 -6982 0
h -10073 7945 0
h -10073 6982 0
h 10074 -7945 -7990 0
h -10074 7945 0
h -10074 7990 0
h 10075 -6970 -6982 -7980 0
h -10075 6970 0
h -10075 6982 0
h -10075 7980 0
h -5237 6993 10072 10073 10074 10075 0
h 5237 -6993 0
h 5237 -10072 0
h 5237 -10073 0
h 5237 -10074 0
h 5237 -10075 0
h 10076 -6973 -7990 0
h -10076 6973 0
h -10076 7990 0
h 10077 -7948 -7990 0
h -10077 7948 0
h -10077 7990 0
h 10078 -7948 -6982 0
h -10078 7948 0
h -10078 6982 0
h 10079 -6973 -6982 -7980 0
h -10079 6973 0
h -10079 6982 0
h -10079 7980 0
h -5244 6995 10076 10077 10078 10079 0
h 5244 -6995 0
h 5244 -10076 0
h 5244 -10077 0
h 5244 -10078 0
h 5244 -10079 0
h 10080 -6979 -7975 0
h -10080 6979 0
h -10080 7975 0
h 10081 -7985 -6976 0
h -10081 7985 0
h -10081 6976 0
h 10082 -7985 -7975 0
h -10082 7985 0
h -10082 7975 0
h 10083 -6979 -6976 -7980 0
h -10083 6979 0
h -10083 6976 0
h -10083 7980 0
h -5228 6997 10080 10081 10082 10083 0
h 5228 -6997 0
h 5228 -10080 0
h 5228 -10081 0
h 5228 -10082 0
h 5228 -10083 0
h 10084 -6979 -7948 0
h -10084 6979 0
h -10084 7948 0
h 10085 -7985 -6973 0
h -10085 7985 0
h -10085 6973 0
h 10086 -7985 -7948 0
h -10086 7985 0
h -10086 7948 0
h 10087 -6979 -6973 -7980 0
h -10087 6979 0
h -10087 6973 0
h -10087 7980 0
h -5249 6999 10084 10085 10086 10087 0
h 5249 -6999 0
h 5249 -10084 0
h 5249 -10085 0
h 5249 -10086 0
h 5249 -10087 0
h 10088 -6979 -7985 0
h -10088 6979 0
h -10088 7985 0
h 8837 -7985 -7985 0
h -8837 7985 0
h -8837 7985 0
h 10089 -7985 -6979 0
h -10089 7985 0
h -10089 6979 0
h 10090 -6979 -6979 -7980 0
h -10090 6979 0
h -10090 6979 0
h -10090 7980 0
h -5255 7001 10088 8837 10089 10090 0
h 5255 -7001 0
h 5255 -10088 0
h 5255 -8837 0
h 5255 -10089 0
h 5255 -10090 0
h 10091 -6843 -6843 0
h -10091 6843 0
h -10091 6843 0
h -3089 6849 10091 0
h 3089 -6849 0
h 3089 -10091 0
h 10092 -6843 -6854 0
h -10092 6843 0
h -10092 6854 0
h -3085 6856 10092 0
h 3085 -6856 0
h 3085 -10092 0
h 10093 -6843 -6860 0
h -10093 6843 0
h -10093 6860 0
h -3109 6863 10093 0
h 3109 -6863 0
h 3109 -10093 0
h 10094 -6865 -6860 0
h -10094 6865 0
h -10094 6860 0
h -3107 6870 10094 0
h 3107 -6870 0
h 3107 -10094 0
h 10095 -6843 -6875 0
h -10095 6843 0
h -10095 6875 0
h -3093 6877 10095 0
h 3093 -6877 0
h 3093 -10095 0
h 10096 -6843 -6881 0
h -10096 6843 0
h -10096 6881 0
h -3100 6884 10096 0
h 3100 -6884 0
h 3100 -10096 0
h 10097 -6865 -6881 0
h -10097 6865 0
h -10097 6881 0
h -3102 6889 10097 0
h 3102 -6889 0
h 3102 -10097 0
h 10098 -6854 -6865 0
h -10098 6854 0
h -10098 6865 0
h -3084 6894 10098 0
h 3084 -6894 0
h 3084 -10098 0
h 10099 -6854 -6854 0
h -10099 6854 0
h -10099 6854 0
h -3091 6899 10099 0
h 3091 -6899 0
h 3091 -10099 0
h 10100 -6854 -6875 0
h -10100 6854 0
h -10100 6875 0
h -3098 6904 10100 0
h 3098 -6904 0
h 3098 -10100 0
h 10101 -6854 -6881 0
h -10101 6854 0
h -10101 6881 0
h -3105 6909 10101 0
h 3105 -6909 0
h 3105 -10101 0
h 10102 -6860 -6881 0
h -10102 6860 0
h -10102 6881 0
h -3112 6914 10102 0
h 3112 -6914 0
h 3112 -10102 0
h 10103 -6875 -6865 0
h -10103 6875 0
h -10103 6865 0
h -3096 6919 10103 0
h 3096 -6919 0
h 3096 -10103 0
h 10104 -6875 -6860 0
h -10104 6875 0
h -10104 6860 0
h -3117 6924 10104 0
h 3117 -6924 0
h 3117 -10104 0
h 10105 -6875 -6875 0
h -10105 6875 0
h -10105 6875 0
h -3123 6929 10105 0
h 3123 -6929 0
h 3123 -10105 0
h 10106 -10107 -10108 0
h -10106 10107 0
h -10106 10108 0
h 10109 -10108 -10108 0
h -10109 10108 0
h -10109 10108 0
h 10110 -10108 -10107 0
h -10110 10108 0
h -10110 10107 0
h 10111 -10107 -10107 -10112 0
h -10111 10107 0
h -10111 10107 0
h -10111 10112 0
h -6761 10113 10106 10109 10110 10111 0
h 6761 -10113 0
h 6761 -10106 0
h 6761 -10109 0
h 6761 -10110 0
h 6761 -10111 0
h 10114 -10107 -10115 0
h -10114 10107 0
h -10114 10115 0
h 10116 -10108 -10115 0
h -10116 10108 0
h -10116 10115 0
h 10117 -10108 -10118 0
h -10117 10108 0
h -10117 10118 0
h 10119 -10107 -10118 -10112 0
h -10119 10107 0
h -10119 10118 0
h -10119 10112 0
h -6756 10120 10114 10116 10117 10119 0
h 6756 -10120 0
h 6756 -10114 0
h 6756 -10116 0
h 6756 -10117 0
h 6756 -10119 0
h 10121 -10107 -10122 0
h -10121 10107 0
h -10121 10122 0
h 10123 -10108 -10124 0
h -10123 10108 0
h -10123 10124 0
h 10125 -10108 -10122 0
h -10125 10108 0
h -10125 10122 0
h 10126 -10107 -10124 -10112 0
h -10126 10107 0
h -10126 10124 0
h -10126 10112 0
h -6755 10127 10121 10123 10125 10126 0
h 6755 -10127 0
h 6755 -10121 0
h 6755 -10123 0
h 6755 -10125 0
h 6755 -10126 0
h 10128 -10129 -10122 0
h -10128 10129 0
h -10128 10122 0
h 10130 -10131 -10122 0
h -10130 10131 0
h -10130 10122 0
h 10132 -10131 -10124 0
h -10132 10131 0
h -10132 10124 0
h 10133 -10129 -10124 -10112 0
h -10133 10129 0
h -10133 10124 0
h -10133 10112 0
h -6777 10134 10128 10130 10132 10133 0
h 6777 -10134 0
h 6777 -10128 0
h 6777 -10130 0
h 6777 -10132 0
h 6777 -10133 0
h 10135 -10107 -10136 0
h -10135 10107 0
h -10135 10136 0
h 10137 -10108 -10136 0
h -10137 10108 0
h -10137 10136 0
h 10138 -10108 -10139 0
h -10138 10108 0
h -10138 10139 0
h 10140 -10107 -10139 -10112 0
h -10140 10107 0
h -10140 10139 0
h -10140 10112 0
h -6768 10141 10135 10137 10138 10140 0
h 6768 -10141 0
h 6768 -10135 0
h 6768 -10137 0
h 6768 -10138 0
h 6768 -10140 0
h 10142 -10107 -10143 0
h -10142 10107 0
h -10142 10143 0
h 10144 -10108 -10145 0
h -10144 10108 0
h -10144 10145 0
h 10146 -10108 -10143 0
h -10146 10108 0
h -10146 10143 0
h 10147 -10107 -10145 -10112 0
h -10147 10107 0
h -10147 10145 0
h -10147 10112 0
h -6775 10148 10142 10144 10146 10147 0
h 6775 -10148 0
h 6775 -10142 0
h 6775 -10144 0
h 6775 -10146 0
h 6775 -10147 0
h 10149 -10129 -10143 0
h -10149 10129 0
h -10149 10143 0
h 10150 -10131 -10143 0
h -10150 10131 0
h -10150 10143 0
h 10151 -10131 -10145 0
h -10151 10131 0
h -10151 10145 0
h 10152 -10129 -10145 -10112 0
h -10152 10129 0
h -10152 10145 0
h -10152 10112 0
h -6782 10153 10149 10150 10151 10152 0
h 6782 -10153 0
h 6782 -10149 0
h 6782 -10150 0
h 6782 -10151 0
h 6782 -10152 0
h 10154 -10107 -10155 0
h -10154 10107 0
h -10154 10155 0
h 10156 -10108 -10155 0
h -10156 10108 0
h -10156 10155 0
h 10157 -10108 -10158 0
h -10157 10108 0
h -10157 10158 0
h 10159 -10107 -10158 -10112 0
h -10159 10107 0
h -10159 10158 0
h -10159 10112 0
h -6789 10160 10154 10156 10157 10159 0
h 6789 -10160 0
h 6789 -10154 0
h 6789 -10156 0
h 6789 -10157 0
h 6789 -10159 0
h 10161 -10107 -10162 0
h -10161 10107 0
h -10161 10162 0
h 10163 -10108 -10164 0
h -10163 10108 0
h -10163 10164 0
h 10165 -10108 -10162 0
h -10165 10108 0
h -10165 10162 0
h 10166 -10107 -10164 -10112 0
h -10166 10107 0
h -10166 10164 0
h -10166 10112 0
h -6796 10167 10161 10163 10165 10166 0
h 6796 -10167 0
h 6796 -10161 0
h 6796 -10163 0
h 6796 -10165 0
h 6796 -10166 0
h 10168 -10129 -10162 0
h -10168 10129 0
h -10168 10162 0
h 10169 -10131 -10162 0
h -10169 10131 0
h -10169 10162 0
h 10170 -10131 -10164 0
h -10170 10131 0
h -10170 10164 0
h 10171 -10129 -10164 -10112 0
h -10171 10129 0
h -10171 10164 0
h -10171 10112 0
h -6801 10172 10168 10169 10170 10171 0
h 6801 -10172 0
h 6801 -10168 0
h 6801 -10169 0
h 6801 -10170 0
h 6801 -10171 0
h 10173 -10118 -10131 0
h -10173 10118 0
h -10173 10131 0
h 10174 -10115 -10129 0
h -10174 10115 0
h -10174 10129 0
h 10175 -10115 -10131 0
h -10175 10115 0
h -10175 10131 0
h 10176 -10118 -10129 -10112 0
h -10176 10118 0
h -10176 10129 0
h -10176 10112 0
h -6779 10177 10173 10174 10175 10176 0
h 6779 -10177 0
h 6779 -10173 0
h 6779 -10174 0
h 6779 -10175 0
h 6779 -10176 0
h 10178 -10118 -10115 0
h -10178 10118 0
h -10178 10115 0
h 10179 -10115 -10115 0
h -10179 10115 0
h -10179 10115 0
h 10180 -10115 -10118 0
h -10180 10115 0
h -10180 10118 0
h 10181 -10118 -10118 -10112 0
h -10181 10118 0
h -10181 10118 0
h -10181 10112 0
h -6760 10182 10178 10179 10180 10181 0
h 6760 -10182 0
h 6760 -10178 0
h 6760 -10179 0
h 6760 -10180 0
h 6760 -10181 0
h 10183 -10118 -10136 0
h -10183 10118 0
h -10183 10136 0
h 10184 -10115 -10136 0
h -10184 10115 0
h -10184 10136 0
h 10185 -10115 -10139 0
h -10185 10115 0
h -10185 10139 0
h 10186 -10118 -10139 -10112 0
h -10186 10118 0
h -10186 10139 0
h -10186 10112 0
h -6763 10187 10183 10184 10185 10186 0
h 6763 -10187 0
h 6763 -10183 0
h 6763 -10184 0
h 6763 -10185 0
h 6763 -10186 0
h 10188 -10118 -10143 0
h -10188 10118 0
h -10188 10143 0
h 10189 -10115 -10145 0
h -10189 10115 0
h -10189 10145 0
h 10190 -10115 -10143 0
h -10190 10115 0
h -10190 10143 0
h 10191 -10118 -10145 -10112 0
h -10191 10118 0
h -10191 10145 0
h -10191 10112 0
h -6770 10192 10188 10189 10190 10191 0
h 6770 -10192 0
h 6770 -10188 0
h 6770 -10189 0
h 6770 -10190 0
h 6770 -10191 0
h 10193 -10124 -10143 0
h -10193 10124 0
h -10193 10143 0
h 10194 -10122 -10143 0
h -10194 10122 0
h -10194 10143 0
h 10195 -10122 -10145 0
h -10195 10122 0
h -10195 10145 0
h 10196 -10124 -10145 -10112 0
h -10196 10124 0
h -10196 10145 0
h -10196 10112 0
h -6772 10197 10193 10194 10195 10196 0
h 6772 -10197 0
h 6772 -10193 0
h 6772 -10194 0
h 6772 -10195 0
h 6772 -10196 0
h 10198 -10118 -10155 0
h -10198 10118 0
h -10198 10155 0
h 10199 -10115 -10155 0
h -10199 10115 0
h -10199 10155 0
h 10200 -10115 -10158 0
h -10200 10115 0
h -10200 10158 0
h 10201 -10118 -10158 -10112 0
h -10201 10118 0
h -10201 10158 0
h -10201 10112 0
h -6784 10202 10198 10199 10200 10201 0
h 6784 -10202 0
h 6784 -10198 0
h 6784 -10199 0
h 6784 -10200 0
h 6784 -10201 0
h 10203 -10118 -10162 0
h -10203 10118 0
h -10203 10162 0
h 10204 -10115 -10164 0
h -10204 10115 0
h -10204 10164 0
h 10205 -10115 -10162 0
h -10205 10115 0
h -10205 10162 0
h 10206 -10118 -10164 -10112 0
h -10206 10118 0
h -10206 10164 0
h -10206 10112 0
h -6791 10207 10203 10204 10205 10206 0
h 6791 -10207 0
h 6791 -10203 0
h 6791 -10204 0
h 6791 -10205 0
h 6791 -10206 0
h 10208 -10124 -10162 0
h -10208 10124 0
h -10208 10162 0
h 10209 -10122 -10162 0
h -10209 10122 0
h -10209 10162 0
h 10210 -10122 -10164 0
h -10210 10122 0
h -10210 10164 0
h 10211 -10124 -10164 -10112 0
h -10211 10124 0
h -10211 10164 0
h -10211 10112 0
h -6793 10212 10208 10209 10210 10211 0
h 6793 -10212 0
h 6793 -10208 0
h 6793 -10209 0
h 6793 -10210 0
h 6793 -10211 0
h 10213 -10139 -10131 0
h -10213 10139 0
h -10213 10131 0
h 10214 -10136 -10129 0
h -10214 10136 0
h -10214 10129 0
h 10215 -10136 -10131 0
h -10215 10136 0
h -10215 10131 0
h 10216 -10139 -10129 -10112 0
h -10216 10139 0
h -10216 10129 0
h -10216 10112 0
h -6806 10217 10213 10214 10215 10216 0
h 6806 -10217 0
h 6806 -10213 0
h 6806 -10214 0
h 6806 -10215 0
h 6806 -10216 0
h 10218 -10139 -10122 0
h -10218 10139 0
h -10218 10122 0
h 10219 -10136 -10124 0
h -10219 10136 0
h -10219 10124 0
h 10220 -10136 -10122 0
h -10220 10136 0
h -10220 10122 0
h 10221 -10139 -10124 -10112 0
h -10221 10139 0
h -10221 10124 0
h -10221 10112 0
h -6766 10222 10218 10219 10220 10221 0
h 6766 -10222 0
h 6766 -10218 0
h 6766 -10219 0
h 6766 -10220 0
h 6766 -10221 0
h 10223 -10139 -10136 0
h -10223 10139 0
h -10223 10136 0
h 10224 -10136 -10136 0
h -10224 10136 0
h -10224 10136 0
h 10225 -10136 -10139 0
h -10225 10136 0
h -10225 10139 0
h 10226 -10139 -10139 -10112 0
h -10226 10139 0
h -10226 10139 0
h -10226 10112 0
h -6811 10227 10223 10224 10225 10226 0
h 6811 -10227 0
h 6811 -10223 0
h 6811 -10224 0
h 6811 -10225 0
h 6811 -10226 0
h 10228 -10139 -10155 0
h -10228 10139 0
h -10228 10155 0
h 10229 -10136 -10155 0
h -10229 10136 0
h -10229 10155 0
h 10230 -10136 -10158 0
h -10230 10136 0
h -10230 10158 0
h 10231 -10139 -10158 -10112 0
h -10231 10139 0
h -10231 10158 0
h -10231 10112 0
h -6816 10232 10228 10229 10230 10231 0
h 6816 -10232 0
h 6816 -10228 0
h 6816 -10229 0
h 6816 -10230 0
h 6816 -10231 0
h 10233 -10139 -10162 0
h -10233 10139 0
h -10233 10162 0
h 10234 -10136 -10164 0
h -10234 10136 0
h -10234 10164 0
h 10235 -10136 -10162 0
h -10235 10136 0
h -10235 10162 0
h 10236 -10139 -10164 -10112 0
h -10236 10139 0
h -10236 10164 0
h -10236 10112 0
h -6821 10237 10233 10234 10235 10236 0
h 6821 -10237 0
h 6821 -10233 0
h 6821 -10234 0
h 6821 -10235 0
h 6821 -10236 0
h 10238 -10145 -10162 0
h -10238 10145 0
h -10238 10162 0
h 10239 -10143 -10162 0
h -10239 10143 0
h -10239 10162 0
h 10240 -10143 -10164 0
h -10240 10143 0
h -10240 10164 0
h 10241 -10145 -10164 -10112 0
h -10241 10145 0
h -10241 10164 0
h -10241 10112 0
h -6826 10242 10238 10239 10240 10241 0
h 6826 -10242 0
h 6826 -10238 0
h 6826 -10239 0
h 6826 -10240 0
h 6826 -10241 0
h 10243 -10158 -10131 0
h -10243 10158 0
h -10243 10131 0
h 10244 -10155 -10129 0
h -10244 10155 0
h -10244 10129 0
h 10245 -10155 -10131 0
h -10245 10155 0
h -10245 10131 0
h 10246 -10158 -10129 -10112 0
h -10246 10158 0
h -10246 10129 0
h -10246 10112 0
h -6831 10247 10243 10244 10245 10246 0
h 6831 -10247 0
h 6831 -10243 0
h 6831 -10244 0
h 6831 -10245 0
h 6831 -10246 0
h 10248 -10158 -10122 0
h -10248 10158 0
h -10248 10122 0
h 10249 -10155 -10124 0
h -10249 10155 0
h -10249 10124 0
h 10250 -10155 -10122 0
h -10250 10155 0
h -10250 10122 0
h 10251 -10158 -10124 -10112 0
h -10251 10158 0
h -10251 10124 0
h -10251 10112 0
h -6787 10252 10248 10249 10250 10251 0
h 6787 -10252 0
h 6787 -10248 0
h 6787 -10249 0
h 6787 -10250 0
h 6787 -10251 0
h 10253 -10158 -10143 0
h -10253 10158 0
h -10253 10143 0
h 10254 -10155 -10145 0
h -10254 10155 0
h -10254 10145 0
h 10255 -10155 -10143 0
h -10255 10155 0
h -10255 10143 0
h 10256 -10158 -10145 -10112 0
h -10256 10158 0
h -10256 10145 0
h -10256 10112 0
h -6836 10257 10253 10254 10255 10256 0
h 6836 -10257 0
h 6836 -10253 0
h 6836 -10254 0
h 6836 -10255 0
h 6836 -10256 0
h 10258 -10158 -10155 0
h -10258 10158 0
h -10258 10155 0
h 10259 -10155 -10155 0
h -10259 10155 0
h -10259 10155 0
h 10260 -10155 -10158 0
h -10260 10155 0
h -10260 10158 0
h 10261 -10158 -10158 -10112 0
h -10261 10158 0
h -10261 10158 0
h -10261 10112 0
h -6841 10262 10258 10259 10260 10261 0
h 6841 -10262 0
h 6841 -10258 0
h 6841 -10259 0
h 6841 -10260 0
h 6841 -10261 0
h 10263 -10264 -10264 0
h -10263 10264 0
h -10263 10264 0
h -8179 10265 10263 0
h 8179 -10265 0
h 8179 -10263 0
h 10266 -10264 -10267 0
h -10266 10264 0
h -10266 10267 0
h -9819 10268 10266 0
h 9819 -10268 0
h 9819 -10266 0
h 10269 -10264 -10270 0
h -10269 10264 0
h -10269 10270 0
h -8178 10271 10269 0
h 8178 -10271 0
h 8178 -10269 0
h 10272 -10273 -10270 0
h -10272 10273 0
h -10272 10270 0
h -8187 10274 10272 0
h 8187 -10274 0
h 8187 -10272 0
h 10275 -10264 -10276 0
h -10275 10264 0
h -10275 10276 0
h -8182 10277 10275 0
h 8182 -10277 0
h 8182 -10275 0
h 10278 -10264 -10279 0
h -10278 10264 0
h -10278 10279 0
h -8185 10280 10278 0
h 8185 -10280 0
h 8185 -10278 0
h 10281 -10273 -10279 0
h -10281 10273 0
h -10281 10279 0
h -8188 10282 10281 0
h 8188 -10282 0
h 8188 -10281 0
h 10283 -10264 -10284 0
h -10283 10264 0
h -10283 10284 0
h -8191 10285 10283 0
h 8191 -10285 0
h 8191 -10283 0
h 10286 -10264 -10287 0
h -10286 10264 0
h -10286 10287 0
h -8194 10288 10286 0
h 8194 -10288 0
h 8194 -10286 0
h 10289 -10273 -10287 0
h -10289 10273 0
h -10289 10287 0
h -8196 10290 10289 0
h 8196 -10290 0
h 8196 -10289 0
h 10291 -10267 -10273 0
h -10291 10267 0
h -10291 10273 0
h -9836 10292 10291 0
h 9836 -10292 0
h 9836 -10291 0
h 10293 -10267 -10267 0
h -10293 10267 0
h -10293 10267 0
h -9823 10294 10293 0
h 9823 -10294 0
h 9823 -10293 0
h 10295 -10267 -10276 0
h -10295 10267 0
h -10295 10276 0
h -9825 10296 10295 0
h 9825 -10296 0
h 9825 -10295 0
h 10297 -10267 -10279 0
h -10297 10267 0
h -10297 10279 0
h -9830 10298 10297 0
h 9830 -10298 0
h 9830 -10297 0
h 10299 -10270 -10279 0
h -10299 10270 0
h -10299 10279 0
h -8184 10300 10299 0
h 8184 -10300 0
h 8184 -10299 0
h 10301 -10267 -10284 0
h -10301 10267 0
h -10301 10284 0
h -9840 10302 10301 0
h 9840 -10302 0
h 9840 -10301 0
h 10303 -10267 -10287 0
h -10303 10267 0
h -10303 10287 0
h -9845 10304 10303 0
h 9845 -10304 0
h 9845 -10303 0
h 10305 -10270 -10287 0
h -10305 10270 0
h -10305 10287 0
h -8193 10306 10305 0
h 8193 -10306 0
h 8193 -10305 0
h 10307 -10276 -10273 0
h -10307 10276 0
h -10307 10273 0
h -8198 10308 10307 0
h 8198 -10308 0
h 8198 -10307 0
h 10309 -10276 -10270 0
h -10309 10276 0
h -10309 10270 0
h -8181 10310 10309 0
h 8181 -10310 0
h 8181 -10309 0
h 10311 -10276 -10276 0
h -10311 10276 0
h -10311 10276 0
h -8200 10312 10311 0
h 8200 -10312 0
h 8200 -10311 0
h 10313 -10276 -10284 0
h -10313 10276 0
h -10313 10284 0
h -8202 10314 10313 0
h 8202 -10314 0
h 8202 -10313 0
h 10315 -10276 -10287 0
h -10315 10276 0
h -10315 10287 0
h -8204 10316 10315 0
h 8204 -10316 0
h 8204 -10315 0
h 10317 -10279 -10287 0
h -10317 10279 0
h -10317 10287 0
h -8206 10318 10317 0
h 8206 -10318 0
h 8206 -10317 0
h 10319 -10284 -10273 0
h -10319 10284 0
h -10319 10273 0
h -8208 10320 10319 0
h 8208 -10320 0
h 8208 -10319 0
h 10321 -10284 -10270 0
h -10321 10284 0
h -10321 10270 0
h -8190 10322 10321 0
h 8190 -10322 0
h 8190 -10321 0
h 10323 -10284 -10279 0
h -10323 10284 0
h -10323 10279 0
h -8210 10324 10323 0
h 8210 -10324 0
h 8210 -10323 0
h 10325 -10284 -10284 0
h -10325 10284 0
h -10325 10284 0
h -8212 10326 10325 0
h 8212 -10326 0
h 8212 -10325 0
h 10327 -10328 -10329 0
h -10327 10328 0
h -10327 10329 0
h 10330 -10329 -10329 0
h -10330 10329 0
h -10330 10329 0
h 10331 -10329 -10328 0
h -10331 10329 0
h -10331 10328 0
h 10332 -10328 -10328 -10333 0
h -10332 10328 0
h -10332 10328 0
h -10332 10333 0
h -8415 10334 10327 10330 10331 10332 0
h 8415 -10334 0
h 8415 -10327 0
h 8415 -10330 0
h 8415 -10331 0
h 8415 -10332 0
h 10335 -10328 -10336 0
h -10335 10328 0
h -10335 10336 0
h 10337 -10329 -10336 0
h -10337 10329 0
h -10337 10336 0
h 10338 -10329 -10339 0
h -10338 10329 0
h -10338 10339 0
h 10340 -10328 -10339 -10333 0
h -10340 10328 0
h -10340 10339 0
h -10340 10333 0
h -9752 10341 10335 10337 10338 10340 0
h 9752 -10341 0
h 9752 -10335 0
h 9752 -10337 0
h 9752 -10338 0
h 9752 -10340 0
h 10342 -10328 -10343 0
h -10342 10328 0
h -10342 10343 0
h 10344 -10329 -10345 0
h -10344 10329 0
h -10344 10345 0
h 10346 -10329 -10343 0
h -10346 10329 0
h -10346 10343 0
h 10347 -10328 -10345 -10333 0
h -10347 10328 0
h -10347 10345 0
h -10347 10333 0
h -8414 10348 10342 10344 10346 10347 0
h 8414 -10348 0
h 8414 -10342 0
h 8414 -10344 0
h 8414 -10346 0
h 8414 -10347 0
h 10349 -10350 -10343 0
h -10349 10350 0
h -10349 10343 0
h 10351 -10352 -10343 0
h -10351 10352 0
h -10351 10343 0
h 10353 -10352 -10345 0
h -10353 10352 0
h -10353 10345 0
h 10354 -10350 -10345 -10333 0
h -10354 10350 0
h -10354 10345 0
h -10354 10333 0
h -8423 10355 10349 10351 10353 10354 0
h 8423 -10355 0
h 8423 -10349 0
h 8423 -10351 0
h 8423 -10353 0
h 8423 -10354 0
h 10356 -10328 -10357 0
h -10356 10328 0
h -10356 10357 0
h 10358 -10329 -10357 0
h -10358 10329 0
h -10358 10357 0
h 10359 -10329 -10360 0
h -10359 10329 0
h -10359 10360 0
h 10361 -10328 -10360 -10333 0
h -10361 10328 0
h -10361 10360 0
h -10361 10333 0
h -8418 10362 10356 10358 10359 10361 0
h 8418 -10362 0
h 8418 -10356 0
h 8418 -10358 0
h 8418 -10359 0
h 8418 -10361 0
h 10363 -10328 -10364 0
h -10363 10328 0
h -10363 10364 0
h 10365 -10329 -10366 0
h -10365 10329 0
h -10365 10366 0
h 10367 -10329 -10364 0
h -10367 10329 0
h -10367 10364 0
h 10368 -10328 -10366 -10333 0
h -10368 10328 0
h -10368 10366 0
h -10368 10333 0
h -8421 10369 10363 10365 10367 10368 0
h 8421 -10369 0
h 8421 -10363 0
h 8421 -10365 0
h 8421 -10367 0
h 8421 -10368 0
h 10370 -10350 -10364 0
h -10370 10350 0
h -10370 10364 0
h 10371 -10352 -10364 0
h -10371 10352 0
h -10371 10364 0
h 10372 -10352 -10366 0
h -10372 10352 0
h -10372 10366 0
h 10373 -10350 -10366 -10333 0
h -10373 10350 0
h -10373 10366 0
h -10373 10333 0
h -8424 10374 10370 10371 10372 10373 0
h 8424 -10374 0
h 8424 -10370 0
h 8424 -10371 0
h 8424 -10372 0
h 8424 -10373 0
h 10375 -10328 -10376 0
h -10375 10328 0
h -10375 10376 0
h 10377 -10329 -10376 0
h -10377 10329 0
h -10377 10376 0
h 10378 -10329 -10379 0
h -10378 10329 0
h -10378 10379 0
h 10380 -10328 -10379 -10333 0
h -10380 10328 0
h -10380 10379 0
h -10380 10333 0
h -8427 10381 10375 10377 10378 10380 0
h 8427 -10381 0
h 8427 -10375 0
h 8427 -10377 0
h 8427 -10378 0
h 8427 -10380 0
h 10382 -10328 -10383 0
h -10382 10328 0
h -10382 10383 0
h 10384 -10329 -10385 0
h -10384 10329 0
h -10384 10385 0
h 10386 -10329 -10383 0
h -10386 10329 0
h -10386 10383 0
h 10387 -10328 -10385 -10333 0
h -10387 10328 0
h -10387 10385 0
h -10387 10333 0
h -8430 10388 10382 10384 10386 10387 0
h 8430 -10388 0
h 8430 -10382 0
h 8430 -10384 0
h 8430 -10386 0
h 8430 -10387 0
h 10389 -10350 -10383 0
h -10389 10350 0
h -10389 10383 0
h 10390 -10352 -10383 0
h -10390 10352 0
h -10390 10383 0
h 10391 -10352 -10385 0
h -10391 10352 0
h -10391 10385 0
h 10392 -10350 -10385 -10333 0
h -10392 10350 0
h -10392 10385 0
h -10392 10333 0
h -8432 10393 10389 10390 10391 10392 0
h 8432 -10393 0
h 8432 -10389 0
h 8432 -10390 0
h 8432 -10391 0
h 8432 -10392 0
h 10394 -10339 -10352 0
h -10394 10339 0
h -10394 10352 0
h 10395 -10336 -10350 0
h -10395 10336 0
h -10395 10350 0
h 10396 -10336 -10352 0
h -10396 10336 0
h -10396 10352 0
h 10397 -10339 -10350 -10333 0
h -10397 10339 0
h -10397 10350 0
h -10397 10333 0
h -9769 10398 10394 10395 10396 10397 0
h 9769 -10398 0
h 9769 -10394 0
h 9769 -10395 0
h 9769 -10396 0
h 9769 -10397 0
h 10399 -10339 -10336 0
h -10399 10339 0
h -10399 10336 0
h 10400 -10336 -10336 0
h -10400 10336 0
h -10400 10336 0
h 10401 -10336 -10339 0
h -10401 10336 0
h -10401 10339 0
h 10402 -10339 -10339 -10333 0
h -10402 10339 0
h -10402 10339 0
h -10402 10333 0
h -9756 10403 10399 10400 10401 10402 0
h 9756 -10403 0
h 9756 -10399 0
h 9756 -10400 0
h 9756 -10401 0
h 9756 -10402 0
h 10404 -10339 -10357 0
h -10404 10339 0
h -10404 10357 0
h 10405 -10336 -10357 0
h -10405 10336 0
h -10405 10357 0
h 10406 -10336 -10360 0
h -10406 10336 0
h -10406 10360 0
h 10407 -10339 -10360 -10333 0
h -10407 10339 0
h -10407 10360 0
h -10407 10333 0
h -9758 10408 10404 10405 10406 10407 0
h 9758 -10408 0
h 9758 -10404 0
h 9758 -10405 0
h 9758 -10406 0
h 9758 -10407 0
h 10409 -10339 -10364 0
h -10409 10339 0
h -10409 10364 0
h 10410 -10336 -10366 0
h -10410 10336 0
h -10410 10366 0
h 10411 -10336 -10364 0
h -10411 10336 0
h -10411 10364 0
h 10412 -10339 -10366 -10333 0
h -10412 10339 0
h -10412 10366 0
h -10412 10333 0
h -9763 10413 10409 10410 10411 10412 0
h 9763 -10413 0
h 9763 -10409 0
h 9763 -10410 0
h 9763 -10411 0
h 9763 -10412 0
h 10414 -10345 -10364 0
h -10414 10345 0
h -10414 10364 0
h 10415 -10343 -10364 0
h -10415 10343 0
h -10415 10364 0
h 10416 -10343 -10366 0
h -10416 10343 0
h -10416 10366 0
h 10417 -10345 -10366 -10333 0
h -10417 10345 0
h -10417 10366 0
h -10417 10333 0
h -8420 10418 10414 10415 10416 10417 0
h 8420 -10418 0
h 8420 -10414 0
h 8420 -10415 0
h 8420 -10416 0
h 8420 -10417 0
h 10419 -10339 -10376 0
h -10419 10339 0
h -10419 10376 0
h 10420 -10336 -10376 0
h -10420 10336 0
h -10420 10376 0
h 10421 -10336 -10379 0
h -10421 10336 0
h -10421 10379 0
h 10422 -10339 -10379 -10333 0
h -10422 10339 0
h -10422 10379 0
h -10422 10333 0
h -9773 10423 10419 10420 10421 10422 0
h 9773 -10423 0
h 9773 -10419 0
h 9773 -10420 0
h 9773 -10421 0
h 9773 -10422 0
h 10424 -10339 -10383 0
h -10424 10339 0
h -10424 10383 0
h 10425 -10336 -10385 0
h -10425 10336 0
h -10425 10385 0
h 10426 -10336 -10383 0
h -10426 10336 0
h -10426 10383 0
h 10427 -10339 -10385 -10333 0
h -10427 10339 0
h -10427 10385 0
h -10427 10333 0
h -9778 10428 10424 10425 10426 10427 0
h 9778 -10428 0
h 9778 -10424 0
h 9778 -10425 0
h 9778 -10426 0
h 9778 -10427 0
h 10429 -10345 -10383 0
h -10429 10345 0
h -10429 10383 0
h 10430 -10343 -10383 0
h -10430 10343 0
h -10430 10383 0
h 10431 -10343 -10385 0
h -10431 10343 0
h -10431 10385 0
h 10432 -10345 -10385 -10333 0
h -10432 10345 0
h -10432 10385 0
h -10432 10333 0
h -8429 10433 10429 10430 10431 10432 0
h 8429 -10433 0
h 8429 -10429 0
h 8429 -10430 0
h 8429 -10431 0
h 8429 -10432 0
h 10434 -10360 -10352 0
h -10434 10360 0
h -10434 10352 0
h 10435 -10357 -10350 0
h -10435 10357 0
h -10435 10350 0
h 10436 -10357 -10352 0
h -10436 10357 0
h -10436 10352 0
h 10437 -10360 -10350 -10333 0
h -10437 10360 0
h -10437 10350 0
h -10437 10333 0
h -8434 10438 10434 10435 10436 10437 0
h 8434 -10438 0
h 8434 -10434 0
h 8434 -10435 0
h 8434 -10436 0
h 8434 -10437 0
h 10439 -10360 -10343 0
h -10439 10360 0
h -10439 10343 0
h 10440 -10357 -10345 0
h -10440 10357 0
h -10440 10345 0
h 10441 -10357 -10343 0
h -10441 10357 0
h -10441 10343 0
h 10442 -10360 -10345 -10333 0
h -10442 10360 0
h -10442 10345 0
h -10442 10333 0
h -8417 10443 10439 10440 10441 10442 0
h 8417 -10443 0
h 8417 -10439 0
h 8417 -10440 0
h 8417 -10441 0
h 8417 -10442 0
h 10444 -10360 -10357 0
h -10444 10360 0
h -10444 10357 0
h 10445 -10357 -10357 0
h -10445 10357 0
h -10445 10357 0
h 10446 -10357 -10360 0
h -10446 10357 0
h -10446 10360 0
h 10447 -10360 -10360 -10333 0
h -10447 10360 0
h -10447 10360 0
h -10447 10333 0
h -8436 10448 10444 10445 10446 10447 0
h 8436 -10448 0
h 8436 -10444 0
h 8436 -10445 0
h 8436 -10446 0
h 8436 -10447 0
h 10449 -10360 -10376 0
h -10449 10360 0
h -10449 10376 0
h 10450 -10357 -10376 0
h -10450 10357 0
h -10450 10376 0
h 10451 -10357 -10379 0
h -10451 10357 0
h -10451 10379 0
h 10452 -10360 -10379 -10333 0
h -10452 10360 0
h -10452 10379 0
h -10452 10333 0
h -8438 10453 10449 10450 10451 10452 0
h 8438 -10453 0
h 8438 -10449 0
h 8438 -10450 0
h 8438 -10451 0
h 8438 -10452 0
h 10454 -10360 -10383 0
h -10454 10360 0
h -10454 10383 0
h 10455 -10357 -10385 0
h -10455 10357 0
h -10455 10385 0
h 10456 -10357 -10383 0
h -10456 10357 0
h -10456 10383 0
h 10457 -10360 -10385 -10333 0
h -10457 10360 0
h -10457 10385 0
h -10457 10333 0
h -8440 10458 10454 10455 10456 10457 0
h 8440 -10458 0
h 8440 -10454 0
h 8440 -10455 0
h 8440 -10456 0
h 8440 -10457 0
h 10459 -10366 -10383 0
h -10459 10366 0
h -10459 10383 0
h 10460 -10364 -10383 0
h -10460 10364 0
h -10460 10383 0
h 10461 -10364 -10385 0
h -10461 10364 0
h -10461 10385 0
h 10462 -10366 -10385 -10333 0
h -10462 10366 0
h -10462 10385 0
h -10462 10333 0
h -8442 10463 10459 10460 10461 10462 0
h 8442 -10463 0
h 8442 -10459 0
h 8442 -10460 0
h 8442 -10461 0
h 8442 -10462 0
h 10464 -10379 -10352 0
h -10464 10379 0
h -10464 10352 0
h 10465 -10376 -10350 0
h -10465 10376 0
h -10465 10350 0
h 10466 -10376 -10352 0
h -10466 10376 0
h -10466 10352 0
h 10467 -10379 -10350 -10333 0
h -10467 10379 0
h -10467 10350 0
h -10467 10333 0
h -8444 10468 10464 10465 10466 10467 0
h 8444 -10468 0
h 8444 -10464 0
h 8444 -10465 0
h 8444 -10466 0
h 8444 -10467 0
h 10469 -10379 -10343 0
h -10469 10379 0
h -10469 10343 0
h 10470 -10376 -10345 0
h -10470 10376 0
h -10470 10345 0
h 10471 -10376 -10343 0
h -10471 10376 0
h -10471 10343 0
h 10472 -10379 -10345 -10333 0
h -10472 10379 0
h -10472 10345 0
h -10472 10333 0
h -8426 10473 10469 10470 10471 10472 0
h 8426 -10473 0
h 8426 -10469 0
h 8426 -10470 0
h 8426 -10471 0
h 8426 -10472 0
h 10474 -10379 -10364 0
h -10474 10379 0
h -10474 10364 0
h 10475 -10376 -10366 0
h -10475 10376 0
h -10475 10366 0
h 10476 -10376 -10364 0
h -10476 10376 0
h -10476 10364 0
h 10477 -10379 -10366 -10333 0
h -10477 10379 0
h -10477 10366 0
h -10477 10333 0
h -8446 10478 10474 10475 10476 10477 0
h 8446 -10478 0
h 8446 -10474 0
h 8446 -10475 0
h 8446 -10476 0
h 8446 -10477 0
h 10479 -10379 -10376 0
h -10479 10379 0
h -10479 10376 0
h 10480 -10376 -10376 0
h -10480 10376 0
h -10480 10376 0
h 10481 -10376 -10379 0
h -10481 10376 0
h -10481 10379 0
h 10482 -10379 -10379 -10333 0
h -10482 10379 0
h -10482 10379 0
h -10482 10333 0
h -8448 10483 10479 10480 10481 10482 0
h 8448 -10483 0
h 8448 -10479 0
h 8448 -10480 0
h 8448 -10481 0
h 8448 -10482 0
h 10484 -10485 -10485 0
h -10484 10485 0
h -10484 10485 0
h -7906 10486 10484 0
h 7906 -10486 0
h 7906 -10484 0
h 10487 -10485 -10488 0
h -10487 10485 0
h -10487 10488 0
h -8896 10489 10487 0
h 8896 -10489 0
h 8896 -10487 0
h 10490 -10485 -10491 0
h -10490 10485 0
h -10490 10491 0
h -7905 10492 10490 0
h 7905 -10492 0
h 7905 -10490 0
h 10493 -10494 -10491 0
h -10493 10494 0
h -10493 10491 0
h -7914 10495 10493 0
h 7914 -10495 0
h 7914 -10493 0
h 10496 -10485 -10497 0
h -10496 10485 0
h -10496 10497 0
h -7909 10498 10496 0
h 7909 -10498 0
h 7909 -10496 0
h 10499 -10485 -10500 0
h -10499 10485 0
h -10499 10500 0
h -7912 10501 10499 0
h 7912 -10501 0
h 7912 -10499 0
h 10502 -10494 -10500 0
h -10502 10494 0
h -10502 10500 0
h -7915 10503 10502 0
h 7915 -10503 0
h 7915 -10502 0
h 10504 -10485 -10505 0
h -10504 10485 0
h -10504 10505 0
h -7918 10506 10504 0
h 7918 -10506 0
h 7918 -10504 0
h 10507 -10485 -10508 0
h -10507 10485 0
h -10507 10508 0
h -7921 10509 10507 0
h 7921 -10509 0
h 7921 -10507 0
h 10510 -10494 -10508 0
h -10510 10494 0
h -10510 10508 0
h -7923 10511 10510 0
h 7923 -10511 0
h 7923 -10510 0
h 10512 -10488 -10494 0
h -10512 10488 0
h -10512 10494 0
h -8903 10513 10512 0
h 8903 -10513 0
h 8903 -10512 0
h 10514 -10488 -10488 0
h -10514 10488 0
h -10514 10488 0
h -8905 10515 10514 0
h 8905 -10515 0
h 8905 -10514 0
h 10516 -10488 -10497 0
h -10516 10488 0
h -10516 10497 0
h -9607 10517 10516 0
h 9607 -10517 0
h 9607 -10516 0
h 10518 -10488 -10500 0
h -10518 10488 0
h -10518 10500 0
h -8895 10519 10518 0
h 8895 -10519 0
h 8895 -10518 0
h 10520 -10491 -10500 0
h -10520 10491 0
h -10520 10500 0
h -7911 10521 10520 0
h 7911 -10521 0
h 7911 -10520 0
h 10522 -10488 -10505 0
h -10522 10488 0
h -10522 10505 0
h -8907 10523 10522 0
h 8907 -10523 0
h 8907 -10522 0
h 10524 -10488 -10508 0
h -10524 10488 0
h -10524 10508 0
h -8909 10525 10524 0
h 8909 -10525 0
h 8909 -10524 0
h 10526 -10491 -10508 0
h -10526 10491 0
h -10526 10508 0
h -7920 10527 10526 0
h 7920 -10527 0
h 7920 -10526 0
h 10528 -10497 -10494 0
h -10528 10497 0
h -10528 10494 0
h -7925 10529 10528 0
h 7925 -10529 0
h 7925 -10528 0
h 10530 -10497 -10491 0
h -10530 10497 0
h -10530 10491 0
h -7908 10531 10530 0
h 7908 -10531 0
h 7908 -10530 0
h 10532 -10497 -10497 0
h -10532 10497 0
h -10532 10497 0
h -7927 10533 10532 0
h 7927 -10533 0
h 7927 -10532 0
h 10534 -10497 -10505 0
h -10534 10497 0
h -10534 10505 0
h -7929 10535 10534 0
h 7929 -10535 0
h 7929 -10534 0
h 10536 -10497 -10508 0
h -10536 10497 0
h -10536 10508 0
h -7931 10537 10536 0
h 7931 -10537 0
h 7931 -10536 0
h 10538 -10500 -10508 0
h -10538 10500 0
h -10538 10508 0
h -7933 10539 10538 0
h 7933 -10539 0
h 7933 -10538 0
h 10540 -10505 -10494 0
h -10540 10505 0
h -10540 10494 0
h -7935 10541 10540 0
h 7935 -10541 0
h 7935 -10540 0
h 10542 -10505 -10491 0
h -10542 10505 0
h -10542 10491 0
h -7917 10543 10542 0
h 7917 -10543 0
h 7917 -10542 0
h 10544 -10505 -10500 0
h -10544 10505 0
h -10544 10500 0
h -7937 10545 10544 0
h 7937 -10545 0
h 7937 -10544 0
h 10546 -10505 -10505 0
h -10546 10505 0
h -10546 10505 0
h -7939 10547 10546 0
h 7939 -10547 0
h 7939 -10546 0
h 10548 -10280 -10280 0
h -10548 10280 0
h -10548 10280 0
h -6544 10265 10548 0
h 6544 -10265 0
h 6544 -10548 0
h 10549 -10280 -10298 0
h -10549 10280 0
h -10549 10298 0
h -8096 10268 10549 0
h 8096 -10268 0
h 8096 -10549 0
h 10550 -10280 -10300 0
h -10550 10280 0
h -10550 10300 0
h -6543 10271 10550 0
h 6543 -10271 0
h 6543 -10550 0
h 10551 -10282 -10300 0
h -10551 10282 0
h -10551 10300 0
h -6552 10274 10551 0
h 6552 -10274 0
h 6552 -10551 0
h 10552 -10280 -10553 0
h -10552 10280 0
h -10552 10553 0
h -6547 10554 10552 0
h 6547 -10554 0
h 6547 -10552 0
h 10555 -10280 -10279 0
h -10555 10280 0
h -10555 10279 0
h -6550 10264 10555 0
h 6550 -10264 0
h 6550 -10555 0
h 10556 -10282 -10279 0
h -10556 10282 0
h -10556 10279 0
h -6553 10273 10556 0
h 6553 -10273 0
h 6553 -10556 0
h 10557 -10280 -10324 0
h -10557 10280 0
h -10557 10324 0
h -6556 10285 10557 0
h 6556 -10285 0
h 6556 -10557 0
h 10558 -10280 -10318 0
h -10558 10280 0
h -10558 10318 0
h -6559 10288 10558 0
h 6559 -10288 0
h 6559 -10558 0
h 10559 -10282 -10318 0
h -10559 10282 0
h -10559 10318 0
h -6561 10290 10559 0
h 6561 -10290 0
h 6561 -10559 0
h 10560 -10298 -10282 0
h -10560 10298 0
h -10560 10282 0
h -8113 10292 10560 0
h 8113 -10292 0
h 8113 -10560 0
h 10561 -10298 -10298 0
h -10561 10298 0
h -10561 10298 0
h -8100 10294 10561 0
h 8100 -10294 0
h 8100 -10561 0
h 10562 -10298 -10553 0
h -10562 10298 0
h -10562 10553 0
h -8102 10563 10562 0
h 8102 -10563 0
h 8102 -10562 0
h 10564 -10298 -10279 0
h -10564 10298 0
h -10564 10279 0
h -8107 10267 10564 0
h 8107 -10267 0
h 8107 -10564 0
h 10565 -10300 -10279 0
h -10565 10300 0
h -10565 10279 0
h -6549 10270 10565 0
h 6549 -10270 0
h 6549 -10565 0
h 10566 -10298 -10324 0
h -10566 10298 0
h -10566 10324 0
h -8117 10302 10566 0
h 8117 -10302 0
h 8117 -10566 0
h 10567 -10298 -10318 0
h -10567 10298 0
h -10567 10318 0
h -8122 10304 10567 0
h 8122 -10304 0
h 8122 -10567 0
h 10568 -10300 -10318 0
h -10568 10300 0
h -10568 10318 0
h -6558 10306 10568 0
h 6558 -10306 0
h 6558 -10568 0
h 10569 -10553 -10282 0
h -10569 10553 0
h -10569 10282 0
h -6563 10570 10569 0
h 6563 -10570 0
h 6563 -10569 0
h 10571 -10553 -10300 0
h -10571 10553 0
h -10571 10300 0
h -6546 10572 10571 0
h 6546 -10572 0
h 6546 -10571 0
h 10573 -10553 -10553 0
h -10573 10553 0
h -10573 10553 0
h -6565 10574 10573 0
h 6565 -10574 0
h 6565 -10573 0
h 10575 -10553 -10324 0
h -10575 10553 0
h -10575 10324 0
h -6567 10576 10575 0
h 6567 -10576 0
h 6567 -10575 0
h 10577 -10553 -10318 0
h -10577 10553 0
h -10577 10318 0
h -6569 10578 10577 0
h 6569 -10578 0
h 6569 -10577 0
h 10579 -10279 -10318 0
h -10579 10279 0
h -10579 10318 0
h -6571 10287 10579 0
h 6571 -10287 0
h 6571 -10579 0
h 10580 -10324 -10282 0
h -10580 10324 0
h -10580 10282 0
h -6573 10320 10580 0
h 6573 -10320 0
h 6573 -10580 0
h 10581 -10324 -10300 0
h -10581 10324 0
h -10581 10300 0
h -6555 10322 10581 0
h 6555 -10322 0
h 6555 -10581 0
h 10582 -10324 -10279 0
h -10582 10324 0
h -10582 10279 0
h -6575 10284 10582 0
h 6575 -10284 0
h 6575 -10582 0
h 10583 -10324 -10324 0
h -10583 10324 0
h -10583 10324 0
h -6577 10326 10583 0
h 6577 -10326 0
h 6577 -10583 0
h 10584 -10585 -10585 0
h -10584 10585 0
h -10584 10585 0
h -6849 10586 10584 0
h 6849 -10586 0
h 6849 -10584 0
h 10587 -10585 -10588 0
h -10587 10585 0
h -10587 10588 0
h -6856 10589 10587 0
h 6856 -10589 0
h 6856 -10587 0
h 10590 -10585 -10591 0
h -10590 10585 0
h -10590 10591 0
h -6863 10592 10590 0
h 6863 -10592 0
h 6863 -10590 0
h 10593 -10594 -10591 0
h -10593 10594 0
h -10593 10591 0
h -6870 10595 10593 0
h 6870 -10595 0
h 6870 -10593 0
h 10596 -10585 -10597 0
h -10596 10585 0
h -10596 10597 0
h -6844 10598 10596 0
h 6844 -10598 0
h 6844 -10596 0
h 10599 -10585 -10600 0
h -10599 10585 0
h -10599 10600 0
h -6843 10601 10599 0
h 6843 -10601 0
h 6843 -10599 0
h 10602 -10594 -10600 0
h -10602 10594 0
h -10602 10600 0
h -6865 10603 10602 0
h 6865 -10603 0
h 6865 -10602 0
h 10604 -10585 -10605 0
h -10604 10585 0
h -10604 10605 0
h -6877 10606 10604 0
h 6877 -10606 0
h 6877 -10604 0
h 10607 -10585 -10608 0
h -10607 10585 0
h -10607 10608 0
h -6884 10609 10607 0
h 6884 -10609 0
h 6884 -10607 0
h 10610 -10594 -10608 0
h -10610 10594 0
h -10610 10608 0
h -6889 10611 10610 0
h 6889 -10611 0
h 6889 -10610 0
h 10612 -10588 -10594 0
h -10612 10588 0
h -10612 10594 0
h -6894 10613 10612 0
h 6894 -10613 0
h 6894 -10612 0
h 10614 -10588 -10588 0
h -10614 10588 0
h -10614 10588 0
h -6899 10615 10614 0
h 6899 -10615 0
h 6899 -10614 0
h 10616 -10588 -10597 0
h -10616 10588 0
h -10616 10597 0
h -6851 10617 10616 0
h 6851 -10617 0
h 6851 -10616 0
h 10618 -10588 -10600 0
h -10618 10588 0
h -10618 10600 0
h -6854 10619 10618 0
h 6854 -10619 0
h 6854 -10618 0
h 10620 -10591 -10600 0
h -10620 10591 0
h -10620 10600 0
h -6860 10621 10620 0
h 6860 -10621 0
h 6860 -10620 0
h 10622 -10588 -10605 0
h -10622 10588 0
h -10622 10605 0
h -6904 10623 10622 0
h 6904 -10623 0
h 6904 -10622 0
h 10624 -10588 -10608 0
h -10624 10588 0
h -10624 10608 0
h -6909 10625 10624 0
h 6909 -10625 0
h 6909 -10624 0
h 10626 -10591 -10608 0
h -10626 10591 0
h -10626 10608 0
h -6914 10627 10626 0
h 6914 -10627 0
h 6914 -10626 0
h 10628 -10597 -10594 0
h -10628 10597 0
h -10628 10594 0
h -6867 10629 10628 0
h 6867 -10629 0
h 6867 -10628 0
h 10630 -10597 -10591 0
h -10630 10597 0
h -10630 10591 0
h -6858 10631 10630 0
h 6858 -10631 0
h 6858 -10630 0
h 10632 -10597 -10597 0
h -10632 10597 0
h -10632 10597 0
h -6848 10633 10632 0
h 6848 -10633 0
h 6848 -10632 0
h 10634 -10597 -10605 0
h -10634 10597 0
h -10634 10605 0
h -6872 10635 10634 0
h 6872 -10635 0
h 6872 -10634 0
h 10636 -10597 -10608 0
h -10636 10597 0
h -10636 10608 0
h -6879 10637 10636 0
h 6879 -10637 0
h 6879 -10636 0
h 10638 -10600 -10608 0
h -10638 10600 0
h -10638 10608 0
h -6881 10639 10638 0
h 6881 -10639 0
h 6881 -10638 0
h 10640 -10605 -10594 0
h -10640 10605 0
h -10640 10594 0
h -6919 10641 10640 0
h 6919 -10641 0
h 6919 -10640 0
h 10642 -10605 -10591 0
h -10642 10605 0
h -10642 10591 0
h -6924 10643 10642 0
h 6924 -10643 0
h 6924 -10642 0
h 10644 -10605 -10600 0
h -10644 10605 0
h -10644 10600 0
h -6875 10645 10644 0
h 6875 -10645 0
h 6875 -10644 0
h 10646 -10605 -10605 0
h -10646 10605 0
h -10646 10605 0
h -6929 10647 10646 0
h 6929 -10647 0
h 6929 -10646 0
h 10648 -10609 -10606 0
h -10648 10609 0
h -10648 10606 0
h 10649 -10606 -10606 0
h -10649 10606 0
h -10649 10606 0
h 10650 -10606 -10609 0
h -10650 10606 0
h -10650 10609 0
h 10651 -10609 -10609 -10647 0
h -10651 10609 0
h -10651 10609 0
h -10651 10647 0
h -7060 10586 10648 10649 10650 10651 0
h 7060 -10586 0
h 7060 -10648 0
h 7060 -10649 0
h 7060 -10650 0
h 7060 -10651 0
h 10652 -10609 -10623 0
h -10652 10609 0
h -10652 10623 0
h 10653 -10606 -10623 0
h -10653 10606 0
h -10653 10623 0
h 10654 -10606 -10625 0
h -10654 10606 0
h -10654 10625 0
h 10655 -10609 -10625 -10647 0
h -10655 10609 0
h -10655 10625 0
h -10655 10647 0
h -7067 10589 10652 10653 10654 10655 0
h 7067 -10589 0
h 7067 -10652 0
h 7067 -10653 0
h 7067 -10654 0
h 7067 -10655 0
h 10656 -10609 -10643 0
h -10656 10609 0
h -10656 10643 0
h 10657 -10606 -10627 0
h -10657 10606 0
h -10657 10627 0
h 10658 -10606 -10643 0
h -10658 10606 0
h -10658 10643 0
h 10659 -10609 -10627 -10647 0
h -10659 10609 0
h -10659 10627 0
h -10659 10647 0
h -7074 10592 10656 10657 10658 10659 0
h 7074 -10592 0
h 7074 -10656 0
h 7074 -10657 0
h 7074 -10658 0
h 7074 -10659 0
h 10660 -10611 -10643 0
h -10660 10611 0
h -10660 10643 0
h 10661 -10641 -10643 0
h -10661 10641 0
h -10661 10643 0
h 10662 -10641 -10627 0
h -10662 10641 0
h -10662 10627 0
h 10663 -10611 -10627 -10647 0
h -10663 10611 0
h -10663 10627 0
h -10663 10647 0
h -7081 10595 10660 10661 10662 10663 0
h 7081 -10595 0
h 7081 -10660 0
h 7081 -10661 0
h 7081 -10662 0
h 7081 -10663 0
h 10664 -10609 -10635 0
h -10664 10609 0
h -10664 10635 0
h 10665 -10606 -10635 0
h -10665 10606 0
h -10665 10635 0
h 10666 -10606 -10637 0
h -10666 10606 0
h -10666 10637 0
h 10667 -10609 -10637 -10647 0
h -10667 10609 0
h -10667 10637 0
h -10667 10647 0
h -7055 10598 10664 10665 10666 10667 0
h 7055 -10598 0
h 7055 -10664 0
h 7055 -10665 0
h 7055 -10666 0
h 7055 -10667 0
h 10668 -10609 -10645 0
h -10668 10609 0
h -10668 10645 0
h 10669 -10606 -10639 0
h -10669 10606 0
h -10669 10639 0
h 10670 -10606 -10645 0
h -10670 10606 0
h -10670 10645 0
h 10671 -10609 -10639 -10647 0
h -10671 10609 0
h -10671 10639 0
h -10671 10647 0
h -7054 10601 10668 10669 10670 10671 0
h 7054 -10601 0
h 7054 -10668 0
h 7054 -10669 0
h 7054 -10670 0
h 7054 -10671 0
h 10672 -10611 -10645 0
h -10672 10611 0
h -10672 10645 0
h 10673 -10641 -10645 0
h -10673 10641 0
h -10673 10645 0
h 10674 -10641 -10639 0
h -10674 10641 0
h -10674 10639 0
h 10675 -10611 -10639 -10647 0
h -10675 10611 0
h -10675 10639 0
h -10675 10647 0
h -7076 10603 10672 10673 10674 10675 0
h 7076 -10603 0
h 7076 -10672 0
h 7076 -10673 0
h 7076 -10674 0
h 7076 -10675 0
h 10676 -10609 -10677 0
h -10676 10609 0
h -10676 10677 0
h 10678 -10606 -10677 0
h -10678 10606 0
h -10678 10677 0
h 10679 -10606 -10680 0
h -10679 10606 0
h -10679 10680 0
h 10681 -10609 -10680 -10647 0
h -10681 10609 0
h -10681 10680 0
h -10681 10647 0
h -7088 10682 10676 10678 10679 10681 0
h 7088 -10682 0
h 7088 -10676 0
h 7088 -10678 0
h 7088 -10679 0
h 7088 -10681 0
h 10683 -10609 -10605 0
h -10683 10609 0
h -10683 10605 0
h 10684 -10606 -10608 0
h -10684 10606 0
h -10684 10608 0
h 10685 -10606 -10605 0
h -10685 10606 0
h -10685 10605 0
h 10686 -10609 -10608 -10647 0
h -10686 10609 0
h -10686 10608 0
h -10686 10647 0
h -7095 10585 10683 10684 10685 10686 0
h 7095 -10585 0
h 7095 -10683 0
h 7095 -10684 0
h 7095 -10685 0
h 7095 -10686 0
h 10687 -10611 -10605 0
h -10687 10611 0
h -10687 10605 0
h 10688 -10641 -10605 0
h -10688 10641 0
h -10688 10605 0
h 10689 -10641 -10608 0
h -10689 10641 0
h -10689 10608 0
h 10690 -10611 -10608 -10647 0
h -10690 10611 0
h -10690 10608 0
h -10690 10647 0
h -7100 10594 10687 10688 10689 10690 0
h 7100 -10594 0
h 7100 -10687 0
h 7100 -10688 0
h 7100 -10689 0
h 7100 -10690 0
h 10691 -10625 -10641 0
h -10691 10625 0
h -10691 10641 0
h 10692 -10623 -10611 0
h -10692 10623 0
h -10692 10611 0
h 10693 -10623 -10641 0
h -10693 10623 0
h -10693 10641 0
h 10694 -10625 -10611 -10647 0
h -10694 10625 0
h -10694 10611 0
h -10694 10647 0
h -7105 10613 10691 10692 10693 10694 0
h 7105 -10613 0
h 7105 -10691 0
h 7105 -10692 0
h 7105 -10693 0
h 7105 -10694 0
h 10695 -10625 -10623 0
h -10695 10625 0
h -10695 10623 0
h 10696 -10623 -10623 0
h -10696 10623 0
h -10696 10623 0
h 10697 -10623 -10625 0
h -10697 10623 0
h -10697 10625 0
h 10698 -10625 -10625 -10647 0
h -10698 10625 0
h -10698 10625 0
h -10698 10647 0
h -7110 10615 10695 10696 10697 10698 0
h 7110 -10615 0
h 7110 -10695 0
h 7110 -10696 0
h 7110 -10697 0
h 7110 -10698 0
h 10699 -10625 -10635 0
h -10699 10625 0
h -10699 10635 0
h 10700 -10623 -10635 0
h -10700 10623 0
h -10700 10635 0
h 10701 -10623 -10637 0
h -10701 10623 0
h -10701 10637 0
h 10702 -10625 -10637 -10647 0
h -10702 10625 0
h -10702 10637 0
h -10702 10647 0
h -7062 10617 10699 10700 10701 10702 0
h 7062 -10617 0
h 7062 -10699 0
h 7062 -10700 0
h 7062 -10701 0
h 7062 -10702 0
h 10703 -10625 -10645 0
h -10703 10625 0
h -10703 10645 0
h 10704 -10623 -10639 0
h -10704 10623 0
h -10704 10639 0
h 10705 -10623 -10645 0
h -10705 10623 0
h -10705 10645 0
h 10706 -10625 -10639 -10647 0
h -10706 10625 0
h -10706 10639 0
h -10706 10647 0
h -7065 10619 10703 10704 10705 10706 0
h 7065 -10619 0
h 7065 -10703 0
h 7065 -10704 0
h 7065 -10705 0
h 7065 -10706 0
h 10707 -10627 -10645 0
h -10707 10627 0
h -10707 10645 0
h 10708 -10643 -10645 0
h -10708 10643 0
h -10708 10645 0
h 10709 -10643 -10639 0
h -10709 10643 0
h -10709 10639 0
h 10710 -10627 -10639 -10647 0
h -10710 10627 0
h -10710 10639 0
h -10710 10647 0
h -7071 10621 10707 10708 10709 10710 0
h 7071 -10621 0
h 7071 -10707 0
h 7071 -10708 0
h 7071 -10709 0
h 7071 -10710 0
h 10711 -10625 -10677 0
h -10711 10625 0
h -10711 10677 0
h 10712 -10623 -10677 0
h -10712 10623 0
h -10712 10677 0
h 10713 -10623 -10680 0
h -10713 10623 0
h -10713 10680 0
h 10714 -10625 -10680 -10647 0
h -10714 10625 0
h -10714 10680 0
h -10714 10647 0
h -7115 10715 10711 10712 10713 10714 0
h 7115 -10715 0
h 7115 -10711 0
h 7115 -10712 0
h 7115 -10713 0
h 7115 -10714 0
h 10716 -10625 -10605 0
h -10716 10625 0
h -10716 10605 0
h 10717 -10623 -10608 0
h -10717 10623 0
h -10717 10608 0
h 10718 -10623 -10605 0
h -10718 10623 0
h -10718 10605 0
h 10719 -10625 -10608 -10647 0
h -10719 10625 0
h -10719 10608 0
h -10719 10647 0
h -7120 10588 10716 10717 10718 10719 0
h 7120 -10588 0
h 7120 -10716 0
h 7120 -10717 0
h 7120 -10718 0
h 7120 -10719 0
h 10720 -10627 -10605 0
h -10720 10627 0
h -10720 10605 0
h 10721 -10643 -10605 0
h -10721 10643 0
h -10721 10605 0
h 10722 -10643 -10608 0
h -10722 10643 0
h -10722 10608 0
h 10723 -10627 -10608 -10647 0
h -10723 10627 0
h -10723 10608 0
h -10723 10647 0
h -7125 10591 10720 10721 10722 10723 0
h 7125 -10591 0
h 7125 -10720 0
h 7125 -10721 0
h 7125 -10722 0
h 7125 -10723 0
h 10724 -10637 -10641 0
h -10724 10637 0
h -10724 10641 0
h 10725 -10635 -10611 0
h -10725 10635 0
h -10725 10611 0
h 10726 -10635 -10641 0
h -10726 10635 0
h -10726 10641 0
h 10727 -10637 -10611 -10647 0
h -10727 10637 0
h -10727 10611 0
h -10727 10647 0
h -7078 10629 10724 10725 10726 10727 0
h 7078 -10629 0
h 7078 -10724 0
h 7078 -10725 0
h 7078 -10726 0
h 7078 -10727 0
h 10728 -10637 -10643 0
h -10728 10637 0
h -10728 10643 0
h 10729 -10635 -10627 0
h -10729 10635 0
h -10729 10627 0
h 10730 -10635 -10643 0
h -10730 10635 0
h -10730 10643 0
h 10731 -10637 -10627 -10647 0
h -10731 10637 0
h -10731 10627 0
h -10731 10647 0
h -7069 10631 10728 10729 10730 10731 0
h 7069 -10631 0
h 7069 -10728 0
h 7069 -10729 0
h 7069 -10730 0
h 7069 -10731 0
h 10732 -10637 -10635 0
h -10732 10637 0
h -10732 10635 0
h 10733 -10635 -10635 0
h -10733 10635 0
h -10733 10635 0
h 10734 -10635 -10637 0
h -10734 10635 0
h -10734 10637 0
h 10735 -10637 -10637 -10647 0
h -10735 10637 0
h -10735 10637 0
h -10735 10647 0
h -7059 10633 10732 10733 10734 10735 0
h 7059 -10633 0
h 7059 -10732 0
h 7059 -10733 0
h 7059 -10734 0
h 7059 -10735 0
h 10736 -10637 -10677 0
h -10736 10637 0
h -10736 10677 0
h 10737 -10635 -10677 0
h -10737 10635 0
h -10737 10677 0
h 10738 -10635 -10680 0
h -10738 10635 0
h -10738 10680 0
h 10739 -10637 -10680 -10647 0
h -10739 10637 0
h -10739 10680 0
h -10739 10647 0
h -7083 10740 10736 10737 10738 10739 0
h 7083 -10740 0
h 7083 -10736 0
h 7083 -10737 0
h 7083 -10738 0
h 7083 -10739 0
h 10741 -10637 -10605 0
h -10741 10637 0
h -10741 10605 0
h 10742 -10635 -10608 0
h -10742 10635 0
h -10742 10608 0
h 10743 -10635 -10605 0
h -10743 10635 0
h -10743 10605 0
h 10744 -10637 -10608 -10647 0
h -10744 10637 0
h -10744 10608 0
h -10744 10647 0
h -7090 10597 10741 10742 10743 10744 0
h 7090 -10597 0
h 7090 -10741 0
h 7090 -10742 0
h 7090 -10743 0
h 7090 -10744 0
h 10745 -10639 -10605 0
h -10745 10639 0
h -10745 10605 0
h 10746 -10645 -10605 0
h -10746 10645 0
h -10746 10605 0
h 10747 -10645 -10608 0
h -10747 10645 0
h -10747 10608 0
h 10748 -10639 -10608 -10647 0
h -10748 10639 0
h -10748 10608 0
h -10748 10647 0
h -7092 10600 10745 10746 10747 10748 0
h 7092 -10600 0
h 7092 -10745 0
h 7092 -10746 0
h 7092 -10747 0
h 7092 -10748 0
h 10749 -10680 -10641 0
h -10749 10680 0
h -10749 10641 0
h 10750 -10677 -10611 0
h -10750 10677 0
h -10750 10611 0
h 10751 -10677 -10641 0
h -10751 10677 0
h -10751 10641 0
h 10752 -10680 -10611 -10647 0
h -10752 10680 0
h -10752 10611 0
h -10752 10647 0
h -7130 10753 10749 10750 10751 10752 0
h 7130 -10753 0
h 7130 -10749 0
h 7130 -10750 0
h 7130 -10751 0
h 7130 -10752 0
h 10754 -10680 -10643 0
h -10754 10680 0
h -10754 10643 0
h 10755 -10677 -10627 0
h -10755 10677 0
h -10755 10627 0
h 10756 -10677 -10643 0
h -10756 10677 0
h -10756 10643 0
h 10757 -10680 -10627 -10647 0
h -10757 10680 0
h -10757 10627 0
h -10757 10647 0
h -7135 10758 10754 10755 10756 10757 0
h 7135 -10758 0
h 7135 -10754 0
h 7135 -10755 0
h 7135 -10756 0
h 7135 -10757 0
h 10759 -10680 -10645 0
h -10759 10680 0
h -10759 10645 0
h 10760 -10677 -10639 0
h -10760 10677 0
h -10760 10639 0
h 10761 -10677 -10645 0
h -10761 10677 0
h -10761 10645 0
h 10762 -10680 -10639 -10647 0
h -10762 10680 0
h -10762 10639 0
h -10762 10647 0
h -7086 10763 10759 10760 10761 10762 0
h 7086 -10763 0
h 7086 -10759 0
h 7086 -10760 0
h 7086 -10761 0
h 7086 -10762 0
h 10764 -10680 -10677 0
h -10764 10680 0
h -10764 10677 0
h 10765 -10677 -10677 0
h -10765 10677 0
h -10765 10677 0
h 10766 -10677 -10680 0
h -10766 10677 0
h -10766 10680 0
h 10767 -10680 -10680 -10647 0
h -10767 10680 0
h -10767 10680 0
h -10767 10647 0
h -7140 10768 10764 10765 10766 10767 0
h 7140 -10768 0
h 7140 -10764 0
h 7140 -10765 0
h 7140 -10766 0
h 7140 -10767 0
h 10769 -10770 -10771 0
h -10769 10770 0
h -10769 10771 0
h 10772 -10771 -10771 0
h -10772 10771 0
h -10772 10771 0
h 10773 -10771 -10770 0
h -10773 10771 0
h -10773 10770 0
h 10774 -10770 -10770 -10775 0
h -10774 10770 0
h -10774 10770 0
h -10774 10775 0
h -7649 10776 10769 10772 10773 10774 0
h 7649 -10776 0
h 7649 -10769 0
h 7649 -10772 0
h 7649 -10773 0
h 7649 -10774 0
h 10777 -10770 -10778 0
h -10777 10770 0
h -10777 10778 0
h 10779 -10771 -10778 0
h -10779 10771 0
h -10779 10778 0
h 10780 -10771 -10781 0
h -10780 10771 0
h -10780 10781 0
h 10782 -10770 -10781 -10775 0
h -10782 10770 0
h -10782 10781 0
h -10782 10775 0
h -7652 10783 10777 10779 10780 10782 0
h 7652 -10783 0
h 7652 -10777 0
h 7652 -10779 0
h 7652 -10780 0
h 7652 -10782 0
h 10784 -10770 -10785 0
h -10784 10770 0
h -10784 10785 0
h 10786 -10771 -10787 0
h -10786 10771 0
h -10786 10787 0
h 10788 -10771 -10785 0
h -10788 10771 0
h -10788 10785 0
h 10789 -10770 -10787 -10775 0
h -10789 10770 0
h -10789 10787 0
h -10789 10775 0
h -7655 10790 10784 10786 10788 10789 0
h 7655 -10790 0
h 7655 -10784 0
h 7655 -10786 0
h 7655 -10788 0
h 7655 -10789 0
h 10791 -10792 -10785 0
h -10791 10792 0
h -10791 10785 0
h 10793 -10794 -10785 0
h -10793 10794 0
h -10793 10785 0
h 10795 -10794 -10787 0
h -10795 10794 0
h -10795 10787 0
h 10796 -10792 -10787 -10775 0
h -10796 10792 0
h -10796 10787 0
h -10796 10775 0
h -7658 10797 10791 10793 10795 10796 0
h 7658 -10797 0
h 7658 -10791 0
h 7658 -10793 0
h 7658 -10795 0
h 7658 -10796 0
h 10798 -10770 -10799 0
h -10798 10770 0
h -10798 10799 0
h 10800 -10771 -10799 0
h -10800 10771 0
h -10800 10799 0
h 10801 -10771 -10802 0
h -10801 10771 0
h -10801 10802 0
h 10803 -10770 -10802 -10775 0
h -10803 10770 0
h -10803 10802 0
h -10803 10775 0
h -8526 10804 10798 10800 10801 10803 0
h 8526 -10804 0
h 8526 -10798 0
h 8526 -10800 0
h 8526 -10801 0
h 8526 -10803 0
h 10805 -10770 -10806 0
h -10805 10770 0
h -10805 10806 0
h 10807 -10771 -10808 0
h -10807 10771 0
h -10807 10808 0
h 10809 -10771 -10806 0
h -10809 10771 0
h -10809 10806 0
h 10810 -10770 -10808 -10775 0
h -10810 10770 0
h -10810 10808 0
h -10810 10775 0
h -7648 10811 10805 10807 10809 10810 0
h 7648 -10811 0
h 7648 -10805 0
h 7648 -10807 0
h 7648 -10809 0
h 7648 -10810 0
h 10812 -10792 -10806 0
h -10812 10792 0
h -10812 10806 0
h 10813 -10794 -10806 0
h -10813 10794 0
h -10813 10806 0
h 10814 -10794 -10808 0
h -10814 10794 0
h -10814 10808 0
h 10815 -10792 -10808 -10775 0
h -10815 10792 0
h -10815 10808 0
h -10815 10775 0
h -7657 10816 10812 10813 10814 10815 0
h 7657 -10816 0
h 7657 -10812 0
h 7657 -10813 0
h 7657 -10814 0
h 7657 -10815 0
h 10817 -10770 -10818 0
h -10817 10770 0
h -10817 10818 0
h 10819 -10771 -10818 0
h -10819 10771 0
h -10819 10818 0
h 10820 -10771 -10821 0
h -10820 10771 0
h -10820 10821 0
h 10822 -10770 -10821 -10775 0
h -10822 10770 0
h -10822 10821 0
h -10822 10775 0
h -7661 10823 10817 10819 10820 10822 0
h 7661 -10823 0
h 7661 -10817 0
h 7661 -10819 0
h 7661 -10820 0
h 7661 -10822 0
h 10824 -10770 -10825 0
h -10824 10770 0
h -10824 10825 0
h 10826 -10771 -10827 0
h -10826 10771 0
h -10826 10827 0
h 10828 -10771 -10825 0
h -10828 10771 0
h -10828 10825 0
h 10829 -10770 -10827 -10775 0
h -10829 10770 0
h -10829 10827 0
h -10829 10775 0
h -7664 10830 10824 10826 10828 10829 0
h 7664 -10830 0
h 7664 -10824 0
h 7664 -10826 0
h 7664 -10828 0
h 7664 -10829 0
h 10831 -10792 -10825 0
h -10831 10792 0
h -10831 10825 0
h 10832 -10794 -10825 0
h -10832 10794 0
h -10832 10825 0
h 10833 -10794 -10827 0
h -10833 10794 0
h -10833 10827 0
h 10834 -10792 -10827 -10775 0
h -10834 10792 0
h -10834 10827 0
h -10834 10775 0
h -7666 10835 10831 10832 10833 10834 0
h 7666 -10835 0
h 7666 -10831 0
h 7666 -10832 0
h 7666 -10833 0
h 7666 -10834 0
h 10836 -10781 -10794 0
h -10836 10781 0
h -10836 10794 0
h 10837 -10778 -10792 0
h -10837 10778 0
h -10837 10792 0
h 10838 -10778 -10794 0
h -10838 10778 0
h -10838 10794 0
h 10839 -10781 -10792 -10775 0
h -10839 10781 0
h -10839 10792 0
h -10839 10775 0
h -7668 10840 10836 10837 10838 10839 0
h 7668 -10840 0
h 7668 -10836 0
h 7668 -10837 0
h 7668 -10838 0
h 7668 -10839 0
h 10841 -10781 -10778 0
h -10841 10781 0
h -10841 10778 0
h 10842 -10778 -10778 0
h -10842 10778 0
h -10842 10778 0
h 10843 -10778 -10781 0
h -10843 10778 0
h -10843 10781 0
h 10844 -10781 -10781 -10775 0
h -10844 10781 0
h -10844 10781 0
h -10844 10775 0
h -7670 10845 10841 10842 10843 10844 0
h 7670 -10845 0
h 7670 -10841 0
h 7670 -10842 0
h 7670 -10843 0
h 7670 -10844 0
h 10846 -10781 -10799 0
h -10846 10781 0
h -10846 10799 0
h 10847 -10778 -10799 0
h -10847 10778 0
h -10847 10799 0
h 10848 -10778 -10802 0
h -10848 10778 0
h -10848 10802 0
h 10849 -10781 -10802 -10775 0
h -10849 10781 0
h -10849 10802 0
h -10849 10775 0
h -8521 10850 10846 10847 10848 10849 0
h 8521 -10850 0
h 8521 -10846 0
h 8521 -10847 0
h 8521 -10848 0
h 8521 -10849 0
h 10851 -10781 -10806 0
h -10851 10781 0
h -10851 10806 0
h 10852 -10778 -10808 0
h -10852 10778 0
h -10852 10808 0
h 10853 -10778 -10806 0
h -10853 10778 0
h -10853 10806 0
h 10854 -10781 -10808 -10775 0
h -10854 10781 0
h -10854 10808 0
h -10854 10775 0
h -7651 10855 10851 10852 10853 10854 0
h 7651 -10855 0
h 7651 -10851 0
h 7651 -10852 0
h 7651 -10853 0
h 7651 -10854 0
h 10856 -10787 -10806 0
h -10856 10787 0
h -10856 10806 0
h 10857 -10785 -10806 0
h -10857 10785 0
h -10857 10806 0
h 10858 -10785 -10808 0
h -10858 10785 0
h -10858 10808 0
h 10859 -10787 -10808 -10775 0
h -10859 10787 0
h -10859 10808 0
h -10859 10775 0
h -7654 10860 10856 10857 10858 10859 0
h 7654 -10860 0
h 7654 -10856 0
h 7654 -10857 0
h 7654 -10858 0
h 7654 -10859 0
h 10861 -10781 -10818 0
h -10861 10781 0
h -10861 10818 0
h 10862 -10778 -10818 0
h -10862 10778 0
h -10862 10818 0
h 10863 -10778 -10821 0
h -10863 10778 0
h -10863 10821 0
h 10864 -10781 -10821 -10775 0
h -10864 10781 0
h -10864 10821 0
h -10864 10775 0
h -7672 10865 10861 10862 10863 10864 0
h 7672 -10865 0
h 7672 -10861 0
h 7672 -10862 0
h 7672 -10863 0
h 7672 -10864 0
h 10866 -10781 -10825 0
h -10866 10781 0
h -10866 10825 0
h 10867 -10778 -10827 0
h -10867 10778 0
h -10867 10827 0
h 10868 -10778 -10825 0
h -10868 10778 0
h -10868 10825 0
h 10869 -10781 -10827 -10775 0
h -10869 10781 0
h -10869 10827 0
h -10869 10775 0
h -7674 10870 10866 10867 10868 10869 0
h 7674 -10870 0
h 7674 -10866 0
h 7674 -10867 0
h 7674 -10868 0
h 7674 -10869 0
h 10871 -10787 -10825 0
h -10871 10787 0
h -10871 10825 0
h 10872 -10785 -10825 0
h -10872 10785 0
h -10872 10825 0
h 10873 -10785 -10827 0
h -10873 10785 0
h -10873 10827 0
h 10874 -10787 -10827 -10775 0
h -10874 10787 0
h -10874 10827 0
h -10874 10775 0
h -7676 10875 10871 10872 10873 10874 0
h 7676 -10875 0
h 7676 -10871 0
h 7676 -10872 0
h 7676 -10873 0
h 7676 -10874 0
h 10876 -10802 -10794 0
h -10876 10802 0
h -10876 10794 0
h 10877 -10799 -10792 0
h -10877 10799 0
h -10877 10792 0
h 10878 -10799 -10794 0
h -10878 10799 0
h -10878 10794 0
h 10879 -10802 -10792 -10775 0
h -10879 10802 0
h -10879 10792 0
h -10879 10775 0
h -8551 10880 10876 10877 10878 10879 0
h 8551 -10880 0
h 8551 -10876 0
h 8551 -10877 0
h 8551 -10878 0
h 8551 -10879 0
h 10881 -10802 -10785 0
h -10881 10802 0
h -10881 10785 0
h 10882 -10799 -10787 0
h -10882 10799 0
h -10882 10787 0
h 10883 -10799 -10785 0
h -10883 10799 0
h -10883 10785 0
h 10884 -10802 -10787 -10775 0
h -10884 10802 0
h -10884 10787 0
h -10884 10775 0
h -8524 10885 10881 10882 10883 10884 0
h 8524 -10885 0
h 8524 -10881 0
h 8524 -10882 0
h 8524 -10883 0
h 8524 -10884 0
h 10886 -10802 -10799 0
h -10886 10802 0
h -10886 10799 0
h 10887 -10799 -10799 0
h -10887 10799 0
h -10887 10799 0
h 10888 -10799 -10802 0
h -10888 10799 0
h -10888 10802 0
h 10889 -10802 -10802 -10775 0
h -10889 10802 0
h -10889 10802 0
h -10889 10775 0
h -8556 10890 10886 10887 10888 10889 0
h 8556 -10890 0
h 8556 -10886 0
h 8556 -10887 0
h 8556 -10888 0
h 8556 -10889 0
h 10891 -10802 -10818 0
h -10891 10802 0
h -10891 10818 0
h 10892 -10799 -10818 0
h -10892 10799 0
h -10892 10818 0
h 10893 -10799 -10821 0
h -10893 10799 0
h -10893 10821 0
h 10894 -10802 -10821 -10775 0
h -10894 10802 0
h -10894 10821 0
h -10894 10775 0
h -8561 10895 10891 10892 10893 10894 0
h 8561 -10895 0
h 8561 -10891 0
h 8561 -10892 0
h 8561 -10893 0
h 8561 -10894 0
h 10896 -10802 -10825 0
h -10896 10802 0
h -10896 10825 0
h 10897 -10799 -10827 0
h -10897 10799 0
h -10897 10827 0
h 10898 -10799 -10825 0
h -10898 10799 0
h -10898 10825 0
h 10899 -10802 -10827 -10775 0
h -10899 10802 0
h -10899 10827 0
h -10899 10775 0
h -8566 10900 10896 10897 10898 10899 0
h 8566 -10900 0
h 8566 -10896 0
h 8566 -10897 0
h 8566 -10898 0
h 8566 -10899 0
h 10901 -10808 -10825 0
h -10901 10808 0
h -10901 10825 0
h 10902 -10806 -10825 0
h -10902 10806 0
h -10902 10825 0
h 10903 -10806 -10827 0
h -10903 10806 0
h -10903 10827 0
h 10904 -10808 -10827 -10775 0
h -10904 10808 0
h -10904 10827 0
h -10904 10775 0
h -7663 10905 10901 10902 10903 10904 0
h 7663 -10905 0
h 7663 -10901 0
h 7663 -10902 0
h 7663 -10903 0
h 7663 -10904 0
h 10906 -10821 -10794 0
h -10906 10821 0
h -10906 10794 0
h 10907 -10818 -10792 0
h -10907 10818 0
h -10907 10792 0
h 10908 -10818 -10794 0
h -10908 10818 0
h -10908 10794 0
h 10909 -10821 -10792 -10775 0
h -10909 10821 0
h -10909 10792 0
h -10909 10775 0
h -7678 10910 10906 10907 10908 10909 0
h 7678 -10910 0
h 7678 -10906 0
h 7678 -10907 0
h 7678 -10908 0
h 7678 -10909 0
h 10911 -10821 -10785 0
h -10911 10821 0
h -10911 10785 0
h 10912 -10818 -10787 0
h -10912 10818 0
h -10912 10787 0
h 10913 -10818 -10785 0
h -10913 10818 0
h -10913 10785 0
h 10914 -10821 -10787 -10775 0
h -10914 10821 0
h -10914 10787 0
h -10914 10775 0
h -7680 10915 10911 10912 10913 10914 0
h 7680 -10915 0
h 7680 -10911 0
h 7680 -10912 0
h 7680 -10913 0
h 7680 -10914 0
h 10916 -10821 -10806 0
h -10916 10821 0
h -10916 10806 0
h 10917 -10818 -10808 0
h -10917 10818 0
h -10917 10808 0
h 10918 -10818 -10806 0
h -10918 10818 0
h -10918 10806 0
h 10919 -10821 -10808 -10775 0
h -10919 10821 0
h -10919 10808 0
h -10919 10775 0
h -7660 10920 10916 10917 10918 10919 0
h 7660 -10920 0
h 7660 -10916 0
h 7660 -10917 0
h 7660 -10918 0
h 7660 -10919 0
h 10921 -10821 -10818 0
h -10921 10821 0
h -10921 10818 0
h 10922 -10818 -10818 0
h -10922 10818 0
h -10922 10818 0
h 10923 -10818 -10821 0
h -10923 10818 0
h -10923 10821 0
h 10924 -10821 -10821 -10775 0
h -10924 10821 0
h -10924 10821 0
h -10924 10775 0
h -7682 10925 10921 10922 10923 10924 0
h 7682 -10925 0
h 7682 -10921 0
h 7682 -10922 0
h 7682 -10923 0
h 7682 -10924 0
h 10926 -10264 -10554 0
h -10926 10264 0
h -10926 10554 0
h 10927 -10554 -10554 0
h -10927 10554 0
h -10927 10554 0
h 10928 -10554 -10264 0
h -10928 10554 0
h -10928 10264 0
h 10929 -10264 -10264 -10574 0
h -10929 10264 0
h -10929 10264 0
h -10929 10574 0
h -7749 10265 10926 10927 10928 10929 0
h 7749 -10265 0
h 7749 -10926 0
h 7749 -10927 0
h 7749 -10928 0
h 7749 -10929 0
h 10930 -10264 -10563 0
h -10930 10264 0
h -10930 10563 0
h 10931 -10554 -10563 0
h -10931 10554 0
h -10931 10563 0
h 10932 -10554 -10267 0
h -10932 10554 0
h -10932 10267 0
h 10933 -10264 -10267 -10574 0
h -10933 10264 0
h -10933 10267 0
h -10933 10574 0
h -7744 10268 10930 10931 10932 10933 0
h 7744 -10268 0
h 7744 -10930 0
h 7744 -10931 0
h 7744 -10932 0
h 7744 -10933 0
h 10934 -10264 -10572 0
h -10934 10264 0
h -10934 10572 0
h 10935 -10554 -10270 0
h -10935 10554 0
h -10935 10270 0
h 10936 -10554 -10572 0
h -10936 10554 0
h -10936 10572 0
h 10937 -10264 -10270 -10574 0
h -10937 10264 0
h -10937 10270 0
h -10937 10574 0
h -7743 10271 10934 10935 10936 10937 0
h 7743 -10271 0
h 7743 -10934 0
h 7743 -10935 0
h 7743 -10936 0
h 7743 -10937 0
h 10938 -10273 -10572 0
h -10938 10273 0
h -10938 10572 0
h 10939 -10570 -10572 0
h -10939 10570 0
h -10939 10572 0
h 10940 -10570 -10270 0
h -10940 10570 0
h -10940 10270 0
h 10941 -10273 -10270 -10574 0
h -10941 10273 0
h -10941 10270 0
h -10941 10574 0
h -7765 10274 10938 10939 10940 10941 0
h 7765 -10274 0
h 7765 -10938 0
h 7765 -10939 0
h 7765 -10940 0
h 7765 -10941 0
h 10942 -10264 -10943 0
h -10942 10264 0
h -10942 10943 0
h 10944 -10554 -10943 0
h -10944 10554 0
h -10944 10943 0
h 10945 -10554 -10276 0
h -10945 10554 0
h -10945 10276 0
h 10946 -10264 -10276 -10574 0
h -10946 10264 0
h -10946 10276 0
h -10946 10574 0
h -7756 10277 10942 10944 10945 10946 0
h 7756 -10277 0
h 7756 -10942 0
h 7756 -10944 0
h 7756 -10945 0
h 7756 -10946 0
h 10947 -10264 -10553 0
h -10947 10264 0
h -10947 10553 0
h 10948 -10554 -10279 0
h -10948 10554 0
h -10948 10279 0
h 10949 -10554 -10553 0
h -10949 10554 0
h -10949 10553 0
h 10950 -10264 -10279 -10574 0
h -10950 10264 0
h -10950 10279 0
h -10950 10574 0
h -7763 10280 10947 10948 10949 10950 0
h 7763 -10280 0
h 7763 -10947 0
h 7763 -10948 0
h 7763 -10949 0
h 7763 -10950 0
h 10951 -10273 -10553 0
h -10951 10273 0
h -10951 10553 0
h 10952 -10570 -10553 0
h -10952 10570 0
h -10952 10553 0
h 10953 -10570 -10279 0
h -10953 10570 0
h -10953 10279 0
h 10954 -10273 -10279 -10574 0
h -10954 10273 0
h -10954 10279 0
h -10954 10574 0
h -7770 10282 10951 10952 10953 10954 0
h 7770 -10282 0
h 7770 -10951 0
h 7770 -10952 0
h 7770 -10953 0
h 7770 -10954 0
h 10955 -10264 -10576 0
h -10955 10264 0
h -10955 10576 0
h 10956 -10554 -10576 0
h -10956 10554 0
h -10956 10576 0
h 10957 -10554 -10284 0
h -10957 10554 0
h -10957 10284 0
h 10958 -10264 -10284 -10574 0
h -10958 10264 0
h -10958 10284 0
h -10958 10574 0
h -7777 10285 10955 10956 10957 10958 0
h 7777 -10285 0
h 7777 -10955 0
h 7777 -10956 0
h 7777 -10957 0
h 7777 -10958 0
h 10959 -10264 -10578 0
h -10959 10264 0
h -10959 10578 0
h 10960 -10554 -10287 0
h -10960 10554 0
h -10960 10287 0
h 10961 -10554 -10578 0
h -10961 10554 0
h -10961 10578 0
h 10962 -10264 -10287 -10574 0
h -10962 10264 0
h -10962 10287 0
h -10962 10574 0
h -7784 10288 10959 10960 10961 10962 0
h 7784 -10288 0
h 7784 -10959 0
h 7784 -10960 0
h 7784 -10961 0
h 7784 -10962 0
h 10963 -10273 -10578 0
h -10963 10273 0
h -10963 10578 0
h 10964 -10570 -10578 0
h -10964 10570 0
h -10964 10578 0
h 10965 -10570 -10287 0
h -10965 10570 0
h -10965 10287 0
h 10966 -10273 -10287 -10574 0
h -10966 10273 0
h -10966 10287 0
h -10966 10574 0
h -7789 10290 10963 10964 10965 10966 0
h 7789 -10290 0
h 7789 -10963 0
h 7789 -10964 0
h 7789 -10965 0
h 7789 -10966 0
h 10967 -10267 -10570 0
h -10967 10267 0
h -10967 10570 0
h 10968 -10563 -10273 0
h -10968 10563 0
h -10968 10273 0
h 10969 -10563 -10570 0
h -10969 10563 0
h -10969 10570 0
h 10970 -10267 -10273 -10574 0
h -10970 10267 0
h -10970 10273 0
h -10970 10574 0
h -7767 10292 10967 10968 10969 10970 0
h 7767 -10292 0
h 7767 -10967 0
h 7767 -10968 0
h 7767 -10969 0
h 7767 -10970 0
h 10971 -10267 -10563 0
h -10971 10267 0
h -10971 10563 0
h 10972 -10563 -10563 0
h -10972 10563 0
h -10972 10563 0
h 10973 -10563 -10267 0
h -10973 10563 0
h -10973 10267 0
h 10974 -10267 -10267 -10574 0
h -10974 10267 0
h -10974 10267 0
h -10974 10574 0
h -7748 10294 10971 10972 10973 10974 0
h 7748 -10294 0
h 7748 -10971 0
h 7748 -10972 0
h 7748 -10973 0
h 7748 -10974 0
h 10975 -10267 -10943 0
h -10975 10267 0
h -10975 10943 0
h 10976 -10563 -10943 0
h -10976 10563 0
h -10976 10943 0
h 10977 -10563 -10276 0
h -10977 10563 0
h -10977 10276 0
h 10978 -10267 -10276 -10574 0
h -10978 10267 0
h -10978 10276 0
h -10978 10574 0
h -7751 10296 10975 10976 10977 10978 0
h 7751 -10296 0
h 7751 -10975 0
h 7751 -10976 0
h 7751 -10977 0
h 7751 -10978 0
h 10979 -10267 -10553 0
h -10979 10267 0
h -10979 10553 0
h 10980 -10563 -10279 0
h -10980 10563 0
h -10980 10279 0
h 10981 -10563 -10553 0
h -10981 10563 0
h -10981 10553 0
h 10982 -10267 -10279 -10574 0
h -10982 10267 0
h -10982 10279 0
h -10982 10574 0
h -7758 10298 10979 10980 10981 10982 0
h 7758 -10298 0
h 7758 -10979 0
h 7758 -10980 0
h 7758 -10981 0
h 7758 -10982 0
h 10983 -10270 -10553 0
h -10983 10270 0
h -10983 10553 0
h 10984 -10572 -10553 0
h -10984 10572 0
h -10984 10553 0
h 10985 -10572 -10279 0
h -10985 10572 0
h -10985 10279 0
h 10986 -10270 -10279 -10574 0
h -10986 10270 0
h -10986 10279 0
h -10986 10574 0
h -7760 10300 10983 10984 10985 10986 0
h 7760 -10300 0
h 7760 -10983 0
h 7760 -10984 0
h 7760 -10985 0
h 7760 -10986 0
h 10987 -10267 -10576 0
h -10987 10267 0
h -10987 10576 0
h 10988 -10563 -10576 0
h -10988 10563 0
h -10988 10576 0
h 10989 -10563 -10284 0
h -10989 10563 0
h -10989 10284 0
h 10990 -10267 -10284 -10574 0
h -10990 10267 0
h -10990 10284 0
h -10990 10574 0
h -7772 10302 10987 10988 10989 10990 0
h 7772 -10302 0
h 7772 -10987 0
h 7772 -10988 0
h 7772 -10989 0
h 7772 -10990 0
h 10991 -10267 -10578 0
h -10991 10267 0
h -10991 10578 0
h 10992 -10563 -10287 0
h -10992 10563 0
h -10992 10287 0
h 10993 -10563 -10578 0
h -10993 10563 0
h -10993 10578 0
h 10994 -10267 -10287 -10574 0
h -10994 10267 0
h -10994 10287 0
h -10994 10574 0
h -7779 10304 10991 10992 10993 10994 0
h 7779 -10304 0
h 7779 -10991 0
h 7779 -10992 0
h 7779 -10993 0
h 7779 -10994 0
h 10995 -10270 -10578 0
h -10995 10270 0
h -10995 10578 0
h 10996 -10572 -10578 0
h -10996 10572 0
h -10996 10578 0
h 10997 -10572 -10287 0
h -10997 10572 0
h -10997 10287 0
h 10998 -10270 -10287 -10574 0
h -10998 10270 0
h -10998 10287 0
h -10998 10574 0
h -7781 10306 10995 10996 10997 10998 0
h 7781 -10306 0
h 7781 -10995 0
h 7781 -10996 0
h 7781 -10997 0
h 7781 -10998 0
h 10999 -10276 -10570 0
h -10999 10276 0
h -10999 10570 0
h 11000 -10943 -10273 0
h -11000 10943 0
h -11000 10273 0
h 11001 -10943 -10570 0
h -11001 10943 0
h -11001 10570 0
h 11002 -10276 -10273 -10574 0
h -11002 10276 0
h -11002 10273 0
h -11002 10574 0
h -7794 10308 10999 11000 11001 11002 0
h 7794 -10308 0
h 7794 -10999 0
h 7794 -11000 0
h 7794 -11001 0
h 7794 -11002 0
h 11003 -10276 -10572 0
h -11003 10276 0
h -11003 10572 0
h 11004 -10943 -10270 0
h -11004 10943 0
h -11004 10270 0
h 11005 -10943 -10572 0
h -11005 10943 0
h -11005 10572 0
h 11006 -10276 -10270 -10574 0
h -11006 10276 0
h -11006 10270 0
h -11006 10574 0
h -7754 10310 11003 11004 11005 11006 0
h 7754 -10310 0
h 7754 -11003 0
h 7754 -11004 0
h 7754 -11005 0
h 7754 -11006 0
h 11007 -10276 -10943 0
h -11007 10276 0
h -11007 10943 0
h 11008 -10943 -10943 0
h -11008 10943 0
h -11008 10943 0
h 11009 -10943 -10276 0
h -11009 10943 0
h -11009 10276 0
h 11010 -10276 -10276 -10574 0
h -11010 10276 0
h -11010 10276 0
h -11010 10574 0
h -7799 10312 11007 11008 11009 11010 0
h 7799 -10312 0
h 7799 -11007 0
h 7799 -11008 0
h 7799 -11009 0
h 7799 -11010 0
h 11011 -10276 -10576 0
h -11011 10276 0
h -11011 10576 0
h 11012 -10943 -10576 0
h -11012 10943 0
h -11012 10576 0
h 11013 -10943 -10284 0
h -11013 10943 0
h -11013 10284 0
h 11014 -10276 -10284 -10574 0
h -11014 10276 0
h -11014 10284 0
h -11014 10574 0
h -7804 10314 11011 11012 11013 11014 0
h 7804 -10314 0
h 7804 -11011 0
h 7804 -11012 0
h 7804 -11013 0
h 7804 -11014 0
h 11015 -10276 -10578 0
h -11015 10276 0
h -11015 10578 0
h 11016 -10943 -10287 0
h -11016 10943 0
h -11016 10287 0
h 11017 -10943 -10578 0
h -11017 10943 0
h -11017 10578 0
h 11018 -10276 -10287 -10574 0
h -11018 10276 0
h -11018 10287 0
h -11018 10574 0
h -7809 10316 11015 11016 11017 11018 0
h 7809 -10316 0
h 7809 -11015 0
h 7809 -11016 0
h 7809 -11017 0
h 7809 -11018 0
h 11019 -10279 -10578 0
h -11019 10279 0
h -11019 10578 0
h 11020 -10553 -10578 0
h -11020 10553 0
h -11020 10578 0
h 11021 -10553 -10287 0
h -11021 10553 0
h -11021 10287 0
h 11022 -10279 -10287 -10574 0
h -11022 10279 0
h -11022 10287 0
h -11022 10574 0
h -7814 10318 11019 11020 11021 11022 0
h 7814 -10318 0
h 7814 -11019 0
h 7814 -11020 0
h 7814 -11021 0
h 7814 -11022 0
h 11023 -10284 -10570 0
h -11023 10284 0
h -11023 10570 0
h 11024 -10576 -10273 0
h -11024 10576 0
h -11024 10273 0
h 11025 -10576 -10570 0
h -11025 10576 0
h -11025 10570 0
h 11026 -10284 -10273 -10574 0
h -11026 10284 0
h -11026 10273 0
h -11026 10574 0
h -7819 10320 11023 11024 11025 11026 0
h 7819 -10320 0
h 7819 -11023 0
h 7819 -11024 0
h 7819 -11025 0
h 7819 -11026 0
h 11027 -10284 -10572 0
h -11027 10284 0
h -11027 10572 0
h 11028 -10576 -10270 0
h -11028 10576 0
h -11028 10270 0
h 11029 -10576 -10572 0
h -11029 10576 0
h -11029 10572 0
h 11030 -10284 -10270 -10574 0
h -11030 10284 0
h -11030 10270 0
h -11030 10574 0
h -7775 10322 11027 11028 11029 11030 0
h 7775 -10322 0
h 7775 -11027 0
h 7775 -11028 0
h 7775 -11029 0
h 7775 -11030 0
h 11031 -10284 -10553 0
h -11031 10284 0
h -11031 10553 0
h 11032 -10576 -10279 0
h -11032 10576 0
h -11032 10279 0
h 11033 -10576 -10553 0
h -11033 10576 0
h -11033 10553 0
h 11034 -10284 -10279 -10574 0
h -11034 10284 0
h -11034 10279 0
h -11034 10574 0
h -7824 10324 11031 11032 11033 11034 0
h 7824 -10324 0
h 7824 -11031 0
h 7824 -11032 0
h 7824 -11033 0
h 7824 -11034 0
h 11035 -10284 -10576 0
h -11035 10284 0
h -11035 10576 0
h 11036 -10576 -10576 0
h -11036 10576 0
h -11036 10576 0
h 11037 -10576 -10284 0
h -11037 10576 0
h -11037 10284 0
h 11038 -10284 -10284 -10574 0
h -11038 10284 0
h -11038 10284 0
h -11038 10574 0
h -7829 10326 11035 11036 11037 11038 0
h 7829 -10326 0
h 7829 -11035 0
h 7829 -11036 0
h 7829 -11037 0
h 7829 -11038 0
h 11039 -10770 -10770 0
h -11039 10770 0
h -11039 10770 0
h -6585 10776 11039 0
h 6585 -10776 0
h 6585 -11039 0
h 11040 -10770 -10781 0
h -11040 10770 0
h -11040 10781 0
h -6580 10783 11040 0
h 6580 -10783 0
h 6580 -11040 0
h 11041 -10770 -10787 0
h -11041 10770 0
h -11041 10787 0
h -6579 10790 11041 0
h 6579 -10790 0
h 6579 -11041 0
h 11042 -10792 -10787 0
h -11042 10792 0
h -11042 10787 0
h -6601 10797 11042 0
h 6601 -10797 0
h 6601 -11042 0
h 11043 -10770 -10802 0
h -11043 10770 0
h -11043 10802 0
h -6592 10804 11043 0
h 6592 -10804 0
h 6592 -11043 0
h 11044 -10770 -10808 0
h -11044 10770 0
h -11044 10808 0
h -6599 10811 11044 0
h 6599 -10811 0
h 6599 -11044 0
h 11045 -10792 -10808 0
h -11045 10792 0
h -11045 10808 0
h -6606 10816 11045 0
h 6606 -10816 0
h 6606 -11045 0
h 11046 -10770 -10821 0
h -11046 10770 0
h -11046 10821 0
h -6613 10823 11046 0
h 6613 -10823 0
h 6613 -11046 0
h 11047 -10770 -10827 0
h -11047 10770 0
h -11047 10827 0
h -6620 10830 11047 0
h 6620 -10830 0
h 6620 -11047 0
h 11048 -10792 -10827 0
h -11048 10792 0
h -11048 10827 0
h -6625 10835 11048 0
h 6625 -10835 0
h 6625 -11048 0
h 11049 -10781 -10792 0
h -11049 10781 0
h -11049 10792 0
h -6603 10840 11049 0
h 6603 -10840 0
h 6603 -11049 0
h 11050 -10781 -10781 0
h -11050 10781 0
h -11050 10781 0
h -6584 10845 11050 0
h 6584 -10845 0
h 6584 -11050 0
h 11051 -10781 -10802 0
h -11051 10781 0
h -11051 10802 0
h -6587 10850 11051 0
h 6587 -10850 0
h 6587 -11051 0
h 11052 -10781 -10808 0
h -11052 10781 0
h -11052 10808 0
h -6594 10855 11052 0
h 6594 -10855 0
h 6594 -11052 0
h 11053 -10787 -10808 0
h -11053 10787 0
h -11053 10808 0
h -6596 10860 11053 0
h 6596 -10860 0
h 6596 -11053 0
h 11054 -10781 -10821 0
h -11054 10781 0
h -11054 10821 0
h -6608 10865 11054 0
h 6608 -10865 0
h 6608 -11054 0
h 11055 -10781 -10827 0
h -11055 10781 0
h -11055 10827 0
h -6615 10870 11055 0
h 6615 -10870 0
h 6615 -11055 0
h 11056 -10787 -10827 0
h -11056 10787 0
h -11056 10827 0
h -6617 10875 11056 0
h 6617 -10875 0
h 6617 -11056 0
h 11057 -10802 -10792 0
h -11057 10802 0
h -11057 10792 0
h -6630 10880 11057 0
h 6630 -10880 0
h 6630 -11057 0
h 11058 -10802 -10787 0
h -11058 10802 0
h -11058 10787 0
h -6590 10885 11058 0
h 6590 -10885 0
h 6590 -11058 0
h 11059 -10802 -10802 0
h -11059 10802 0
h -11059 10802 0
h -6635 10890 11059 0
h 6635 -10890 0
h 6635 -11059 0
h 11060 -10802 -10821 0
h -11060 10802 0
h -11060 10821 0
h -6640 10895 11060 0
h 6640 -10895 0
h 6640 -11060 0
h 11061 -10802 -10827 0
h -11061 10802 0
h -11061 10827 0
h -6645 10900 11061 0
h 6645 -10900 0
h 6645 -11061 0
h 11062 -10808 -10827 0
h -11062 10808 0
h -11062 10827 0
h -6650 10905 11062 0
h 6650 -10905 0
h 6650 -11062 0
h 11063 -10821 -10792 0
h -11063 10821 0
h -11063 10792 0
h -6655 10910 11063 0
h 6655 -10910 0
h 6655 -11063 0
h 11064 -10821 -10787 0
h -11064 10821 0
h -11064 10787 0
h -6611 10915 11064 0
h 6611 -10915 0
h 6611 -11064 0
h 11065 -10821 -10808 0
h -11065 10821 0
h -11065 10808 0
h -6660 10920 11065 0
h 6660 -10920 0
h 6660 -11065 0
h 11066 -10821 -10821 0
h -11066 10821 0
h -11066 10821 0
h -6665 10925 11066 0
h 6665 -10925 0
h 6665 -11066 0
h 11067 -10585 -10682 0
h -11067 10585 0
h -11067 10682 0
h 11068 -10682 -10682 0
h -11068 10682 0
h -11068 10682 0
h 11069 -10682 -10585 0
h -11069 10682 0
h -11069 10585 0
h 11070 -10585 -10585 -10768 0
h -11070 10585 0
h -11070 10585 0
h -11070 10768 0
h -8014 10586 11067 11068 11069 11070 0
h 8014 -10586 0
h 8014 -11067 0
h 8014 -11068 0
h 8014 -11069 0
h 8014 -11070 0
h 11071 -10585 -10715 0
h -11071 10585 0
h -11071 10715 0
h 11072 -10682 -10715 0
h -11072 10682 0
h -11072 10715 0
h 11073 -10682 -10588 0
h -11073 10682 0
h -11073 10588 0
h 11074 -10585 -10588 -10768 0
h -11074 10585 0
h -11074 10588 0
h -11074 10768 0
h -8009 10589 11071 11072 11073 11074 0
h 8009 -10589 0
h 8009 -11071 0
h 8009 -11072 0
h 8009 -11073 0
h 8009 -11074 0
h 11075 -10585 -10758 0
h -11075 10585 0
h -11075 10758 0
h 11076 -10682 -10591 0
h -11076 10682 0
h -11076 10591 0
h 11077 -10682 -10758 0
h -11077 10682 0
h -11077 10758 0
h 11078 -10585 -10591 -10768 0
h -11078 10585 0
h -11078 10591 0
h -11078 10768 0
h -8008 10592 11075 11076 11077 11078 0
h 8008 -10592 0
h 8008 -11075 0
h 8008 -11076 0
h 8008 -11077 0
h 8008 -11078 0
h 11079 -10594 -10758 0
h -11079 10594 0
h -11079 10758 0
h 11080 -10753 -10758 0
h -11080 10753 0
h -11080 10758 0
h 11081 -10753 -10591 0
h -11081 10753 0
h -11081 10591 0
h 11082 -10594 -10591 -10768 0
h -11082 10594 0
h -11082 10591 0
h -11082 10768 0
h -8030 10595 11079 11080 11081 11082 0
h 8030 -10595 0
h 8030 -11079 0
h 8030 -11080 0
h 8030 -11081 0
h 8030 -11082 0
h 11083 -10585 -10740 0
h -11083 10585 0
h -11083 10740 0
h 11084 -10682 -10740 0
h -11084 10682 0
h -11084 10740 0
h 11085 -10682 -10597 0
h -11085 10682 0
h -11085 10597 0
h 11086 -10585 -10597 -10768 0
h -11086 10585 0
h -11086 10597 0
h -11086 10768 0
h -8021 10598 11083 11084 11085 11086 0
h 8021 -10598 0
h 8021 -11083 0
h 8021 -11084 0
h 8021 -11085 0
h 8021 -11086 0
h 11087 -10585 -10763 0
h -11087 10585 0
h -11087 10763 0
h 11088 -10682 -10600 0
h -11088 10682 0
h -11088 10600 0
h 11089 -10682 -10763 0
h -11089 10682 0
h -11089 10763 0
h 11090 -10585 -10600 -10768 0
h -11090 10585 0
h -11090 10600 0
h -11090 10768 0
h -8028 10601 11087 11088 11089 11090 0
h 8028 -10601 0
h 8028 -11087 0
h 8028 -11088 0
h 8028 -11089 0
h 8028 -11090 0
h 11091 -10594 -10763 0
h -11091 10594 0
h -11091 10763 0
h 11092 -10753 -10763 0
h -11092 10753 0
h -11092 10763 0
h 11093 -10753 -10600 0
h -11093 10753 0
h -11093 10600 0
h 11094 -10594 -10600 -10768 0
h -11094 10594 0
h -11094 10600 0
h -11094 10768 0
h -8035 10603 11091 11092 11093 11094 0
h 8035 -10603 0
h 8035 -11091 0
h 8035 -11092 0
h 8035 -11093 0
h 8035 -11094 0
h 11095 -10585 -10677 0
h -11095 10585 0
h -11095 10677 0
h 11096 -10682 -10677 0
h -11096 10682 0
h -11096 10677 0
h 11097 -10682 -10605 0
h -11097 10682 0
h -11097 10605 0
h 11098 -10585 -10605 -10768 0
h -11098 10585 0
h -11098 10605 0
h -11098 10768 0
h -8042 10606 11095 11096 11097 11098 0
h 8042 -10606 0
h 8042 -11095 0
h 8042 -11096 0
h 8042 -11097 0
h 8042 -11098 0
h 11099 -10585 -10680 0
h -11099 10585 0
h -11099 10680 0
h 11100 -10682 -10608 0
h -11100 10682 0
h -11100 10608 0
h 11101 -10682 -10680 0
h -11101 10682 0
h -11101 10680 0
h 11102 -10585 -10608 -10768 0
h -11102 10585 0
h -11102 10608 0
h -11102 10768 0
h -8049 10609 11099 11100 11101 11102 0
h 8049 -10609 0
h 8049 -11099 0
h 8049 -11100 0
h 8049 -11101 0
h 8049 -11102 0
h 11103 -10594 -10680 0
h -11103 10594 0
h -11103 10680 0
h 11104 -10753 -10680 0
h -11104 10753 0
h -11104 10680 0
h 11105 -10753 -10608 0
h -11105 10753 0
h -11105 10608 0
h 11106 -10594 -10608 -10768 0
h -11106 10594 0
h -11106 10608 0
h -11106 10768 0
h -8054 10611 11103 11104 11105 11106 0
h 8054 -10611 0
h 8054 -11103 0
h 8054 -11104 0
h 8054 -11105 0
h 8054 -11106 0
h 11107 -10588 -10753 0
h -11107 10588 0
h -11107 10753 0
h 11108 -10715 -10594 0
h -11108 10715 0
h -11108 10594 0
h 11109 -10715 -10753 0
h -11109 10715 0
h -11109 10753 0
h 11110 -10588 -10594 -10768 0
h -11110 10588 0
h -11110 10594 0
h -11110 10768 0
h -8032 10613 11107 11108 11109 11110 0
h 8032 -10613 0
h 8032 -11107 0
h 8032 -11108 0
h 8032 -11109 0
h 8032 -11110 0
h 11111 -10588 -10715 0
h -11111 10588 0
h -11111 10715 0
h 11112 -10715 -10715 0
h -11112 10715 0
h -11112 10715 0
h 11113 -10715 -10588 0
h -11113 10715 0
h -11113 10588 0
h 11114 -10588 -10588 -10768 0
h -11114 10588 0
h -11114 10588 0
h -11114 10768 0
h -8013 10615 11111 11112 11113 11114 0
h 8013 -10615 0
h 8013 -11111 0
h 8013 -11112 0
h 8013 -11113 0
h 8013 -11114 0
h 11115 -10588 -10740 0
h -11115 10588 0
h -11115 10740 0
h 11116 -10715 -10740 0
h -11116 10715 0
h -11116 10740 0
h 11117 -10715 -10597 0
h -11117 10715 0
h -11117 10597 0
h 11118 -10588 -10597 -10768 0
h -11118 10588 0
h -11118 10597 0
h -11118 10768 0
h -8016 10617 11115 11116 11117 11118 0
h 8016 -10617 0
h 8016 -11115 0
h 8016 -11116 0
h 8016 -11117 0
h 8016 -11118 0
h 11119 -10588 -10763 0
h -11119 10588 0
h -11119 10763 0
h 11120 -10715 -10600 0
h -11120 10715 0
h -11120 10600 0
h 11121 -10715 -10763 0
h -11121 10715 0
h -11121 10763 0
h 11122 -10588 -10600 -10768 0
h -11122 10588 0
h -11122 10600 0
h -11122 10768 0
h -8023 10619 11119 11120 11121 11122 0
h 8023 -10619 0
h 8023 -11119 0
h 8023 -11120 0
h 8023 -11121 0
h 8023 -11122 0
h 11123 -10591 -10763 0
h -11123 10591 0
h -11123 10763 0
h 11124 -10758 -10763 0
h -11124 10758 0
h -11124 10763 0
h 11125 -10758 -10600 0
h -11125 10758 0
h -11125 10600 0
h 11126 -10591 -10600 -10768 0
h -11126 10591 0
h -11126 10600 0
h -11126 10768 0
h -8025 10621 11123 11124 11125 11126 0
h 8025 -10621 0
h 8025 -11123 0
h 8025 -11124 0
h 8025 -11125 0
h 8025 -11126 0
h 11127 -10588 -10677 0
h -11127 10588 0
h -11127 10677 0
h 11128 -10715 -10677 0
h -11128 10715 0
h -11128 10677 0
h 11129 -10715 -10605 0
h -11129 10715 0
h -11129 10605 0
h 11130 -10588 -10605 -10768 0
h -11130 10588 0
h -11130 10605 0
h -11130 10768 0
h -8037 10623 11127 11128 11129 11130 0
h 8037 -10623 0
h 8037 -11127 0
h 8037 -11128 0
h 8037 -11129 0
h 8037 -11130 0
h 11131 -10588 -10680 0
h -11131 10588 0
h -11131 10680 0
h 11132 -10715 -10608 0
h -11132 10715 0
h -11132 10608 0
h 11133 -10715 -10680 0
h -11133 10715 0
h -11133 10680 0
h 11134 -10588 -10608 -10768 0
h -11134 10588 0
h -11134 10608 0
h -11134 10768 0
h -8044 10625 11131 11132 11133 11134 0
h 8044 -10625 0
h 8044 -11131 0
h 8044 -11132 0
h 8044 -11133 0
h 8044 -11134 0
h 11135 -10591 -10680 0
h -11135 10591 0
h -11135 10680 0
h 11136 -10758 -10680 0
h -11136 10758 0
h -11136 10680 0
h 11137 -10758 -10608 0
h -11137 10758 0
h -11137 10608 0
h 11138 -10591 -10608 -10768 0
h -11138 10591 0
h -11138 10608 0
h -11138 10768 0
h -8046 10627 11135 11136 11137 11138 0
h 8046 -10627 0
h 8046 -11135 0
h 8046 -11136 0
h 8046 -11137 0
h 8046 -11138 0
h 11139 -10597 -10753 0
h -11139 10597 0
h -11139 10753 0
h 11140 -10740 -10594 0
h -11140 10740 0
h -11140 10594 0
h 11141 -10740 -10753 0
h -11141 10740 0
h -11141 10753 0
h 11142 -10597 -10594 -10768 0
h -11142 10597 0
h -11142 10594 0
h -11142 10768 0
h -8059 10629 11139 11140 11141 11142 0
h 8059 -10629 0
h 8059 -11139 0
h 8059 -11140 0
h 8059 -11141 0
h 8059 -11142 0
h 11143 -10597 -10758 0
h -11143 10597 0
h -11143 10758 0
h 11144 -10740 -10591 0
h -11144 10740 0
h -11144 10591 0
h 11145 -10740 -10758 0
h -11145 10740 0
h -11145 10758 0
h 11146 -10597 -10591 -10768 0
h -11146 10597 0
h -11146 10591 0
h -11146 10768 0
h -8019 10631 11143 11144 11145 11146 0
h 8019 -10631 0
h 8019 -11143 0
h 8019 -11144 0
h 8019 -11145 0
h 8019 -11146 0
h 11147 -10597 -10740 0
h -11147 10597 0
h -11147 10740 0
h 11148 -10740 -10740 0
h -11148 10740 0
h -11148 10740 0
h 11149 -10740 -10597 0
h -11149 10740 0
h -11149 10597 0
h 11150 -10597 -10597 -10768 0
h -11150 10597 0
h -11150 10597 0
h -11150 10768 0
h -8064 10633 11147 11148 11149 11150 0
h 8064 -10633 0
h 8064 -11147 0
h 8064 -11148 0
h 8064 -11149 0
h 8064 -11150 0
h 11151 -10597 -10677 0
h -11151 10597 0
h -11151 10677 0
h 11152 -10740 -10677 0
h -11152 10740 0
h -11152 10677 0
h 11153 -10740 -10605 0
h -11153 10740 0
h -11153 10605 0
h 11154 -10597 -10605 -10768 0
h -11154 10597 0
h -11154 10605 0
h -11154 10768 0
h -8069 10635 11151 11152 11153 11154 0
h 8069 -10635 0
h 8069 -11151 0
h 8069 -11152 0
h 8069 -11153 0
h 8069 -11154 0
h 11155 -10597 -10680 0
h -11155 10597 0
h -11155 10680 0
h 11156 -10740 -10608 0
h -11156 10740 0
h -11156 10608 0
h 11157 -10740 -10680 0
h -11157 10740 0
h -11157 10680 0
h 11158 -10597 -10608 -10768 0
h -11158 10597 0
h -11158 10608 0
h -11158 10768 0
h -8074 10637 11155 11156 11157 11158 0
h 8074 -10637 0
h 8074 -11155 0
h 8074 -11156 0
h 8074 -11157 0
h 8074 -11158 0
h 11159 -10600 -10680 0
h -11159 10600 0
h -11159 10680 0
h 11160 -10763 -10680 0
h -11160 10763 0
h -11160 10680 0
h 11161 -10763 -10608 0
h -11161 10763 0
h -11161 10608 0
h 11162 -10600 -10608 -10768 0
h -11162 10600 0
h -11162 10608 0
h -11162 10768 0
h -8079 10639 11159 11160 11161 11162 0
h 8079 -10639 0
h 8079 -11159 0
h 8079 -11160 0
h 8079 -11161 0
h 8079 -11162 0
h 11163 -10605 -10753 0
h -11163 10605 0
h -11163 10753 0
h 11164 -10677 -10594 0
h -11164 10677 0
h -11164 10594 0
h 11165 -10677 -10753 0
h -11165 10677 0
h -11165 10753 0
h 11166 -10605 -10594 -10768 0
h -11166 10605 0
h -11166 10594 0
h -11166 10768 0
h -8084 10641 11163 11164 11165 11166 0
h 8084 -10641 0
h 8084 -11163 0
h 8084 -11164 0
h 8084 -11165 0
h 8084 -11166 0
h 11167 -10605 -10758 0
h -11167 10605 0
h -11167 10758 0
h 11168 -10677 -10591 0
h -11168 10677 0
h -11168 10591 0
h 11169 -10677 -10758 0
h -11169 10677 0
h -11169 10758 0
h 11170 -10605 -10591 -10768 0
h -11170 10605 0
h -11170 10591 0
h -11170 10768 0
h -8040 10643 11167 11168 11169 11170 0
h 8040 -10643 0
h 8040 -11167 0
h 8040 -11168 0
h 8040 -11169 0
h 8040 -11170 0
h 11171 -10605 -10763 0
h -11171 10605 0
h -11171 10763 0
h 11172 -10677 -10600 0
h -11172 10677 0
h -11172 10600 0
h 11173 -10677 -10763 0
h -11173 10677 0
h -11173 10763 0
h 11174 -10605 -10600 -10768 0
h -11174 10605 0
h -11174 10600 0
h -11174 10768 0
h -8089 10645 11171 11172 11173 11174 0
h 8089 -10645 0
h 8089 -11171 0
h 8089 -11172 0
h 8089 -11173 0
h 8089 -11174 0
h 11175 -10605 -10677 0
h -11175 10605 0
h -11175 10677 0
h 10765 -10677 -10677 0
h -10765 10677 0
h -10765 10677 0
h 11176 -10677 -10605 0
h -11176 10677 0
h -11176 10605 0
h 11177 -10605 -10605 -10768 0
h -11177 10605 0
h -11177 10605 0
h -11177 10768 0
h -8094 10647 11175 10765 11176 11177 0
h 8094 -10647 0
h 8094 -11175 0
h 8094 -10765 0
h 8094 -11176 0
h 8094 -11177 0
h 11178 -10609 -10609 0
h -11178 10609 0
h -11178 10609 0
h -6968 10586 11178 0
h 6968 -10586 0
h 6968 -11178 0
h 11179 -10609 -10625 0
h -11179 10609 0
h -11179 10625 0
h -7950 10589 11179 0
h 7950 -10589 0
h 7950 -11179 0
h 11180 -10609 -10627 0
h -11180 10609 0
h -11180 10627 0
h -6967 10592 11180 0
h 6967 -10592 0
h 6967 -11180 0
h 11181 -10611 -10627 0
h -11181 10611 0
h -11181 10627 0
h -6976 10595 11181 0
h 6976 -10595 0
h 6976 -11181 0
h 11182 -10609 -10637 0
h -11182 10609 0
h -11182 10637 0
h -6971 10598 11182 0
h 6971 -10598 0
h 6971 -11182 0
h 11183 -10609 -10639 0
h -11183 10609 0
h -11183 10639 0
h -6974 10601 11183 0
h 6974 -10601 0
h 6974 -11183 0
h 11184 -10611 -10639 0
h -11184 10611 0
h -11184 10639 0
h -6977 10603 11184 0
h 6977 -10603 0
h 6977 -11184 0
h 11185 -10609 -10680 0
h -11185 10609 0
h -11185 10680 0
h -6980 10682 11185 0
h 6980 -10682 0
h 6980 -11185 0
h 11186 -10609 -10608 0
h -11186 10609 0
h -11186 10608 0
h -6983 10585 11186 0
h 6983 -10585 0
h 6983 -11186 0
h 11187 -10611 -10608 0
h -11187 10611 0
h -11187 10608 0
h -6985 10594 11187 0
h 6985 -10594 0
h 6985 -11187 0
h 11188 -10625 -10611 0
h -11188 10625 0
h -11188 10611 0
h -7975 10613 11188 0
h 7975 -10613 0
h 7975 -11188 0
h 11189 -10625 -10625 0
h -11189 10625 0
h -11189 10625 0
h -7980 10615 11189 0
h 7980 -10615 0
h 7980 -11189 0
h 11190 -10625 -10637 0
h -11190 10625 0
h -11190 10637 0
h -7945 10617 11190 0
h 7945 -10617 0
h 7945 -11190 0
h 11191 -10625 -10639 0
h -11191 10625 0
h -11191 10639 0
h -7948 10619 11191 0
h 7948 -10619 0
h 7948 -11191 0
h 11192 -10627 -10639 0
h -11192 10627 0
h -11192 10639 0
h -6973 10621 11192 0
h 6973 -10621 0
h 6973 -11192 0
h 11193 -10625 -10680 0
h -11193 10625 0
h -11193 10680 0
h -7985 10715 11193 0
h 7985 -10715 0
h 7985 -11193 0
h 11194 -10625 -10608 0
h -11194 10625 0
h -11194 10608 0
h -7990 10588 11194 0
h 7990 -10588 0
h 7990 -11194 0
h 11195 -10627 -10608 0
h -11195 10627 0
h -11195 10608 0
h -6982 10591 11195 0
h 6982 -10591 0
h 6982 -11195 0
h 11196 -10637 -10611 0
h -11196 10637 0
h -11196 10611 0
h -6987 10629 11196 0
h 6987 -10629 0
h 6987 -11196 0
h 11197 -10637 -10627 0
h -11197 10637 0
h -11197 10627 0
h -6970 10631 11197 0
h 6970 -10631 0
h 6970 -11197 0
h 11198 -10637 -10637 0
h -11198 10637 0
h -11198 10637 0
h -6989 10633 11198 0
h 6989 -10633 0
h 6989 -11198 0
h 11199 -10637 -10680 0
h -11199 10637 0
h -11199 10680 0
h -6991 10740 11199 0
h 6991 -10740 0
h 6991 -11199 0
h 11200 -10637 -10608 0
h -11200 10637 0
h -11200 10608 0
h -6993 10597 11200 0
h 6993 -10597 0
h 6993 -11200 0
h 11201 -10639 -10608 0
h -11201 10639 0
h -11201 10608 0
h -6995 10600 11201 0
h 6995 -10600 0
h 6995 -11201 0
h 11202 -10680 -10611 0
h -11202 10680 0
h -11202 10611 0
h -6997 10753 11202 0
h 6997 -10753 0
h 6997 -11202 0
h 11203 -10680 -10627 0
h -11203 10680 0
h -11203 10627 0
h -6979 10758 11203 0
h 6979 -10758 0
h 6979 -11203 0
h 11204 -10680 -10639 0
h -11204 10680 0
h -11204 10639 0
h -6999 10763 11204 0
h 6999 -10763 0
h 6999 -11204 0
h 11205 -10680 -10680 0
h -11205 10680 0
h -11205 10680 0
h -7001 10768 11205 0
h 7001 -10768 0
h 7001 -11205 0
h 11206 -10288 -10288 0
h -11206 10288 0
h -11206 10288 0
h -7148 10265 11206 0
h 7148 -10265 0
h 7148 -11206 0
h 11207 -10288 -10304 0
h -11207 10288 0
h -11207 10304 0
h -7143 10268 11207 0
h 7143 -10268 0
h 7143 -11207 0
h 11208 -10288 -10306 0
h -11208 10288 0
h -11208 10306 0
h -7142 10271 11208 0
h 7142 -10271 0
h 7142 -11208 0
h 11209 -10290 -10306 0
h -11209 10290 0
h -11209 10306 0
h -7164 10274 11209 0
h 7164 -10274 0
h 7164 -11209 0
h 11210 -10288 -10578 0
h -11210 10288 0
h -11210 10578 0
h -7155 10554 11210 0
h 7155 -10554 0
h 7155 -11210 0
h 11211 -10288 -10287 0
h -11211 10288 0
h -11211 10287 0
h -7162 10264 11211 0
h 7162 -10264 0
h 7162 -11211 0
h 11212 -10290 -10287 0
h -11212 10290 0
h -11212 10287 0
h -7169 10273 11212 0
h 7169 -10273 0
h 7169 -11212 0
h 11213 -10288 -10316 0
h -11213 10288 0
h -11213 10316 0
h -7176 10277 11213 0
h 7176 -10277 0
h 7176 -11213 0
h 11214 -10288 -10318 0
h -11214 10288 0
h -11214 10318 0
h -7183 10280 11214 0
h 7183 -10280 0
h 7183 -11214 0
h 11215 -10290 -10318 0
h -11215 10290 0
h -11215 10318 0
h -7188 10282 11215 0
h 7188 -10282 0
h 7188 -11215 0
h 11216 -10304 -10290 0
h -11216 10304 0
h -11216 10290 0
h -7166 10292 11216 0
h 7166 -10292 0
h 7166 -11216 0
h 11217 -10304 -10304 0
h -11217 10304 0
h -11217 10304 0
h -7147 10294 11217 0
h 7147 -10294 0
h 7147 -11217 0
h 11218 -10304 -10578 0
h -11218 10304 0
h -11218 10578 0
h -7150 10563 11218 0
h 7150 -10563 0
h 7150 -11218 0
h 11219 -10304 -10287 0
h -11219 10304 0
h -11219 10287 0
h -7157 10267 11219 0
h 7157 -10267 0
h 7157 -11219 0
h 11220 -10306 -10287 0
h -11220 10306 0
h -11220 10287 0
h -7159 10270 11220 0
h 7159 -10270 0
h 7159 -11220 0
h 11221 -10304 -10316 0
h -11221 10304 0
h -11221 10316 0
h -7171 10296 11221 0
h 7171 -10296 0
h 7171 -11221 0
h 11222 -10304 -10318 0
h -11222 10304 0
h -11222 10318 0
h -7178 10298 11222 0
h 7178 -10298 0
h 7178 -11222 0
h 11223 -10306 -10318 0
h -11223 10306 0
h -11223 10318 0
h -7180 10300 11223 0
h 7180 -10300 0
h 7180 -11223 0
h 11224 -10578 -10290 0
h -11224 10578 0
h -11224 10290 0
h -7193 10570 11224 0
h 7193 -10570 0
h 7193 -11224 0
h 11225 -10578 -10306 0
h -11225 10578 0
h -11225 10306 0
h -7153 10572 11225 0
h 7153 -10572 0
h 7153 -11225 0
h 11226 -10578 -10578 0
h -11226 10578 0
h -11226 10578 0
h -7198 10574 11226 0
h 7198 -10574 0
h 7198 -11226 0
h 11227 -10578 -10316 0
h -11227 10578 0
h -11227 10316 0
h -7203 10943 11227 0
h 7203 -10943 0
h 7203 -11227 0
h 11228 -10578 -10318 0
h -11228 10578 0
h -11228 10318 0
h -7208 10553 11228 0
h 7208 -10553 0
h 7208 -11228 0
h 11229 -10287 -10318 0
h -11229 10287 0
h -11229 10318 0
h -7213 10279 11229 0
h 7213 -10279 0
h 7213 -11229 0
h 11230 -10316 -10290 0
h -11230 10316 0
h -11230 10290 0
h -7218 10308 11230 0
h 7218 -10308 0
h 7218 -11230 0
h 11231 -10316 -10306 0
h -11231 10316 0
h -11231 10306 0
h -7174 10310 11231 0
h 7174 -10310 0
h 7174 -11231 0
h 11232 -10316 -10287 0
h -11232 10316 0
h -11232 10287 0
h -7223 10276 11232 0
h 7223 -10276 0
h 7223 -11232 0
h 11233 -10316 -10316 0
h -11233 10316 0
h -11233 10316 0
h -7228 10312 11233 0
h 7228 -10312 0
h 7228 -11233 0
h 11234 -10811 -10811 0
h -11234 10811 0
h -11234 10811 0
h -6932 10776 11234 0
h 6932 -10776 0
h 6932 -11234 0
h 11235 -10811 -10855 0
h -11235 10811 0
h -11235 10855 0
h -8259 10783 11235 0
h 8259 -10783 0
h 8259 -11235 0
h 11236 -10811 -10860 0
h -11236 10811 0
h -11236 10860 0
h -6931 10790 11236 0
h 6931 -10790 0
h 6931 -11236 0
h 11237 -10816 -10860 0
h -11237 10816 0
h -11237 10860 0
h -6940 10797 11237 0
h 6940 -10797 0
h 6940 -11237 0
h 11238 -10811 -10806 0
h -11238 10811 0
h -11238 10806 0
h -6935 10771 11238 0
h 6935 -10771 0
h 6935 -11238 0
h 11239 -10811 -10808 0
h -11239 10811 0
h -11239 10808 0
h -6938 10770 11239 0
h 6938 -10770 0
h 6938 -11239 0
h 11240 -10816 -10808 0
h -11240 10816 0
h -11240 10808 0
h -6941 10792 11240 0
h 6941 -10792 0
h 6941 -11240 0
h 11241 -10811 -10920 0
h -11241 10811 0
h -11241 10920 0
h -6944 10823 11241 0
h 6944 -10823 0
h 6944 -11241 0
h 11242 -10811 -10905 0
h -11242 10811 0
h -11242 10905 0
h -6947 10830 11242 0
h 6947 -10830 0
h 6947 -11242 0
h 11243 -10816 -10905 0
h -11243 10816 0
h -11243 10905 0
h -6949 10835 11243 0
h 6949 -10835 0
h 6949 -11243 0
h 11244 -10855 -10816 0
h -11244 10855 0
h -11244 10816 0
h -8276 10840 11244 0
h 8276 -10840 0
h 8276 -11244 0
h 11245 -10855 -10855 0
h -11245 10855 0
h -11245 10855 0
h -8263 10845 11245 0
h 8263 -10845 0
h 8263 -11245 0
h 11246 -10855 -10806 0
h -11246 10855 0
h -11246 10806 0
h -8265 10778 11246 0
h 8265 -10778 0
h 8265 -11246 0
h 11247 -10855 -10808 0
h -11247 10855 0
h -11247 10808 0
h -8270 10781 11247 0
h 8270 -10781 0
h 8270 -11247 0
h 11248 -10860 -10808 0
h -11248 10860 0
h -11248 10808 0
h -6937 10787 11248 0
h 6937 -10787 0
h 6937 -11248 0
h 11249 -10855 -10920 0
h -11249 10855 0
h -11249 10920 0
h -8280 10865 11249 0
h 8280 -10865 0
h 8280 -11249 0
h 11250 -10855 -10905 0
h -11250 10855 0
h -11250 10905 0
h -8285 10870 11250 0
h 8285 -10870 0
h 8285 -11250 0
h 11251 -10860 -10905 0
h -11251 10860 0
h -11251 10905 0
h -6946 10875 11251 0
h 6946 -10875 0
h 6946 -11251 0
h 11252 -10806 -10816 0
h -11252 10806 0
h -11252 10816 0
h -6951 10794 11252 0
h 6951 -10794 0
h 6951 -11252 0
h 11253 -10806 -10860 0
h -11253 10806 0
h -11253 10860 0
h -6934 10785 11253 0
h 6934 -10785 0
h 6934 -11253 0
h 11254 -10806 -10806 0
h -11254 10806 0
h -11254 10806 0
h -6953 10775 11254 0
h 6953 -10775 0
h 6953 -11254 0
h 11255 -10806 -10920 0
h -11255 10806 0
h -11255 10920 0
h -6955 10818 11255 0
h 6955 -10818 0
h 6955 -11255 0
h 11256 -10806 -10905 0
h -11256 10806 0
h -11256 10905 0
h -6957 10825 11256 0
h 6957 -10825 0
h 6957 -11256 0
h 11257 -10808 -10905 0
h -11257 10808 0
h -11257 10905 0
h -6959 10827 11257 0
h 6959 -10827 0
h 6959 -11257 0
h 11258 -10920 -10816 0
h -11258 10920 0
h -11258 10816 0
h -6961 10910 11258 0
h 6961 -10910 0
h 6961 -11258 0
h 11259 -10920 -10860 0
h -11259 10920 0
h -11259 10860 0
h -6943 10915 11259 0
h 6943 -10915 0
h 6943 -11259 0
h 11260 -10920 -10808 0
h -11260 10920 0
h -11260 10808 0
h -6963 10821 11260 0
h 6963 -10821 0
h 6963 -11260 0
h 11261 -10920 -10920 0
h -11261 10920 0
h -11261 10920 0
h -6965 10925 11261 0
h 6965 -10925 0
h 6965 -11261 0
h 11262 -10107 -10107 0
h -11262 10107 0
h -11262 10107 0
h -8332 10113 11262 0
h 8332 -10113 0
h 8332 -11262 0
h 11263 -10107 -10118 0
h -11263 10107 0
h -11263 10118 0
h -8327 10120 11263 0
h 8327 -10120 0
h 8327 -11263 0
h 11264 -10107 -10124 0
h -11264 10107 0
h -11264 10124 0
h -8326 10127 11264 0
h 8326 -10127 0
h 8326 -11264 0
h 11265 -10129 -10124 0
h -11265 10129 0
h -11265 10124 0
h -8348 10134 11265 0
h 8348 -10134 0
h 8348 -11265 0
h 11266 -10107 -10139 0
h -11266 10107 0
h -11266 10139 0
h -8339 10141 11266 0
h 8339 -10141 0
h 8339 -11266 0
h 11267 -10107 -10145 0
h -11267 10107 0
h -11267 10145 0
h -8346 10148 11267 0
h 8346 -10148 0
h 8346 -11267 0
h 11268 -10129 -10145 0
h -11268 10129 0
h -11268 10145 0
h -8353 10153 11268 0
h 8353 -10153 0
h 8353 -11268 0
h 11269 -10107 -10158 0
h -11269 10107 0
h -11269 10158 0
h -8360 10160 11269 0
h 8360 -10160 0
h 8360 -11269 0
h 11270 -10107 -10164 0
h -11270 10107 0
h -11270 10164 0
h -8367 10167 11270 0
h 8367 -10167 0
h 8367 -11270 0
h 11271 -10129 -10164 0
h -11271 10129 0
h -11271 10164 0
h -8372 10172 11271 0
h 8372 -10172 0
h 8372 -11271 0
h 11272 -10118 -10129 0
h -11272 10118 0
h -11272 10129 0
h -8350 10177 11272 0
h 8350 -10177 0
h 8350 -11272 0
h 11273 -10118 -10118 0
h -11273 10118 0
h -11273 10118 0
h -8331 10182 11273 0
h 8331 -10182 0
h 8331 -11273 0
h 11274 -10118 -10139 0
h -11274 10118 0
h -11274 10139 0
h -8334 10187 11274 0
h 8334 -10187 0
h 8334 -11274 0
h 11275 -10118 -10145 0
h -11275 10118 0
h -11275 10145 0
h -8341 10192 11275 0
h 8341 -10192 0
h 8341 -11275 0
h 11276 -10124 -10145 0
h -11276 10124 0
h -11276 10145 0
h -8343 10197 11276 0
h 8343 -10197 0
h 8343 -11276 0
h 11277 -10118 -10158 0
h -11277 10118 0
h -11277 10158 0
h -8355 10202 11277 0
h 8355 -10202 0
h 8355 -11277 0
h 11278 -10118 -10164 0
h -11278 10118 0
h -11278 10164 0
h -8362 10207 11278 0
h 8362 -10207 0
h 8362 -11278 0
h 11279 -10124 -10164 0
h -11279 10124 0
h -11279 10164 0
h -8364 10212 11279 0
h 8364 -10212 0
h 8364 -11279 0
h 11280 -10139 -10129 0
h -11280 10139 0
h -11280 10129 0
h -8377 10217 11280 0
h 8377 -10217 0
h 8377 -11280 0
h 11281 -10139 -10124 0
h -11281 10139 0
h -11281 10124 0
h -8337 10222 11281 0
h 8337 -10222 0
h 8337 -11281 0
h 11282 -10139 -10139 0
h -11282 10139 0
h -11282 10139 0
h -8382 10227 11282 0
h 8382 -10227 0
h 8382 -11282 0
h 11283 -10139 -10158 0
h -11283 10139 0
h -11283 10158 0
h -8387 10232 11283 0
h 8387 -10232 0
h 8387 -11283 0
h 11284 -10139 -10164 0
h -11284 10139 0
h -11284 10164 0
h -8392 10237 11284 0
h 8392 -10237 0
h 8392 -11284 0
h 11285 -10145 -10164 0
h -11285 10145 0
h -11285 10164 0
h -8397 10242 11285 0
h 8397 -10242 0
h 8397 -11285 0
h 11286 -10158 -10129 0
h -11286 10158 0
h -11286 10129 0
h -8402 10247 11286 0
h 8402 -10247 0
h 8402 -11286 0
h 11287 -10158 -10124 0
h -11287 10158 0
h -11287 10124 0
h -8358 10252 11287 0
h 8358 -10252 0
h 8358 -11287 0
h 11288 -10158 -10145 0
h -11288 10158 0
h -11288 10145 0
h -8407 10257 11288 0
h 8407 -10257 0
h 8407 -11288 0
h 11289 -10158 -10158 0
h -11289 10158 0
h -11289 10158 0
h -8412 10262 11289 0
h 8412 -10262 0
h 8412 -11289 0
h 11290 -10601 -10601 0
h -11290 10601 0
h -11290 10601 0
h -6461 10586 11290 0
h 6461 -10586 0
h 6461 -11290 0
h 11291 -10601 -10619 0
h -11291 10601 0
h -11291 10619 0
h -6456 10589 11291 0
h 6456 -10589 0
h 6456 -11291 0
h 11292 -10601 -10621 0
h -11292 10601 0
h -11292 10621 0
h -6455 10592 11292 0
h 6455 -10592 0
h 6455 -11292 0
h 11293 -10603 -10621 0
h -11293 10603 0
h -11293 10621 0
h -6477 10595 11293 0
h 6477 -10595 0
h 6477 -11293 0
h 11294 -10601 -10763 0
h -11294 10601 0
h -11294 10763 0
h -6468 10682 11294 0
h 6468 -10682 0
h 6468 -11294 0
h 11295 -10601 -10600 0
h -11295 10601 0
h -11295 10600 0
h -6475 10585 11295 0
h 6475 -10585 0
h 6475 -11295 0
h 11296 -10603 -10600 0
h -11296 10603 0
h -11296 10600 0
h -6482 10594 11296 0
h 6482 -10594 0
h 6482 -11296 0
h 11297 -10601 -10645 0
h -11297 10601 0
h -11297 10645 0
h -6489 10606 11297 0
h 6489 -10606 0
h 6489 -11297 0
h 11298 -10601 -10639 0
h -11298 10601 0
h -11298 10639 0
h -6496 10609 11298 0
h 6496 -10609 0
h 6496 -11298 0
h 11299 -10603 -10639 0
h -11299 10603 0
h -11299 10639 0
h -6501 10611 11299 0
h 6501 -10611 0
h 6501 -11299 0
h 11300 -10619 -10603 0
h -11300 10619 0
h -11300 10603 0
h -6479 10613 11300 0
h 6479 -10613 0
h 6479 -11300 0
h 11301 -10619 -10619 0
h -11301 10619 0
h -11301 10619 0
h -6460 10615 11301 0
h 6460 -10615 0
h 6460 -11301 0
h 11302 -10619 -10763 0
h -11302 10619 0
h -11302 10763 0
h -6463 10715 11302 0
h 6463 -10715 0
h 6463 -11302 0
h 11303 -10619 -10600 0
h -11303 10619 0
h -11303 10600 0
h -6470 10588 11303 0
h 6470 -10588 0
h 6470 -11303 0
h 11304 -10621 -10600 0
h -11304 10621 0
h -11304 10600 0
h -6472 10591 11304 0
h 6472 -10591 0
h 6472 -11304 0
h 11305 -10619 -10645 0
h -11305 10619 0
h -11305 10645 0
h -6484 10623 11305 0
h 6484 -10623 0
h 6484 -11305 0
h 11306 -10619 -10639 0
h -11306 10619 0
h -11306 10639 0
h -6491 10625 11306 0
h 6491 -10625 0
h 6491 -11306 0
h 11307 -10621 -10639 0
h -11307 10621 0
h -11307 10639 0
h -6493 10627 11307 0
h 6493 -10627 0
h 6493 -11307 0
h 11308 -10763 -10603 0
h -11308 10763 0
h -11308 10603 0
h -6506 10753 11308 0
h 6506 -10753 0
h 6506 -11308 0
h 11309 -10763 -10621 0
h -11309 10763 0
h -11309 10621 0
h -6466 10758 11309 0
h 6466 -10758 0
h 6466 -11309 0
h 11310 -10763 -10763 0
h -11310 10763 0
h -11310 10763 0
h -6511 10768 11310 0
h 6511 -10768 0
h 6511 -11310 0
h 11311 -10763 -10645 0
h -11311 10763 0
h -11311 10645 0
h -6516 10677 11311 0
h 6516 -10677 0
h 6516 -11311 0
h 11312 -10763 -10639 0
h -11312 10763 0
h -11312 10639 0
h -6521 10680 11312 0
h 6521 -10680 0
h 6521 -11312 0
h 11313 -10600 -10639 0
h -11313 10600 0
h -11313 10639 0
h -6526 10608 11313 0
h 6526 -10608 0
h 6526 -11313 0
h 11314 -10645 -10603 0
h -11314 10645 0
h -11314 10603 0
h -6531 10641 11314 0
h 6531 -10641 0
h 6531 -11314 0
h 11315 -10645 -10621 0
h -11315 10645 0
h -11315 10621 0
h -6487 10643 11315 0
h 6487 -10643 0
h 6487 -11315 0
h 11316 -10645 -10600 0
h -11316 10645 0
h -11316 10600 0
h -6536 10605 11316 0
h 6536 -10605 0
h 6536 -11316 0
h 11317 -10645 -10645 0
h -11317 10645 0
h -11317 10645 0
h -6541 10647 11317 0
h 6541 -10647 0
h 6541 -11317 0
h 11318 -10601 -10598 0
h -11318 10601 0
h -11318 10598 0
h 11319 -10598 -10598 0
h -11319 10598 0
h -11319 10598 0
h 11320 -10598 -10601 0
h -11320 10598 0
h -11320 10601 0
h 11321 -10601 -10601 -10633 0
h -11321 10601 0
h -11321 10601 0
h -11321 10633 0
h -7427 10586 11318 11319 11320 11321 0
h 7427 -10586 0
h 7427 -11318 0
h 7427 -11319 0
h 7427 -11320 0
h 7427 -11321 0
h 11322 -10601 -10617 0
h -11322 10601 0
h -11322 10617 0
h 11323 -10598 -10617 0
h -11323 10598 0
h -11323 10617 0
h 11324 -10598 -10619 0
h -11324 10598 0
h -11324 10619 0
h 11325 -10601 -10619 -10633 0
h -11325 10601 0
h -11325 10619 0
h -11325 10633 0
h -7422 10589 11322 11323 11324 11325 0
h 7422 -10589 0
h 7422 -11322 0
h 7422 -11323 0
h 7422 -11324 0
h 7422 -11325 0
h 11326 -10601 -10631 0
h -11326 10601 0
h -11326 10631 0
h 11327 -10598 -10621 0
h -11327 10598 0
h -11327 10621 0
h 11328 -10598 -10631 0
h -11328 10598 0
h -11328 10631 0
h 11329 -10601 -10621 -10633 0
h -11329 10601 0
h -11329 10621 0
h -11329 10633 0
h -7421 10592 11326 11327 11328 11329 0
h 7421 -10592 0
h 7421 -11326 0
h 7421 -11327 0
h 7421 -11328 0
h 7421 -11329 0
h 11330 -10603 -10631 0
h -11330 10603 0
h -11330 10631 0
h 11331 -10629 -10631 0
h -11331 10629 0
h -11331 10631 0
h 11332 -10629 -10621 0
h -11332 10629 0
h -11332 10621 0
h 11333 -10603 -10621 -10633 0
h -11333 10603 0
h -11333 10621 0
h -11333 10633 0
h -7443 10595 11330 11331 11332 11333 0
h 7443 -10595 0
h 7443 -11330 0
h 7443 -11331 0
h 7443 -11332 0
h 7443 -11333 0
h 11334 -10601 -10740 0
h -11334 10601 0
h -11334 10740 0
h 11335 -10598 -10740 0
h -11335 10598 0
h -11335 10740 0
h 11336 -10598 -10763 0
h -11336 10598 0
h -11336 10763 0
h 11337 -10601 -10763 -10633 0
h -11337 10601 0
h -11337 10763 0
h -11337 10633 0
h -7434 10682 11334 11335 11336 11337 0
h 7434 -10682 0
h 7434 -11334 0
h 7434 -11335 0
h 7434 -11336 0
h 7434 -11337 0
h 11338 -10601 -10597 0
h -11338 10601 0
h -11338 10597 0
h 11339 -10598 -10600 0
h -11339 10598 0
h -11339 10600 0
h 11340 -10598 -10597 0
h -11340 10598 0
h -11340 10597 0
h 11341 -10601 -10600 -10633 0
h -11341 10601 0
h -11341 10600 0
h -11341 10633 0
h -7441 10585 11338 11339 11340 11341 0
h 7441 -10585 0
h 7441 -11338 0
h 7441 -11339 0
h 7441 -11340 0
h 7441 -11341 0
h 11342 -10603 -10597 0
h -11342 10603 0
h -11342 10597 0
h 11343 -10629 -10597 0
h -11343 10629 0
h -11343 10597 0
h 11344 -10629 -10600 0
h -11344 10629 0
h -11344 10600 0
h 11345 -10603 -10600 -10633 0
h -11345 10603 0
h -11345 10600 0
h -11345 10633 0
h -7448 10594 11342 11343 11344 11345 0
h 7448 -10594 0
h 7448 -11342 0
h 7448 -11343 0
h 7448 -11344 0
h 7448 -11345 0
h 11346 -10601 -10635 0
h -11346 10601 0
h -11346 10635 0
h 11347 -10598 -10635 0
h -11347 10598 0
h -11347 10635 0
h 11348 -10598 -10645 0
h -11348 10598 0
h -11348 10645 0
h 11349 -10601 -10645 -10633 0
h -11349 10601 0
h -11349 10645 0
h -11349 10633 0
h -7455 10606 11346 11347 11348 11349 0
h 7455 -10606 0
h 7455 -11346 0
h 7455 -11347 0
h 7455 -11348 0
h 7455 -11349 0
h 11350 -10601 -10637 0
h -11350 10601 0
h -11350 10637 0
h 11351 -10598 -10639 0
h -11351 10598 0
h -11351 10639 0
h 11352 -10598 -10637 0
h -11352 10598 0
h -11352 10637 0
h 11353 -10601 -10639 -10633 0
h -11353 10601 0
h -11353 10639 0
h -11353 10633 0
h -7462 10609 11350 11351 11352 11353 0
h 7462 -10609 0
h 7462 -11350 0
h 7462 -11351 0
h 7462 -11352 0
h 7462 -11353 0
h 11354 -10603 -10637 0
h -11354 10603 0
h -11354 10637 0
h 11355 -10629 -10637 0
h -11355 10629 0
h -11355 10637 0
h 11356 -10629 -10639 0
h -11356 10629 0
h -11356 10639 0
h 11357 -10603 -10639 -10633 0
h -11357 10603 0
h -11357 10639 0
h -11357 10633 0
h -7467 10611 11354 11355 11356 11357 0
h 7467 -10611 0
h 7467 -11354 0
h 7467 -11355 0
h 7467 -11356 0
h 7467 -11357 0
h 11358 -10619 -10629 0
h -11358 10619 0
h -11358 10629 0
h 11359 -10617 -10603 0
h -11359 10617 0
h -11359 10603 0
h 11360 -10617 -10629 0
h -11360 10617 0
h -11360 10629 0
h 11361 -10619 -10603 -10633 0
h -11361 10619 0
h -11361 10603 0
h -11361 10633 0
h -7445 10613 11358 11359 11360 11361 0
h 7445 -10613 0
h 7445 -11358 0
h 7445 -11359 0
h 7445 -11360 0
h 7445 -11361 0
h 11362 -10619 -10617 0
h -11362 10619 0
h -11362 10617 0
h 11363 -10617 -10617 0
h -11363 10617 0
h -11363 10617 0
h 11364 -10617 -10619 0
h -11364 10617 0
h -11364 10619 0
h 11365 -10619 -10619 -10633 0
h -11365 10619 0
h -11365 10619 0
h -11365 10633 0
h -7426 10615 11362 11363 11364 11365 0
h 7426 -10615 0
h 7426 -11362 0
h 7426 -11363 0
h 7426 -11364 0
h 7426 -11365 0
h 11366 -10619 -10740 0
h -11366 10619 0
h -11366 10740 0
h 11367 -10617 -10740 0
h -11367 10617 0
h -11367 10740 0
h 11368 -10617 -10763 0
h -11368 10617 0
h -11368 10763 0
h 11369 -10619 -10763 -10633 0
h -11369 10619 0
h -11369 10763 0
h -11369 10633 0
h -7429 10715 11366 11367 11368 11369 0
h 7429 -10715 0
h 7429 -11366 0
h 7429 -11367 0
h 7429 -11368 0
h 7429 -11369 0
h 11370 -10619 -10597 0
h -11370 10619 0
h -11370 10597 0
h 11371 -10617 -10600 0
h -11371 10617 0
h -11371 10600 0
h 11372 -10617 -10597 0
h -11372 10617 0
h -11372 10597 0
h 11373 -10619 -10600 -10633 0
h -11373 10619 0
h -11373 10600 0
h -11373 10633 0
h -7436 10588 11370 11371 11372 11373 0
h 7436 -10588 0
h 7436 -11370 0
h 7436 -11371 0
h 7436 -11372 0
h 7436 -11373 0
h 11374 -10621 -10597 0
h -11374 10621 0
h -11374 10597 0
h 11375 -10631 -10597 0
h -11375 10631 0
h -11375 10597 0
h 11376 -10631 -10600 0
h -11376 10631 0
h -11376 10600 0
h 11377 -10621 -10600 -10633 0
h -11377 10621 0
h -11377 10600 0
h -11377 10633 0
h -7438 10591 11374 11375 11376 11377 0
h 7438 -10591 0
h 7438 -11374 0
h 7438 -11375 0
h 7438 -11376 0
h 7438 -11377 0
h 11378 -10619 -10635 0
h -11378 10619 0
h -11378 10635 0
h 11379 -10617 -10635 0
h -11379 10617 0
h -11379 10635 0
h 11380 -10617 -10645 0
h -11380 10617 0
h -11380 10645 0
h 11381 -10619 -10645 -10633 0
h -11381 10619 0
h -11381 10645 0
h -11381 10633 0
h -7450 10623 11378 11379 11380 11381 0
h 7450 -10623 0
h 7450 -11378 0
h 7450 -11379 0
h 7450 -11380 0
h 7450 -11381 0
h 11382 -10619 -10637 0
h -11382 10619 0
h -11382 10637 0
h 11383 -10617 -10639 0
h -11383 10617 0
h -11383 10639 0
h 11384 -10617 -10637 0
h -11384 10617 0
h -11384 10637 0
h 11385 -10619 -10639 -10633 0
h -11385 10619 0
h -11385 10639 0
h -11385 10633 0
h -7457 10625 11382 11383 11384 11385 0
h 7457 -10625 0
h 7457 -11382 0
h 7457 -11383 0
h 7457 -11384 0
h 7457 -11385 0
h 11386 -10621 -10637 0
h -11386 10621 0
h -11386 10637 0
h 11387 -10631 -10637 0
h -11387 10631 0
h -11387 10637 0
h 11388 -10631 -10639 0
h -11388 10631 0
h -11388 10639 0
h 11389 -10621 -10639 -10633 0
h -11389 10621 0
h -11389 10639 0
h -11389 10633 0
h -7459 10627 11386 11387 11388 11389 0
h 7459 -10627 0
h 7459 -11386 0
h 7459 -11387 0
h 7459 -11388 0
h 7459 -11389 0
h 11390 -10763 -10629 0
h -11390 10763 0
h -11390 10629 0
h 11391 -10740 -10603 0
h -11391 10740 0
h -11391 10603 0
h 11392 -10740 -10629 0
h -11392 10740 0
h -11392 10629 0
h 11393 -10763 -10603 -10633 0
h -11393 10763 0
h -11393 10603 0
h -11393 10633 0
h -7472 10753 11390 11391 11392 11393 0
h 7472 -10753 0
h 7472 -11390 0
h 7472 -11391 0
h 7472 -11392 0
h 7472 -11393 0
h 11394 -10763 -10631 0
h -11394 10763 0
h -11394 10631 0
h 11395 -10740 -10621 0
h -11395 10740 0
h -11395 10621 0
h 11396 -10740 -10631 0
h -11396 10740 0
h -11396 10631 0
h 11397 -10763 -10621 -10633 0
h -11397 10763 0
h -11397 10621 0
h -11397 10633 0
h -7432 10758 11394 11395 11396 11397 0
h 7432 -10758 0
h 7432 -11394 0
h 7432 -11395 0
h 7432 -11396 0
h 7432 -11397 0
h 11398 -10763 -10740 0
h -11398 10763 0
h -11398 10740 0
h 11148 -10740 -10740 0
h -11148 10740 0
h -11148 10740 0
h 11399 -10740 -10763 0
h -11399 10740 0
h -11399 10763 0
h 11400 -10763 -10763 -10633 0
h -11400 10763 0
h -11400 10763 0
h -11400 10633 0
h -7477 10768 11398 11148 11399 11400 0
h 7477 -10768 0
h 7477 -11398 0
h 7477 -11148 0
h 7477 -11399 0
h 7477 -11400 0
h 11401 -10763 -10635 0
h -11401 10763 0
h -11401 10635 0
h 11402 -10740 -10635 0
h -11402 10740 0
h -11402 10635 0
h 11403 -10740 -10645 0
h -11403 10740 0
h -11403 10645 0
h 11404 -10763 -10645 -10633 0
h -11404 10763 0
h -11404 10645 0
h -11404 10633 0
h -7482 10677 11401 11402 11403 11404 0
h 7482 -10677 0
h 7482 -11401 0
h 7482 -11402 0
h 7482 -11403 0
h 7482 -11404 0
h 11405 -10763 -10637 0
h -11405 10763 0
h -11405 10637 0
h 11406 -10740 -10639 0
h -11406 10740 0
h -11406 10639 0
h 11407 -10740 -10637 0
h -11407 10740 0
h -11407 10637 0
h 11408 -10763 -10639 -10633 0
h -11408 10763 0
h -11408 10639 0
h -11408 10633 0
h -7487 10680 11405 11406 11407 11408 0
h 7487 -10680 0
h 7487 -11405 0
h 7487 -11406 0
h 7487 -11407 0
h 7487 -11408 0
h 11409 -10600 -10637 0
h -11409 10600 0
h -11409 10637 0
h 11410 -10597 -10637 0
h -11410 10597 0
h -11410 10637 0
h 11411 -10597 -10639 0
h -11411 10597 0
h -11411 10639 0
h 11412 -10600 -10639 -10633 0
h -11412 10600 0
h -11412 10639 0
h -11412 10633 0
h -7492 10608 11409 11410 11411 11412 0
h 7492 -10608 0
h 7492 -11409 0
h 7492 -11410 0
h 7492 -11411 0
h 7492 -11412 0
h 11413 -10645 -10629 0
h -11413 10645 0
h -11413 10629 0
h 11414 -10635 -10603 0
h -11414 10635 0
h -11414 10603 0
h 11415 -10635 -10629 0
h -11415 10635 0
h -11415 10629 0
h 11416 -10645 -10603 -10633 0
h -11416 10645 0
h -11416 10603 0
h -11416 10633 0
h -7497 10641 11413 11414 11415 11416 0
h 7497 -10641 0
h 7497 -11413 0
h 7497 -11414 0
h 7497 -11415 0
h 7497 -11416 0
h 11417 -10645 -10631 0
h -11417 10645 0
h -11417 10631 0
h 11418 -10635 -10621 0
h -11418 10635 0
h -11418 10621 0
h 11419 -10635 -10631 0
h -11419 10635 0
h -11419 10631 0
h 11420 -10645 -10621 -10633 0
h -11420 10645 0
h -11420 10621 0
h -11420 10633 0
h -7453 10643 11417 11418 11419 11420 0
h 7453 -10643 0
h 7453 -11417 0
h 7453 -11418 0
h 7453 -11419 0
h 7453 -11420 0
h 11421 -10645 -10597 0
h -11421 10645 0
h -11421 10597 0
h 11422 -10635 -10600 0
h -11422 10635 0
h -11422 10600 0
h 11423 -10635 -10597 0
h -11423 10635 0
h -11423 10597 0
h 11424 -10645 -10600 -10633 0
h -11424 10645 0
h -11424 10600 0
h -11424 10633 0
h -7502 10605 11421 11422 11423 11424 0
h 7502 -10605 0
h 7502 -11421 0
h 7502 -11422 0
h 7502 -11423 0
h 7502 -11424 0
h 11425 -10645 -10635 0
h -11425 10645 0
h -11425 10635 0
h 10733 -10635 -10635 0
h -10733 10635 0
h -10733 10635 0
h 11426 -10635 -10645 0
h -11426 10635 0
h -11426 10645 0
h 11427 -10645 -10645 -10633 0
h -11427 10645 0
h -11427 10645 0
h -11427 10633 0
h -7507 10647 11425 10733 11426 11427 0
h 7507 -10647 0
h 7507 -11425 0
h 7507 -10733 0
h 7507 -11426 0
h 7507 -11427 0
h 11428 -10280 -10277 0
h -11428 10280 0
h -11428 10277 0
h 11429 -10277 -10277 0
h -11429 10277 0
h -11429 10277 0
h 11430 -10277 -10280 0
h -11430 10277 0
h -11430 10280 0
h 11431 -10280 -10280 -10312 0
h -11431 10280 0
h -11431 10280 0
h -11431 10312 0
h -7019 10265 11428 11429 11430 11431 0
h 7019 -10265 0
h 7019 -11428 0
h 7019 -11429 0
h 7019 -11430 0
h 7019 -11431 0
h 11432 -10280 -10296 0
h -11432 10280 0
h -11432 10296 0
h 11433 -10277 -10296 0
h -11433 10277 0
h -11433 10296 0
h 11434 -10277 -10298 0
h -11434 10277 0
h -11434 10298 0
h 11435 -10280 -10298 -10312 0
h -11435 10280 0
h -11435 10298 0
h -11435 10312 0
h -9087 10268 11432 11433 11434 11435 0
h 9087 -10268 0
h 9087 -11432 0
h 9087 -11433 0
h 9087 -11434 0
h 9087 -11435 0
h 11436 -10280 -10310 0
h -11436 10280 0
h -11436 10310 0
h 11437 -10277 -10300 0
h -11437 10277 0
h -11437 10300 0
h 11438 -10277 -10310 0
h -11438 10277 0
h -11438 10310 0
h 11439 -10280 -10300 -10312 0
h -11439 10280 0
h -11439 10300 0
h -11439 10312 0
h -7018 10271 11436 11437 11438 11439 0
h 7018 -10271 0
h 7018 -11436 0
h 7018 -11437 0
h 7018 -11438 0
h 7018 -11439 0
h 11440 -10282 -10310 0
h -11440 10282 0
h -11440 10310 0
h 11441 -10308 -10310 0
h -11441 10308 0
h -11441 10310 0
h 11442 -10308 -10300 0
h -11442 10308 0
h -11442 10300 0
h 11443 -10282 -10300 -10312 0
h -11443 10282 0
h -11443 10300 0
h -11443 10312 0
h -7027 10274 11440 11441 11442 11443 0
h 7027 -10274 0
h 7027 -11440 0
h 7027 -11441 0
h 7027 -11442 0
h 7027 -11443 0
h 11444 -10280 -10943 0
h -11444 10280 0
h -11444 10943 0
h 11445 -10277 -10943 0
h -11445 10277 0
h -11445 10943 0
h 11446 -10277 -10553 0
h -11446 10277 0
h -11446 10553 0
h 11447 -10280 -10553 -10312 0
h -11447 10280 0
h -11447 10553 0
h -11447 10312 0
h -7022 10554 11444 11445 11446 11447 0
h 7022 -10554 0
h 7022 -11444 0
h 7022 -11445 0
h 7022 -11446 0
h 7022 -11447 0
h 11448 -10280 -10276 0
h -11448 10280 0
h -11448 10276 0
h 11449 -10277 -10279 0
h -11449 10277 0
h -11449 10279 0
h 11450 -10277 -10276 0
h -11450 10277 0
h -11450 10276 0
h 11451 -10280 -10279 -10312 0
h -11451 10280 0
h -11451 10279 0
h -11451 10312 0
h -7025 10264 11448 11449 11450 11451 0
h 7025 -10264 0
h 7025 -11448 0
h 7025 -11449 0
h 7025 -11450 0
h 7025 -11451 0
h 11452 -10282 -10276 0
h -11452 10282 0
h -11452 10276 0
h 11453 -10308 -10276 0
h -11453 10308 0
h -11453 10276 0
h 11454 -10308 -10279 0
h -11454 10308 0
h -11454 10279 0
h 11455 -10282 -10279 -10312 0
h -11455 10282 0
h -11455 10279 0
h -11455 10312 0
h -7028 10273 11452 11453 11454 11455 0
h 7028 -10273 0
h 7028 -11452 0
h 7028 -11453 0
h 7028 -11454 0
h 7028 -11455 0
h 11456 -10280 -10314 0
h -11456 10280 0
h -11456 10314 0
h 11457 -10277 -10314 0
h -11457 10277 0
h -11457 10314 0
h 11458 -10277 -10324 0
h -11458 10277 0
h -11458 10324 0
h 11459 -10280 -10324 -10312 0
h -11459 10280 0
h -11459 10324 0
h -11459 10312 0
h -7031 10285 11456 11457 11458 11459 0
h 7031 -10285 0
h 7031 -11456 0
h 7031 -11457 0
h 7031 -11458 0
h 7031 -11459 0
h 11460 -10280 -10316 0
h -11460 10280 0
h -11460 10316 0
h 11461 -10277 -10318 0
h -11461 10277 0
h -11461 10318 0
h 11462 -10277 -10316 0
h -11462 10277 0
h -11462 10316 0
h 11463 -10280 -10318 -10312 0
h -11463 10280 0
h -11463 10318 0
h -11463 10312 0
h -7034 10288 11460 11461 11462 11463 0
h 7034 -10288 0
h 7034 -11460 0
h 7034 -11461 0
h 7034 -11462 0
h 7034 -11463 0
h 11464 -10282 -10316 0
h -11464 10282 0
h -11464 10316 0
h 11465 -10308 -10316 0
h -11465 10308 0
h -11465 10316 0
h 11466 -10308 -10318 0
h -11466 10308 0
h -11466 10318 0
h 11467 -10282 -10318 -10312 0
h -11467 10282 0
h -11467 10318 0
h -11467 10312 0
h -7036 10290 11464 11465 11466 11467 0
h 7036 -10290 0
h 7036 -11464 0
h 7036 -11465 0
h 7036 -11466 0
h 7036 -11467 0
h 11468 -10298 -10308 0
h -11468 10298 0
h -11468 10308 0
h 11469 -10296 -10282 0
h -11469 10296 0
h -11469 10282 0
h 11470 -10296 -10308 0
h -11470 10296 0
h -11470 10308 0
h 11471 -10298 -10282 -10312 0
h -11471 10298 0
h -11471 10282 0
h -11471 10312 0
h -9112 10292 11468 11469 11470 11471 0
h 9112 -10292 0
h 9112 -11468 0
h 9112 -11469 0
h 9112 -11470 0
h 9112 -11471 0
h 11472 -10298 -10296 0
h -11472 10298 0
h -11472 10296 0
h 11473 -10296 -10296 0
h -11473 10296 0
h -11473 10296 0
h 11474 -10296 -10298 0
h -11474 10296 0
h -11474 10298 0
h 11475 -10298 -10298 -10312 0
h -11475 10298 0
h -11475 10298 0
h -11475 10312 0
h -9117 10294 11472 11473 11474 11475 0
h 9117 -10294 0
h 9117 -11472 0
h 9117 -11473 0
h 9117 -11474 0
h 9117 -11475 0
h 11476 -10298 -10943 0
h -11476 10298 0
h -11476 10943 0
h 11477 -10296 -10943 0
h -11477 10296 0
h -11477 10943 0
h 11478 -10296 -10553 0
h -11478 10296 0
h -11478 10553 0
h 11479 -10298 -10553 -10312 0
h -11479 10298 0
h -11479 10553 0
h -11479 10312 0
h -9082 10563 11476 11477 11478 11479 0
h 9082 -10563 0
h 9082 -11476 0
h 9082 -11477 0
h 9082 -11478 0
h 9082 -11479 0
h 11480 -10298 -10276 0
h -11480 10298 0
h -11480 10276 0
h 11481 -10296 -10279 0
h -11481 10296 0
h -11481 10279 0
h 11482 -10296 -10276 0
h -11482 10296 0
h -11482 10276 0
h 11483 -10298 -10279 -10312 0
h -11483 10298 0
h -11483 10279 0
h -11483 10312 0
h -9085 10267 11480 11481 11482 11483 0
h 9085 -10267 0
h 9085 -11480 0
h 9085 -11481 0
h 9085 -11482 0
h 9085 -11483 0
h 11484 -10300 -10276 0
h -11484 10300 0
h -11484 10276 0
h 11485 -10310 -10276 0
h -11485 10310 0
h -11485 10276 0
h 11486 -10310 -10279 0
h -11486 10310 0
h -11486 10279 0
h 11487 -10300 -10279 -10312 0
h -11487 10300 0
h -11487 10279 0
h -11487 10312 0
h -7024 10270 11484 11485 11486 11487 0
h 7024 -10270 0
h 7024 -11484 0
h 7024 -11485 0
h 7024 -11486 0
h 7024 -11487 0
h 11488 -10298 -10314 0
h -11488 10298 0
h -11488 10314 0
h 11489 -10296 -10314 0
h -11489 10296 0
h -11489 10314 0
h 11490 -10296 -10324 0
h -11490 10296 0
h -11490 10324 0
h 11491 -10298 -10324 -10312 0
h -11491 10298 0
h -11491 10324 0
h -11491 10312 0
h -9122 10302 11488 11489 11490 11491 0
h 9122 -10302 0
h 9122 -11488 0
h 9122 -11489 0
h 9122 -11490 0
h 9122 -11491 0
h 11492 -10298 -10316 0
h -11492 10298 0
h -11492 10316 0
h 11493 -10296 -10318 0
h -11493 10296 0
h -11493 10318 0
h 11494 -10296 -10316 0
h -11494 10296 0
h -11494 10316 0
h 11495 -10298 -10318 -10312 0
h -11495 10298 0
h -11495 10318 0
h -11495 10312 0
h -9127 10304 11492 11493 11494 11495 0
h 9127 -10304 0
h 9127 -11492 0
h 9127 -11493 0
h 9127 -11494 0
h 9127 -11495 0
h 11496 -10300 -10316 0
h -11496 10300 0
h -11496 10316 0
h 11497 -10310 -10316 0
h -11497 10310 0
h -11497 10316 0
h 11498 -10310 -10318 0
h -11498 10310 0
h -11498 10318 0
h 11499 -10300 -10318 -10312 0
h -11499 10300 0
h -11499 10318 0
h -11499 10312 0
h -7033 10306 11496 11497 11498 11499 0
h 7033 -10306 0
h 7033 -11496 0
h 7033 -11497 0
h 7033 -11498 0
h 7033 -11499 0
h 11500 -10553 -10308 0
h -11500 10553 0
h -11500 10308 0
h 11501 -10943 -10282 0
h -11501 10943 0
h -11501 10282 0
h 11502 -10943 -10308 0
h -11502 10943 0
h -11502 10308 0
h 11503 -10553 -10282 -10312 0
h -11503 10553 0
h -11503 10282 0
h -11503 10312 0
h -7038 10570 11500 11501 11502 11503 0
h 7038 -10570 0
h 7038 -11500 0
h 7038 -11501 0
h 7038 -11502 0
h 7038 -11503 0
h 11504 -10553 -10310 0
h -11504 10553 0
h -11504 10310 0
h 11505 -10943 -10300 0
h -11505 10943 0
h -11505 10300 0
h 11506 -10943 -10310 0
h -11506 10943 0
h -11506 10310 0
h 11507 -10553 -10300 -10312 0
h -11507 10553 0
h -11507 10300 0
h -11507 10312 0
h -7021 10572 11504 11505 11506 11507 0
h 7021 -10572 0
h 7021 -11504 0
h 7021 -11505 0
h 7021 -11506 0
h 7021 -11507 0
h 11508 -10553 -10943 0
h -11508 10553 0
h -11508 10943 0
h 11008 -10943 -10943 0
h -11008 10943 0
h -11008 10943 0
h 11509 -10943 -10553 0
h -11509 10943 0
h -11509 10553 0
h 11510 -10553 -10553 -10312 0
h -11510 10553 0
h -11510 10553 0
h -11510 10312 0
h -7040 10574 11508 11008 11509 11510 0
h 7040 -10574 0
h 7040 -11508 0
h 7040 -11008 0
h 7040 -11509 0
h 7040 -11510 0
h 11511 -10553 -10314 0
h -11511 10553 0
h -11511 10314 0
h 11512 -10943 -10314 0
h -11512 10943 0
h -11512 10314 0
h 11513 -10943 -10324 0
h -11513 10943 0
h -11513 10324 0
h 11514 -10553 -10324 -10312 0
h -11514 10553 0
h -11514 10324 0
h -11514 10312 0
h -7042 10576 11511 11512 11513 11514 0
h 7042 -10576 0
h 7042 -11511 0
h 7042 -11512 0
h 7042 -11513 0
h 7042 -11514 0
h 11515 -10553 -10316 0
h -11515 10553 0
h -11515 10316 0
h 11516 -10943 -10318 0
h -11516 10943 0
h -11516 10318 0
h 11517 -10943 -10316 0
h -11517 10943 0
h -11517 10316 0
h 11518 -10553 -10318 -10312 0
h -11518 10553 0
h -11518 10318 0
h -11518 10312 0
h -7044 10578 11515 11516 11517 11518 0
h 7044 -10578 0
h 7044 -11515 0
h 7044 -11516 0
h 7044 -11517 0
h 7044 -11518 0
h 11519 -10279 -10316 0
h -11519 10279 0
h -11519 10316 0
h 11520 -10276 -10316 0
h -11520 10276 0
h -11520 10316 0
h 11521 -10276 -10318 0
h -11521 10276 0
h -11521 10318 0
h 11522 -10279 -10318 -10312 0
h -11522 10279 0
h -11522 10318 0
h -11522 10312 0
h -7046 10287 11519 11520 11521 11522 0
h 7046 -10287 0
h 7046 -11519 0
h 7046 -11520 0
h 7046 -11521 0
h 7046 -11522 0
h 11523 -10324 -10308 0
h -11523 10324 0
h -11523 10308 0
h 11524 -10314 -10282 0
h -11524 10314 0
h -11524 10282 0
h 11525 -10314 -10308 0
h -11525 10314 0
h -11525 10308 0
h 11526 -10324 -10282 -10312 0
h -11526 10324 0
h -11526 10282 0
h -11526 10312 0
h -7048 10320 11523 11524 11525 11526 0
h 7048 -10320 0
h 7048 -11523 0
h 7048 -11524 0
h 7048 -11525 0
h 7048 -11526 0
h 11527 -10324 -10310 0
h -11527 10324 0
h -11527 10310 0
h 11528 -10314 -10300 0
h -11528 10314 0
h -11528 10300 0
h 11529 -10314 -10310 0
h -11529 10314 0
h -11529 10310 0
h 11530 -10324 -10300 -10312 0
h -11530 10324 0
h -11530 10300 0
h -11530 10312 0
h -7030 10322 11527 11528 11529 11530 0
h 7030 -10322 0
h 7030 -11527 0
h 7030 -11528 0
h 7030 -11529 0
h 7030 -11530 0
h 11531 -10324 -10276 0
h -11531 10324 0
h -11531 10276 0
h 11532 -10314 -10279 0
h -11532 10314 0
h -11532 10279 0
h 11533 -10314 -10276 0
h -11533 10314 0
h -11533 10276 0
h 11534 -10324 -10279 -10312 0
h -11534 10324 0
h -11534 10279 0
h -11534 10312 0
h -7050 10284 11531 11532 11533 11534 0
h 7050 -10284 0
h 7050 -11531 0
h 7050 -11532 0
h 7050 -11533 0
h 7050 -11534 0
h 11535 -10324 -10314 0
h -11535 10324 0
h -11535 10314 0
h 11536 -10314 -10314 0
h -11536 10314 0
h -11536 10314 0
h 11537 -10314 -10324 0
h -11537 10314 0
h -11537 10324 0
h 11538 -10324 -10324 -10312 0
h -11538 10324 0
h -11538 10324 0
h -11538 10312 0
h -7052 10326 11535 11536 11537 11538 0
h 7052 -10326 0
h 7052 -11535 0
h 7052 -11536 0
h 7052 -11537 0
h 7052 -11538 0
h 11539 -10501 -10501 0
h -11539 10501 0
h -11539 10501 0
h -8649 10486 11539 0
h 8649 -10486 0
h 8649 -11539 0
h 11540 -10501 -10519 0
h -11540 10501 0
h -11540 10519 0
h -8644 10489 11540 0
h 8644 -10489 0
h 8644 -11540 0
h 11541 -10501 -10521 0
h -11541 10501 0
h -11541 10521 0
h -8643 10492 11541 0
h 8643 -10492 0
h 8643 -11541 0
h 11542 -10503 -10521 0
h -11542 10503 0
h -11542 10521 0
h -8665 10495 11542 0
h 8665 -10495 0
h 8665 -11542 0
h 11543 -10501 -11544 0
h -11543 10501 0
h -11543 11544 0
h -8656 11545 11543 0
h 8656 -11545 0
h 8656 -11543 0
h 11546 -10501 -10500 0
h -11546 10501 0
h -11546 10500 0
h -8663 10485 11546 0
h 8663 -10485 0
h 8663 -11546 0
h 11547 -10503 -10500 0
h -11547 10503 0
h -11547 10500 0
h -8670 10494 11547 0
h 8670 -10494 0
h 8670 -11547 0
h 11548 -10501 -10545 0
h -11548 10501 0
h -11548 10545 0
h -8677 10506 11548 0
h 8677 -10506 0
h 8677 -11548 0
h 11549 -10501 -10539 0
h -11549 10501 0
h -11549 10539 0
h -8684 10509 11549 0
h 8684 -10509 0
h 8684 -11549 0
h 11550 -10503 -10539 0
h -11550 10503 0
h -11550 10539 0
h -8689 10511 11550 0
h 8689 -10511 0
h 8689 -11550 0
h 11551 -10519 -10503 0
h -11551 10519 0
h -11551 10503 0
h -8667 10513 11551 0
h 8667 -10513 0
h 8667 -11551 0
h 11552 -10519 -10519 0
h -11552 10519 0
h -11552 10519 0
h -8648 10515 11552 0
h 8648 -10515 0
h 8648 -11552 0
h 11553 -10519 -11544 0
h -11553 10519 0
h -11553 11544 0
h -8651 11554 11553 0
h 8651 -11554 0
h 8651 -11553 0
h 11555 -10519 -10500 0
h -11555 10519 0
h -11555 10500 0
h -8658 10488 11555 0
h 8658 -10488 0
h 8658 -11555 0
h 11556 -10521 -10500 0
h -11556 10521 0
h -11556 10500 0
h -8660 10491 11556 0
h 8660 -10491 0
h 8660 -11556 0
h 11557 -10519 -10545 0
h -11557 10519 0
h -11557 10545 0
h -8672 10523 11557 0
h 8672 -10523 0
h 8672 -11557 0
h 11558 -10519 -10539 0
h -11558 10519 0
h -11558 10539 0
h -8679 10525 11558 0
h 8679 -10525 0
h 8679 -11558 0
h 11559 -10521 -10539 0
h -11559 10521 0
h -11559 10539 0
h -8681 10527 11559 0
h 8681 -10527 0
h 8681 -11559 0
h 11560 -11544 -10503 0
h -11560 11544 0
h -11560 10503 0
h -8694 11561 11560 0
h 8694 -11561 0
h 8694 -11560 0
h 11562 -11544 -10521 0
h -11562 11544 0
h -11562 10521 0
h -8654 11563 11562 0
h 8654 -11563 0
h 8654 -11562 0
h 11564 -11544 -11544 0
h -11564 11544 0
h -11564 11544 0
h -8699 11565 11564 0
h 8699 -11565 0
h 8699 -11564 0
h 11566 -11544 -10545 0
h -11566 11544 0
h -11566 10545 0
h -8704 11567 11566 0
h 8704 -11567 0
h 8704 -11566 0
h 11568 -11544 -10539 0
h -11568 11544 0
h -11568 10539 0
h -8709 11569 11568 0
h 8709 -11569 0
h 8709 -11568 0
h 11570 -10500 -10539 0
h -11570 10500 0
h -11570 10539 0
h -8714 10508 11570 0
h 8714 -10508 0
h 8714 -11570 0
h 11571 -10545 -10503 0
h -11571 10545 0
h -11571 10503 0
h -8719 10541 11571 0
h 8719 -10541 0
h 8719 -11571 0
h 11572 -10545 -10521 0
h -11572 10545 0
h -11572 10521 0
h -8675 10543 11572 0
h 8675 -10543 0
h 8675 -11572 0
h 11573 -10545 -10500 0
h -11573 10545 0
h -11573 10500 0
h -8724 10505 11573 0
h 8724 -10505 0
h 8724 -11573 0
h 11574 -10545 -10545 0
h -11574 10545 0
h -11574 10545 0
h -8729 10547 11574 0
h 8729 -10547 0
h 8729 -11574 0
h 11575 -10288 -10285 0
h -11575 10288 0
h -11575 10285 0
h 11576 -10285 -10285 0
h -11576 10285 0
h -11576 10285 0
h 11577 -10285 -10288 0
h -11577 10285 0
h -11577 10288 0
h 11578 -10288 -10288 -10326 0
h -11578 10288 0
h -11578 10288 0
h -11578 10326 0
h -7530 10265 11575 11576 11577 11578 0
h 7530 -10265 0
h 7530 -11575 0
h 7530 -11576 0
h 7530 -11577 0
h 7530 -11578 0
h 11579 -10288 -10302 0
h -11579 10288 0
h -11579 10302 0
h 11580 -10285 -10302 0
h -11580 10285 0
h -11580 10302 0
h 11581 -10285 -10304 0
h -11581 10285 0
h -11581 10304 0
h 11582 -10288 -10304 -10326 0
h -11582 10288 0
h -11582 10304 0
h -11582 10326 0
h -7525 10268 11579 11580 11581 11582 0
h 7525 -10268 0
h 7525 -11579 0
h 7525 -11580 0
h 7525 -11581 0
h 7525 -11582 0
h 11583 -10288 -10322 0
h -11583 10288 0
h -11583 10322 0
h 11584 -10285 -10306 0
h -11584 10285 0
h -11584 10306 0
h 11585 -10285 -10322 0
h -11585 10285 0
h -11585 10322 0
h 11586 -10288 -10306 -10326 0
h -11586 10288 0
h -11586 10306 0
h -11586 10326 0
h -7524 10271 11583 11584 11585 11586 0
h 7524 -10271 0
h 7524 -11583 0
h 7524 -11584 0
h 7524 -11585 0
h 7524 -11586 0
h 11587 -10290 -10322 0
h -11587 10290 0
h -11587 10322 0
h 11588 -10320 -10322 0
h -11588 10320 0
h -11588 10322 0
h 11589 -10320 -10306 0
h -11589 10320 0
h -11589 10306 0
h 11590 -10290 -10306 -10326 0
h -11590 10290 0
h -11590 10306 0
h -11590 10326 0
h -7546 10274 11587 11588 11589 11590 0
h 7546 -10274 0
h 7546 -11587 0
h 7546 -11588 0
h 7546 -11589 0
h 7546 -11590 0
h 11591 -10288 -10576 0
h -11591 10288 0
h -11591 10576 0
h 11592 -10285 -10576 0
h -11592 10285 0
h -11592 10576 0
h 11593 -10285 -10578 0
h -11593 10285 0
h -11593 10578 0
h 11594 -10288 -10578 -10326 0
h -11594 10288 0
h -11594 10578 0
h -11594 10326 0
h -7537 10554 11591 11592 11593 11594 0
h 7537 -10554 0
h 7537 -11591 0
h 7537 -11592 0
h 7537 -11593 0
h 7537 -11594 0
h 11595 -10288 -10284 0
h -11595 10288 0
h -11595 10284 0
h 11596 -10285 -10287 0
h -11596 10285 0
h -11596 10287 0
h 11597 -10285 -10284 0
h -11597 10285 0
h -11597 10284 0
h 11598 -10288 -10287 -10326 0
h -11598 10288 0
h -11598 10287 0
h -11598 10326 0
h -7544 10264 11595 11596 11597 11598 0
h 7544 -10264 0
h 7544 -11595 0
h 7544 -11596 0
h 7544 -11597 0
h 7544 -11598 0
h 11599 -10290 -10284 0
h -11599 10290 0
h -11599 10284 0
h 11600 -10320 -10284 0
h -11600 10320 0
h -11600 10284 0
h 11601 -10320 -10287 0
h -11601 10320 0
h -11601 10287 0
h 11602 -10290 -10287 -10326 0
h -11602 10290 0
h -11602 10287 0
h -11602 10326 0
h -7551 10273 11599 11600 11601 11602 0
h 7551 -10273 0
h 7551 -11599 0
h 7551 -11600 0
h 7551 -11601 0
h 7551 -11602 0
h 11603 -10288 -10314 0
h -11603 10288 0
h -11603 10314 0
h 11604 -10285 -10314 0
h -11604 10285 0
h -11604 10314 0
h 11605 -10285 -10316 0
h -11605 10285 0
h -11605 10316 0
h 11606 -10288 -10316 -10326 0
h -11606 10288 0
h -11606 10316 0
h -11606 10326 0
h -7558 10277 11603 11604 11605 11606 0
h 7558 -10277 0
h 7558 -11603 0
h 7558 -11604 0
h 7558 -11605 0
h 7558 -11606 0
h 11607 -10288 -10324 0
h -11607 10288 0
h -11607 10324 0
h 11608 -10285 -10318 0
h -11608 10285 0
h -11608 10318 0
h 11609 -10285 -10324 0
h -11609 10285 0
h -11609 10324 0
h 11610 -10288 -10318 -10326 0
h -11610 10288 0
h -11610 10318 0
h -11610 10326 0
h -7565 10280 11607 11608 11609 11610 0
h 7565 -10280 0
h 7565 -11607 0
h 7565 -11608 0
h 7565 -11609 0
h 7565 -11610 0
h 11611 -10290 -10324 0
h -11611 10290 0
h -11611 10324 0
h 11612 -10320 -10324 0
h -11612 10320 0
h -11612 10324 0
h 11613 -10320 -10318 0
h -11613 10320 0
h -11613 10318 0
h 11614 -10290 -10318 -10326 0
h -11614 10290 0
h -11614 10318 0
h -11614 10326 0
h -7570 10282 11611 11612 11613 11614 0
h 7570 -10282 0
h 7570 -11611 0
h 7570 -11612 0
h 7570 -11613 0
h 7570 -11614 0
h 11615 -10304 -10320 0
h -11615 10304 0
h -11615 10320 0
h 11616 -10302 -10290 0
h -11616 10302 0
h -11616 10290 0
h 11617 -10302 -10320 0
h -11617 10302 0
h -11617 10320 0
h 11618 -10304 -10290 -10326 0
h -11618 10304 0
h -11618 10290 0
h -11618 10326 0
h -7548 10292 11615 11616 11617 11618 0
h 7548 -10292 0
h 7548 -11615 0
h 7548 -11616 0
h 7548 -11617 0
h 7548 -11618 0
h 11619 -10304 -10302 0
h -11619 10304 0
h -11619 10302 0
h 11620 -10302 -10302 0
h -11620 10302 0
h -11620 10302 0
h 11621 -10302 -10304 0
h -11621 10302 0
h -11621 10304 0
h 11622 -10304 -10304 -10326 0
h -11622 10304 0
h -11622 10304 0
h -11622 10326 0
h -7529 10294 11619 11620 11621 11622 0
h 7529 -10294 0
h 7529 -11619 0
h 7529 -11620 0
h 7529 -11621 0
h 7529 -11622 0
h 11623 -10304 -10576 0
h -11623 10304 0
h -11623 10576 0
h 11624 -10302 -10576 0
h -11624 10302 0
h -11624 10576 0
h 11625 -10302 -10578 0
h -11625 10302 0
h -11625 10578 0
h 11626 -10304 -10578 -10326 0
h -11626 10304 0
h -11626 10578 0
h -11626 10326 0
h -7532 10563 11623 11624 11625 11626 0
h 7532 -10563 0
h 7532 -11623 0
h 7532 -11624 0
h 7532 -11625 0
h 7532 -11626 0
h 11627 -10304 -10284 0
h -11627 10304 0
h -11627 10284 0
h 11628 -10302 -10287 0
h -11628 10302 0
h -11628 10287 0
h 11629 -10302 -10284 0
h -11629 10302 0
h -11629 10284 0
h 11630 -10304 -10287 -10326 0
h -11630 10304 0
h -11630 10287 0
h -11630 10326 0
h -7539 10267 11627 11628 11629 11630 0
h 7539 -10267 0
h 7539 -11627 0
h 7539 -11628 0
h 7539 -11629 0
h 7539 -11630 0
h 11631 -10306 -10284 0
h -11631 10306 0
h -11631 10284 0
h 11632 -10322 -10284 0
h -11632 10322 0
h -11632 10284 0
h 11633 -10322 -10287 0
h -11633 10322 0
h -11633 10287 0
h 11634 -10306 -10287 -10326 0
h -11634 10306 0
h -11634 10287 0
h -11634 10326 0
h -7541 10270 11631 11632 11633 11634 0
h 7541 -10270 0
h 7541 -11631 0
h 7541 -11632 0
h 7541 -11633 0
h 7541 -11634 0
h 11635 -10304 -10314 0
h -11635 10304 0
h -11635 10314 0
h 11636 -10302 -10314 0
h -11636 10302 0
h -11636 10314 0
h 11637 -10302 -10316 0
h -11637 10302 0
h -11637 10316 0
h 11638 -10304 -10316 -10326 0
h -11638 10304 0
h -11638 10316 0
h -11638 10326 0
h -7553 10296 11635 11636 11637 11638 0
h 7553 -10296 0
h 7553 -11635 0
h 7553 -11636 0
h 7553 -11637 0
h 7553 -11638 0
h 11639 -10304 -10324 0
h -11639 10304 0
h -11639 10324 0
h 11640 -10302 -10318 0
h -11640 10302 0
h -11640 10318 0
h 11641 -10302 -10324 0
h -11641 10302 0
h -11641 10324 0
h 11642 -10304 -10318 -10326 0
h -11642 10304 0
h -11642 10318 0
h -11642 10326 0
h -7560 10298 11639 11640 11641 11642 0
h 7560 -10298 0
h 7560 -11639 0
h 7560 -11640 0
h 7560 -11641 0
h 7560 -11642 0
h 11643 -10306 -10324 0
h -11643 10306 0
h -11643 10324 0
h 11644 -10322 -10324 0
h -11644 10322 0
h -11644 10324 0
h 11645 -10322 -10318 0
h -11645 10322 0
h -11645 10318 0
h 11646 -10306 -10318 -10326 0
h -11646 10306 0
h -11646 10318 0
h -11646 10326 0
h -7562 10300 11643 11644 11645 11646 0
h 7562 -10300 0
h 7562 -11643 0
h 7562 -11644 0
h 7562 -11645 0
h 7562 -11646 0
h 11647 -10578 -10320 0
h -11647 10578 0
h -11647 10320 0
h 11648 -10576 -10290 0
h -11648 10576 0
h -11648 10290 0
h 11649 -10576 -10320 0
h -11649 10576 0
h -11649 10320 0
h 11650 -10578 -10290 -10326 0
h -11650 10578 0
h -11650 10290 0
h -11650 10326 0
h -7575 10570 11647 11648 11649 11650 0
h 7575 -10570 0
h 7575 -11647 0
h 7575 -11648 0
h 7575 -11649 0
h 7575 -11650 0
h 11651 -10578 -10322 0
h -11651 10578 0
h -11651 10322 0
h 11652 -10576 -10306 0
h -11652 10576 0
h -11652 10306 0
h 11653 -10576 -10322 0
h -11653 10576 0
h -11653 10322 0
h 11654 -10578 -10306 -10326 0
h -11654 10578 0
h -11654 10306 0
h -11654 10326 0
h -7535 10572 11651 11652 11653 11654 0
h 7535 -10572 0
h 7535 -11651 0
h 7535 -11652 0
h 7535 -11653 0
h 7535 -11654 0
h 11655 -10578 -10576 0
h -11655 10578 0
h -11655 10576 0
h 11036 -10576 -10576 0
h -11036 10576 0
h -11036 10576 0
h 11656 -10576 -10578 0
h -11656 10576 0
h -11656 10578 0
h 11657 -10578 -10578 -10326 0
h -11657 10578 0
h -11657 10578 0
h -11657 10326 0
h -7580 10574 11655 11036 11656 11657 0
h 7580 -10574 0
h 7580 -11655 0
h 7580 -11036 0
h 7580 -11656 0
h 7580 -11657 0
h 11658 -10578 -10314 0
h -11658 10578 0
h -11658 10314 0
h 11659 -10576 -10314 0
h -11659 10576 0
h -11659 10314 0
h 11660 -10576 -10316 0
h -11660 10576 0
h -11660 10316 0
h 11661 -10578 -10316 -10326 0
h -11661 10578 0
h -11661 10316 0
h -11661 10326 0
h -7585 10943 11658 11659 11660 11661 0
h 7585 -10943 0
h 7585 -11658 0
h 7585 -11659 0
h 7585 -11660 0
h 7585 -11661 0
h 11662 -10578 -10324 0
h -11662 10578 0
h -11662 10324 0
h 11663 -10576 -10318 0
h -11663 10576 0
h -11663 10318 0
h 11664 -10576 -10324 0
h -11664 10576 0
h -11664 10324 0
h 11665 -10578 -10318 -10326 0
h -11665 10578 0
h -11665 10318 0
h -11665 10326 0
h -7590 10553 11662 11663 11664 11665 0
h 7590 -10553 0
h 7590 -11662 0
h 7590 -11663 0
h 7590 -11664 0
h 7590 -11665 0
h 11666 -10287 -10324 0
h -11666 10287 0
h -11666 10324 0
h 11667 -10284 -10324 0
h -11667 10284 0
h -11667 10324 0
h 11668 -10284 -10318 0
h -11668 10284 0
h -11668 10318 0
h 11669 -10287 -10318 -10326 0
h -11669 10287 0
h -11669 10318 0
h -11669 10326 0
h -7595 10279 11666 11667 11668 11669 0
h 7595 -10279 0
h 7595 -11666 0
h 7595 -11667 0
h 7595 -11668 0
h 7595 -11669 0
h 11670 -10316 -10320 0
h -11670 10316 0
h -11670 10320 0
h 11671 -10314 -10290 0
h -11671 10314 0
h -11671 10290 0
h 11672 -10314 -10320 0
h -11672 10314 0
h -11672 10320 0
h 11673 -10316 -10290 -10326 0
h -11673 10316 0
h -11673 10290 0
h -11673 10326 0
h -7600 10308 11670 11671 11672 11673 0
h 7600 -10308 0
h 7600 -11670 0
h 7600 -11671 0
h 7600 -11672 0
h 7600 -11673 0
h 11674 -10316 -10322 0
h -11674 10316 0
h -11674 10322 0
h 11675 -10314 -10306 0
h -11675 10314 0
h -11675 10306 0
h 11676 -10314 -10322 0
h -11676 10314 0
h -11676 10322 0
h 11677 -10316 -10306 -10326 0
h -11677 10316 0
h -11677 10306 0
h -11677 10326 0
h -7556 10310 11674 11675 11676 11677 0
h 7556 -10310 0
h 7556 -11674 0
h 7556 -11675 0
h 7556 -11676 0
h 7556 -11677 0
h 11678 -10316 -10284 0
h -11678 10316 0
h -11678 10284 0
h 11679 -10314 -10287 0
h -11679 10314 0
h -11679 10287 0
h 11680 -10314 -10284 0
h -11680 10314 0
h -11680 10284 0
h 11681 -10316 -10287 -10326 0
h -11681 10316 0
h -11681 10287 0
h -11681 10326 0
h -7605 10276 11678 11679 11680 11681 0
h 7605 -10276 0
h 7605 -11678 0
h 7605 -11679 0
h 7605 -11680 0
h 7605 -11681 0
h 11682 -10316 -10314 0
h -11682 10316 0
h -11682 10314 0
h 11536 -10314 -10314 0
h -11536 10314 0
h -11536 10314 0
h 11683 -10314 -10316 0
h -11683 10314 0
h -11683 10316 0
h 11684 -10316 -10316 -10326 0
h -11684 10316 0
h -11684 10316 0
h -11684 10326 0
h -7610 10312 11682 11536 11683 11684 0
h 7610 -10312 0
h 7610 -11682 0
h 7610 -11536 0
h 7610 -11683 0
h 7610 -11684 0
h 11685 -10328 -10328 0
h -11685 10328 0
h -11685 10328 0
h -7236 10334 11685 0
h 7236 -10334 0
h 7236 -11685 0
h 11686 -10328 -10339 0
h -11686 10328 0
h -11686 10339 0
h -7231 10341 11686 0
h 7231 -10341 0
h 7231 -11686 0
h 11687 -10328 -10345 0
h -11687 10328 0
h -11687 10345 0
h -7230 10348 11687 0
h 7230 -10348 0
h 7230 -11687 0
h 11688 -10350 -10345 0
h -11688 10350 0
h -11688 10345 0
h -7252 10355 11688 0
h 7252 -10355 0
h 7252 -11688 0
h 11689 -10328 -10360 0
h -11689 10328 0
h -11689 10360 0
h -7243 10362 11689 0
h 7243 -10362 0
h 7243 -11689 0
h 11690 -10328 -10366 0
h -11690 10328 0
h -11690 10366 0
h -7250 10369 11690 0
h 7250 -10369 0
h 7250 -11690 0
h 11691 -10350 -10366 0
h -11691 10350 0
h -11691 10366 0
h -7257 10374 11691 0
h 7257 -10374 0
h 7257 -11691 0
h 11692 -10328 -10379 0
h -11692 10328 0
h -11692 10379 0
h -7264 10381 11692 0
h 7264 -10381 0
h 7264 -11692 0
h 11693 -10328 -10385 0
h -11693 10328 0
h -11693 10385 0
h -7271 10388 11693 0
h 7271 -10388 0
h 7271 -11693 0
h 11694 -10350 -10385 0
h -11694 10350 0
h -11694 10385 0
h -7276 10393 11694 0
h 7276 -10393 0
h 7276 -11694 0
h 11695 -10339 -10350 0
h -11695 10339 0
h -11695 10350 0
h -7254 10398 11695 0
h 7254 -10398 0
h 7254 -11695 0
h 11696 -10339 -10339 0
h -11696 10339 0
h -11696 10339 0
h -7235 10403 11696 0
h 7235 -10403 0
h 7235 -11696 0
h 11697 -10339 -10360 0
h -11697 10339 0
h -11697 10360 0
h -7238 10408 11697 0
h 7238 -10408 0
h 7238 -11697 0
h 11698 -10339 -10366 0
h -11698 10339 0
h -11698 10366 0
h -7245 10413 11698 0
h 7245 -10413 0
h 7245 -11698 0
h 11699 -10345 -10366 0
h -11699 10345 0
h -11699 10366 0
h -7247 10418 11699 0
h 7247 -10418 0
h 7247 -11699 0
h 11700 -10339 -10379 0
h -11700 10339 0
h -11700 10379 0
h -7259 10423 11700 0
h 7259 -10423 0
h 7259 -11700 0
h 11701 -10339 -10385 0
h -11701 10339 0
h -11701 10385 0
h -7266 10428 11701 0
h 7266 -10428 0
h 7266 -11701 0
h 11702 -10345 -10385 0
h -11702 10345 0
h -11702 10385 0
h -7268 10433 11702 0
h 7268 -10433 0
h 7268 -11702 0
h 11703 -10360 -10350 0
h -11703 10360 0
h -11703 10350 0
h -7281 10438 11703 0
h 7281 -10438 0
h 7281 -11703 0
h 11704 -10360 -10345 0
h -11704 10360 0
h -11704 10345 0
h -7241 10443 11704 0
h 7241 -10443 0
h 7241 -11704 0
h 11705 -10360 -10360 0
h -11705 10360 0
h -11705 10360 0
h -7286 10448 11705 0
h 7286 -10448 0
h 7286 -11705 0
h 11706 -10360 -10379 0
h -11706 10360 0
h -11706 10379 0
h -7291 10453 11706 0
h 7291 -10453 0
h 7291 -11706 0
h 11707 -10360 -10385 0
h -11707 10360 0
h -11707 10385 0
h -7296 10458 11707 0
h 7296 -10458 0
h 7296 -11707 0
h 11708 -10366 -10385 0
h -11708 10366 0
h -11708 10385 0
h -7301 10463 11708 0
h 7301 -10463 0
h 7301 -11708 0
h 11709 -10379 -10350 0
h -11709 10379 0
h -11709 10350 0
h -7306 10468 11709 0
h 7306 -10468 0
h 7306 -11709 0
h 11710 -10379 -10345 0
h -11710 10379 0
h -11710 10345 0
h -7262 10473 11710 0
h 7262 -10473 0
h 7262 -11710 0
h 11711 -10379 -10366 0
h -11711 10379 0
h -11711 10366 0
h -7311 10478 11711 0
h 7311 -10478 0
h 7311 -11711 0
h 11712 -10379 -10379 0
h -11712 10379 0
h -11712 10379 0
h -7316 10483 11712 0
h 7316 -10483 0
h 7316 -11712 0
h 11713 -10485 -11545 0
h -11713 10485 0
h -11713 11545 0
h 11714 -11545 -11545 0
h -11714 11545 0
h -11714 11545 0
h 11715 -11545 -10485 0
h -11715 11545 0
h -11715 10485 0
h 11716 -10485 -10485 -11565 0
h -11716 10485 0
h -11716 10485 0
h -11716 11565 0
h -6673 10486 11713 11714 11715 11716 0
h 6673 -10486 0
h 6673 -11713 0
h 6673 -11714 0
h 6673 -11715 0
h 6673 -11716 0
h 11717 -10485 -11554 0
h -11717 10485 0
h -11717 11554 0
h 11718 -11545 -11554 0
h -11718 11545 0
h -11718 11554 0
h 11719 -11545 -10488 0
h -11719 11545 0
h -11719 10488 0
h 11720 -10485 -10488 -11565 0
h -11720 10485 0
h -11720 10488 0
h -11720 11565 0
h -6668 10489 11717 11718 11719 11720 0
h 6668 -10489 0
h 6668 -11717 0
h 6668 -11718 0
h 6668 -11719 0
h 6668 -11720 0
h 11721 -10485 -11563 0
h -11721 10485 0
h -11721 11563 0
h 11722 -11545 -10491 0
h -11722 11545 0
h -11722 10491 0
h 11723 -11545 -11563 0
h -11723 11545 0
h -11723 11563 0
h 11724 -10485 -10491 -11565 0
h -11724 10485 0
h -11724 10491 0
h -11724 11565 0
h -6667 10492 11721 11722 11723 11724 0
h 6667 -10492 0
h 6667 -11721 0
h 6667 -11722 0
h 6667 -11723 0
h 6667 -11724 0
h 11725 -10494 -11563 0
h -11725 10494 0
h -11725 11563 0
h 11726 -11561 -11563 0
h -11726 11561 0
h -11726 11563 0
h 11727 -11561 -10491 0
h -11727 11561 0
h -11727 10491 0
h 11728 -10494 -10491 -11565 0
h -11728 10494 0
h -11728 10491 0
h -11728 11565 0
h -6689 10495 11725 11726 11727 11728 0
h 6689 -10495 0
h 6689 -11725 0
h 6689 -11726 0
h 6689 -11727 0
h 6689 -11728 0
h 11729 -10485 -11730 0
h -11729 10485 0
h -11729 11730 0
h 11731 -11545 -11730 0
h -11731 11545 0
h -11731 11730 0
h 11732 -11545 -10497 0
h -11732 11545 0
h -11732 10497 0
h 11733 -10485 -10497 -11565 0
h -11733 10485 0
h -11733 10497 0
h -11733 11565 0
h -6680 10498 11729 11731 11732 11733 0
h 6680 -10498 0
h 6680 -11729 0
h 6680 -11731 0
h 6680 -11732 0
h 6680 -11733 0
h 11734 -10485 -11544 0
h -11734 10485 0
h -11734 11544 0
h 11735 -11545 -10500 0
h -11735 11545 0
h -11735 10500 0
h 11736 -11545 -11544 0
h -11736 11545 0
h -11736 11544 0
h 11737 -10485 -10500 -11565 0
h -11737 10485 0
h -11737 10500 0
h -11737 11565 0
h -6687 10501 11734 11735 11736 11737 0
h 6687 -10501 0
h 6687 -11734 0
h 6687 -11735 0
h 6687 -11736 0
h 6687 -11737 0
h 11738 -10494 -11544 0
h -11738 10494 0
h -11738 11544 0
h 11739 -11561 -11544 0
h -11739 11561 0
h -11739 11544 0
h 11740 -11561 -10500 0
h -11740 11561 0
h -11740 10500 0
h 11741 -10494 -10500 -11565 0
h -11741 10494 0
h -11741 10500 0
h -11741 11565 0
h -6694 10503 11738 11739 11740 11741 0
h 6694 -10503 0
h 6694 -11738 0
h 6694 -11739 0
h 6694 -11740 0
h 6694 -11741 0
h 11742 -10485 -11567 0
h -11742 10485 0
h -11742 11567 0
h 11743 -11545 -11567 0
h -11743 11545 0
h -11743 11567 0
h 11744 -11545 -10505 0
h -11744 11545 0
h -11744 10505 0
h 11745 -10485 -10505 -11565 0
h -11745 10485 0
h -11745 10505 0
h -11745 11565 0
h -6701 10506 11742 11743 11744 11745 0
h 6701 -10506 0
h 6701 -11742 0
h 6701 -11743 0
h 6701 -11744 0
h 6701 -11745 0
h 11746 -10485 -11569 0
h -11746 10485 0
h -11746 11569 0
h 11747 -11545 -10508 0
h -11747 11545 0
h -11747 10508 0
h 11748 -11545 -11569 0
h -11748 11545 0
h -11748 11569 0
h 11749 -10485 -10508 -11565 0
h -11749 10485 0
h -11749 10508 0
h -11749 11565 0
h -6708 10509 11746 11747 11748 11749 0
h 6708 -10509 0
h 6708 -11746 0
h 6708 -11747 0
h 6708 -11748 0
h 6708 -11749 0
h 11750 -10494 -11569 0
h -11750 10494 0
h -11750 11569 0
h 11751 -11561 -11569 0
h -11751 11561 0
h -11751 11569 0
h 11752 -11561 -10508 0
h -11752 11561 0
h -11752 10508 0
h 11753 -10494 -10508 -11565 0
h -11753 10494 0
h -11753 10508 0
h -11753 11565 0
h -6713 10511 11750 11751 11752 11753 0
h 6713 -10511 0
h 6713 -11750 0
h 6713 -11751 0
h 6713 -11752 0
h 6713 -11753 0
h 11754 -10488 -11561 0
h -11754 10488 0
h -11754 11561 0
h 11755 -11554 -10494 0
h -11755 11554 0
h -11755 10494 0
h 11756 -11554 -11561 0
h -11756 11554 0
h -11756 11561 0
h 11757 -10488 -10494 -11565 0
h -11757 10488 0
h -11757 10494 0
h -11757 11565 0
h -6691 10513 11754 11755 11756 11757 0
h 6691 -10513 0
h 6691 -11754 0
h 6691 -11755 0
h 6691 -11756 0
h 6691 -11757 0
h 11758 -10488 -11554 0
h -11758 10488 0
h -11758 11554 0
h 11759 -11554 -11554 0
h -11759 11554 0
h -11759 11554 0
h 11760 -11554 -10488 0
h -11760 11554 0
h -11760 10488 0
h 11761 -10488 -10488 -11565 0
h -11761 10488 0
h -11761 10488 0
h -11761 11565 0
h -6672 10515 11758 11759 11760 11761 0
h 6672 -10515 0
h 6672 -11758 0
h 6672 -11759 0
h 6672 -11760 0
h 6672 -11761 0
h 11762 -10488 -11730 0
h -11762 10488 0
h -11762 11730 0
h 11763 -11554 -11730 0
h -11763 11554 0
h -11763 11730 0
h 11764 -11554 -10497 0
h -11764 11554 0
h -11764 10497 0
h 11765 -10488 -10497 -11565 0
h -11765 10488 0
h -11765 10497 0
h -11765 11565 0
h -6675 10517 11762 11763 11764 11765 0
h 6675 -10517 0
h 6675 -11762 0
h 6675 -11763 0
h 6675 -11764 0
h 6675 -11765 0
h 11766 -10488 -11544 0
h -11766 10488 0
h -11766 11544 0
h 11767 -11554 -10500 0
h -11767 11554 0
h -11767 10500 0
h 11768 -11554 -11544 0
h -11768 11554 0
h -11768 11544 0
h 11769 -10488 -10500 -11565 0
h -11769 10488 0
h -11769 10500 0
h -11769 11565 0
h -6682 10519 11766 11767 11768 11769 0
h 6682 -10519 0
h 6682 -11766 0
h 6682 -11767 0
h 6682 -11768 0
h 6682 -11769 0
h 11770 -10491 -11544 0
h -11770 10491 0
h -11770 11544 0
h 11771 -11563 -11544 0
h -11771 11563 0
h -11771 11544 0
h 11772 -11563 -10500 0
h -11772 11563 0
h -11772 10500 0
h 11773 -10491 -10500 -11565 0
h -11773 10491 0
h -11773 10500 0
h -11773 11565 0
h -6684 10521 11770 11771 11772 11773 0
h 6684 -10521 0
h 6684 -11770 0
h 6684 -11771 0
h 6684 -11772 0
h 6684 -11773 0
h 11774 -10488 -11567 0
h -11774 10488 0
h -11774 11567 0
h 11775 -11554 -11567 0
h -11775 11554 0
h -11775 11567 0
h 11776 -11554 -10505 0
h -11776 11554 0
h -11776 10505 0
h 11777 -10488 -10505 -11565 0
h -11777 10488 0
h -11777 10505 0
h -11777 11565 0
h -6696 10523 11774 11775 11776 11777 0
h 6696 -10523 0
h 6696 -11774 0
h 6696 -11775 0
h 6696 -11776 0
h 6696 -11777 0
h 11778 -10488 -11569 0
h -11778 10488 0
h -11778 11569 0
h 11779 -11554 -10508 0
h -11779 11554 0
h -11779 10508 0
h 11780 -11554 -11569 0
h -11780 11554 0
h -11780 11569 0
h 11781 -10488 -10508 -11565 0
h -11781 10488 0
h -11781 10508 0
h -11781 11565 0
h -6703 10525 11778 11779 11780 11781 0
h 6703 -10525 0
h 6703 -11778 0
h 6703 -11779 0
h 6703 -11780 0
h 6703 -11781 0
h 11782 -10491 -11569 0
h -11782 10491 0
h -11782 11569 0
h 11783 -11563 -11569 0
h -11783 11563 0
h -11783 11569 0
h 11784 -11563 -10508 0
h -11784 11563 0
h -11784 10508 0
h 11785 -10491 -10508 -11565 0
h -11785 10491 0
h -11785 10508 0
h -11785 11565 0
h -6705 10527 11782 11783 11784 11785 0
h 6705 -10527 0
h 6705 -11782 0
h 6705 -11783 0
h 6705 -11784 0
h 6705 -11785 0
h 11786 -10497 -11561 0
h -11786 10497 0
h -11786 11561 0
h 11787 -11730 -10494 0
h -11787 11730 0
h -11787 10494 0
h 11788 -11730 -11561 0
h -11788 11730 0
h -11788 11561 0
h 11789 -10497 -10494 -11565 0
h -11789 10497 0
h -11789 10494 0
h -11789 11565 0
h -6718 10529 11786 11787 11788 11789 0
h 6718 -10529 0
h 6718 -11786 0
h 6718 -11787 0
h 6718 -11788 0
h 6718 -11789 0
h 11790 -10497 -11563 0
h -11790 10497 0
h -11790 11563 0
h 11791 -11730 -10491 0
h -11791 11730 0
h -11791 10491 0
h 11792 -11730 -11563 0
h -11792 11730 0
h -11792 11563 0
h 11793 -10497 -10491 -11565 0
h -11793 10497 0
h -11793 10491 0
h -11793 11565 0
h -6678 10531 11790 11791 11792 11793 0
h 6678 -10531 0
h 6678 -11790 0
h 6678 -11791 0
h 6678 -11792 0
h 6678 -11793 0
h 11794 -10497 -11730 0
h -11794 10497 0
h -11794 11730 0
h 11795 -11730 -11730 0
h -11795 11730 0
h -11795 11730 0
h 11796 -11730 -10497 0
h -11796 11730 0
h -11796 10497 0
h 11797 -10497 -10497 -11565 0
h -11797 10497 0
h -11797 10497 0
h -11797 11565 0
h -6723 10533 11794 11795 11796 11797 0
h 6723 -10533 0
h 6723 -11794 0
h 6723 -11795 0
h 6723 -11796 0
h 6723 -11797 0
h 11798 -10497 -11567 0
h -11798 10497 0
h -11798 11567 0
h 11799 -11730 -11567 0
h -11799 11730 0
h -11799 11567 0
h 11800 -11730 -10505 0
h -11800 11730 0
h -11800 10505 0
h 11801 -10497 -10505 -11565 0
h -11801 10497 0
h -11801 10505 0
h -11801 11565 0
h -6728 10535 11798 11799 11800 11801 0
h 6728 -10535 0
h 6728 -11798 0
h 6728 -11799 0
h 6728 -11800 0
h 6728 -11801 0
h 11802 -10497 -11569 0
h -11802 10497 0
h -11802 11569 0
h 11803 -11730 -10508 0
h -11803 11730 0
h -11803 10508 0
h 11804 -11730 -11569 0
h -11804 11730 0
h -11804 11569 0
h 11805 -10497 -10508 -11565 0
h -11805 10497 0
h -11805 10508 0
h -11805 11565 0
h -6733 10537 11802 11803 11804 11805 0
h 6733 -10537 0
h 6733 -11802 0
h 6733 -11803 0
h 6733 -11804 0
h 6733 -11805 0
h 11806 -10500 -11569 0
h -11806 10500 0
h -11806 11569 0
h 11807 -11544 -11569 0
h -11807 11544 0
h -11807 11569 0
h 11808 -11544 -10508 0
h -11808 11544 0
h -11808 10508 0
h 11809 -10500 -10508 -11565 0
h -11809 10500 0
h -11809 10508 0
h -11809 11565 0
h -6738 10539 11806 11807 11808 11809 0
h 6738 -10539 0
h 6738 -11806 0
h 6738 -11807 0
h 6738 -11808 0
h 6738 -11809 0
h 11810 -10505 -11561 0
h -11810 10505 0
h -11810 11561 0
h 11811 -11567 -10494 0
h -11811 11567 0
h -11811 10494 0
h 11812 -11567 -11561 0
h -11812 11567 0
h -11812 11561 0
h 11813 -10505 -10494 -11565 0
h -11813 10505 0
h -11813 10494 0
h -11813 11565 0
h -6743 10541 11810 11811 11812 11813 0
h 6743 -10541 0
h 6743 -11810 0
h 6743 -11811 0
h 6743 -11812 0
h 6743 -11813 0
h 11814 -10505 -11563 0
h -11814 10505 0
h -11814 11563 0
h 11815 -11567 -10491 0
h -11815 11567 0
h -11815 10491 0
h 11816 -11567 -11563 0
h -11816 11567 0
h -11816 11563 0
h 11817 -10505 -10491 -11565 0
h -11817 10505 0
h -11817 10491 0
h -11817 11565 0
h -6699 10543 11814 11815 11816 11817 0
h 6699 -10543 0
h 6699 -11814 0
h 6699 -11815 0
h 6699 -11816 0
h 6699 -11817 0
h 11818 -10505 -11544 0
h -11818 10505 0
h -11818 11544 0
h 11819 -11567 -10500 0
h -11819 11567 0
h -11819 10500 0
h 11820 -11567 -11544 0
h -11820 11567 0
h -11820 11544 0
h 11821 -10505 -10500 -11565 0
h -11821 10505 0
h -11821 10500 0
h -11821 11565 0
h -6748 10545 11818 11819 11820 11821 0
h 6748 -10545 0
h 6748 -11818 0
h 6748 -11819 0
h 6748 -11820 0
h 6748 -11821 0
h 11822 -10505 -11567 0
h -11822 10505 0
h -11822 11567 0
h 11823 -11567 -11567 0
h -11823 11567 0
h -11823 11567 0
h 11824 -11567 -10505 0
h -11824 11567 0
h -11824 10505 0
h 11825 -10505 -10505 -11565 0
h -11825 10505 0
h -11825 10505 0
h -11825 11565 0
h -6753 10547 11822 11823 11824 11825 0
h 6753 -10547 0
h 6753 -11822 0
h 6753 -11823 0
h 6753 -11824 0
h 6753 -11825 0
h 11826 -10501 -10498 0
h -11826 10501 0
h -11826 10498 0
h 11827 -10498 -10498 0
h -11827 10498 0
h -11827 10498 0
h 11828 -10498 -10501 0
h -11828 10498 0
h -11828 10501 0
h 11829 -10501 -10501 -10533 0
h -11829 10501 0
h -11829 10501 0
h -11829 10533 0
h -7319 10486 11826 11827 11828 11829 0
h 7319 -10486 0
h 7319 -11826 0
h 7319 -11827 0
h 7319 -11828 0
h 7319 -11829 0
h 11830 -10501 -10517 0
h -11830 10501 0
h -11830 10517 0
h 11831 -10498 -10517 0
h -11831 10498 0
h -11831 10517 0
h 11832 -10498 -10519 0
h -11832 10498 0
h -11832 10519 0
h 11833 -10501 -10519 -10533 0
h -11833 10501 0
h -11833 10519 0
h -11833 10533 0
h -7354 10489 11830 11831 11832 11833 0
h 7354 -10489 0
h 7354 -11830 0
h 7354 -11831 0
h 7354 -11832 0
h 7354 -11833 0
h 11834 -10501 -10531 0
h -11834 10501 0
h -11834 10531 0
h 11835 -10498 -10521 0
h -11835 10498 0
h -11835 10521 0
h 11836 -10498 -10531 0
h -11836 10498 0
h -11836 10531 0
h 11837 -10501 -10521 -10533 0
h -11837 10501 0
h -11837 10521 0
h -11837 10533 0
h -7318 10492 11834 11835 11836 11837 0
h 7318 -10492 0
h 7318 -11834 0
h 7318 -11835 0
h 7318 -11836 0
h 7318 -11837 0
h 11838 -10503 -10531 0
h -11838 10503 0
h -11838 10531 0
h 11839 -10529 -10531 0
h -11839 10529 0
h -11839 10531 0
h 11840 -10529 -10521 0
h -11840 10529 0
h -11840 10521 0
h 11841 -10503 -10521 -10533 0
h -11841 10503 0
h -11841 10521 0
h -11841 10533 0
h -7327 10495 11838 11839 11840 11841 0
h 7327 -10495 0
h 7327 -11838 0
h 7327 -11839 0
h 7327 -11840 0
h 7327 -11841 0
h 11842 -10501 -11730 0
h -11842 10501 0
h -11842 11730 0
h 11843 -10498 -11730 0
h -11843 10498 0
h -11843 11730 0
h 11844 -10498 -11544 0
h -11844 10498 0
h -11844 11544 0
h 11845 -10501 -11544 -10533 0
h -11845 10501 0
h -11845 11544 0
h -11845 10533 0
h -7322 11545 11842 11843 11844 11845 0
h 7322 -11545 0
h 7322 -11842 0
h 7322 -11843 0
h 7322 -11844 0
h 7322 -11845 0
h 11846 -10501 -10497 0
h -11846 10501 0
h -11846 10497 0
h 11847 -10498 -10500 0
h -11847 10498 0
h -11847 10500 0
h 11848 -10498 -10497 0
h -11848 10498 0
h -11848 10497 0
h 11849 -10501 -10500 -10533 0
h -11849 10501 0
h -11849 10500 0
h -11849 10533 0
h -7325 10485 11846 11847 11848 11849 0
h 7325 -10485 0
h 7325 -11846 0
h 7325 -11847 0
h 7325 -11848 0
h 7325 -11849 0
h 11850 -10503 -10497 0
h -11850 10503 0
h -11850 10497 0
h 11851 -10529 -10497 0
h -11851 10529 0
h -11851 10497 0
h 11852 -10529 -10500 0
h -11852 10529 0
h -11852 10500 0
h 11853 -10503 -10500 -10533 0
h -11853 10503 0
h -11853 10500 0
h -11853 10533 0
h -7328 10494 11850 11851 11852 11853 0
h 7328 -10494 0
h 7328 -11850 0
h 7328 -11851 0
h 7328 -11852 0
h 7328 -11853 0
h 11854 -10501 -10535 0
h -11854 10501 0
h -11854 10535 0
h 11855 -10498 -10535 0
h -11855 10498 0
h -11855 10535 0
h 11856 -10498 -10545 0
h -11856 10498 0
h -11856 10545 0
h 11857 -10501 -10545 -10533 0
h -11857 10501 0
h -11857 10545 0
h -11857 10533 0
h -7331 10506 11854 11855 11856 11857 0
h 7331 -10506 0
h 7331 -11854 0
h 7331 -11855 0
h 7331 -11856 0
h 7331 -11857 0
h 11858 -10501 -10537 0
h -11858 10501 0
h -11858 10537 0
h 11859 -10498 -10539 0
h -11859 10498 0
h -11859 10539 0
h 11860 -10498 -10537 0
h -11860 10498 0
h -11860 10537 0
h 11861 -10501 -10539 -10533 0
h -11861 10501 0
h -11861 10539 0
h -11861 10533 0
h -7334 10509 11858 11859 11860 11861 0
h 7334 -10509 0
h 7334 -11858 0
h 7334 -11859 0
h 7334 -11860 0
h 7334 -11861 0
h 11862 -10503 -10537 0
h -11862 10503 0
h -11862 10537 0
h 11863 -10529 -10537 0
h -11863 10529 0
h -11863 10537 0
h 11864 -10529 -10539 0
h -11864 10529 0
h -11864 10539 0
h 11865 -10503 -10539 -10533 0
h -11865 10503 0
h -11865 10539 0
h -11865 10533 0
h -7336 10511 11862 11863 11864 11865 0
h 7336 -10511 0
h 7336 -11862 0
h 7336 -11863 0
h 7336 -11864 0
h 7336 -11865 0
h 11866 -10519 -10529 0
h -11866 10519 0
h -11866 10529 0
h 11867 -10517 -10503 0
h -11867 10517 0
h -11867 10503 0
h 11868 -10517 -10529 0
h -11868 10517 0
h -11868 10529 0
h 11869 -10519 -10503 -10533 0
h -11869 10519 0
h -11869 10503 0
h -11869 10533 0
h -7371 10513 11866 11867 11868 11869 0
h 7371 -10513 0
h 7371 -11866 0
h 7371 -11867 0
h 7371 -11868 0
h 7371 -11869 0
h 11870 -10519 -10517 0
h -11870 10519 0
h -11870 10517 0
h 11871 -10517 -10517 0
h -11871 10517 0
h -11871 10517 0
h 11872 -10517 -10519 0
h -11872 10517 0
h -11872 10519 0
h 11873 -10519 -10519 -10533 0
h -11873 10519 0
h -11873 10519 0
h -11873 10533 0
h -7358 10515 11870 11871 11872 11873 0
h 7358 -10515 0
h 7358 -11870 0
h 7358 -11871 0
h 7358 -11872 0
h 7358 -11873 0
h 11874 -10519 -11730 0
h -11874 10519 0
h -11874 11730 0
h 11875 -10517 -11730 0
h -11875 10517 0
h -11875 11730 0
h 11876 -10517 -11544 0
h -11876 10517 0
h -11876 11544 0
h 11877 -10519 -11544 -10533 0
h -11877 10519 0
h -11877 11544 0
h -11877 10533 0
h -7360 11554 11874 11875 11876 11877 0
h 7360 -11554 0
h 7360 -11874 0
h 7360 -11875 0
h 7360 -11876 0
h 7360 -11877 0
h 11878 -10519 -10497 0
h -11878 10519 0
h -11878 10497 0
h 11879 -10517 -10500 0
h -11879 10517 0
h -11879 10500 0
h 11880 -10517 -10497 0
h -11880 10517 0
h -11880 10497 0
h 11881 -10519 -10500 -10533 0
h -11881 10519 0
h -11881 10500 0
h -11881 10533 0
h -7365 10488 11878 11879 11880 11881 0
h 7365 -10488 0
h 7365 -11878 0
h 7365 -11879 0
h 7365 -11880 0
h 7365 -11881 0
h 11882 -10521 -10497 0
h -11882 10521 0
h -11882 10497 0
h 11883 -10531 -10497 0
h -11883 10531 0
h -11883 10497 0
h 11884 -10531 -10500 0
h -11884 10531 0
h -11884 10500 0
h 11885 -10521 -10500 -10533 0
h -11885 10521 0
h -11885 10500 0
h -11885 10533 0
h -7324 10491 11882 11883 11884 11885 0
h 7324 -10491 0
h 7324 -11882 0
h 7324 -11883 0
h 7324 -11884 0
h 7324 -11885 0
h 11886 -10519 -10535 0
h -11886 10519 0
h -11886 10535 0
h 11887 -10517 -10535 0
h -11887 10517 0
h -11887 10535 0
h 11888 -10517 -10545 0
h -11888 10517 0
h -11888 10545 0
h 11889 -10519 -10545 -10533 0
h -11889 10519 0
h -11889 10545 0
h -11889 10533 0
h -7375 10523 11886 11887 11888 11889 0
h 7375 -10523 0
h 7375 -11886 0
h 7375 -11887 0
h 7375 -11888 0
h 7375 -11889 0
h 11890 -10519 -10537 0
h -11890 10519 0
h -11890 10537 0
h 11891 -10517 -10539 0
h -11891 10517 0
h -11891 10539 0
h 11892 -10517 -10537 0
h -11892 10517 0
h -11892 10537 0
h 11893 -10519 -10539 -10533 0
h -11893 10519 0
h -11893 10539 0
h -11893 10533 0
h -7380 10525 11890 11891 11892 11893 0
h 7380 -10525 0
h 7380 -11890 0
h 7380 -11891 0
h 7380 -11892 0
h 7380 -11893 0
h 11894 -10521 -10537 0
h -11894 10521 0
h -11894 10537 0
h 11895 -10531 -10537 0
h -11895 10531 0
h -11895 10537 0
h 11896 -10531 -10539 0
h -11896 10531 0
h -11896 10539 0
h 11897 -10521 -10539 -10533 0
h -11897 10521 0
h -11897 10539 0
h -11897 10533 0
h -7333 10527 11894 11895 11896 11897 0
h 7333 -10527 0
h 7333 -11894 0
h 7333 -11895 0
h 7333 -11896 0
h 7333 -11897 0
h 11898 -11544 -10529 0
h -11898 11544 0
h -11898 10529 0
h 11899 -11730 -10503 0
h -11899 11730 0
h -11899 10503 0
h 11900 -11730 -10529 0
h -11900 11730 0
h -11900 10529 0
h 11901 -11544 -10503 -10533 0
h -11901 11544 0
h -11901 10503 0
h -11901 10533 0
h -7338 11561 11898 11899 11900 11901 0
h 7338 -11561 0
h 7338 -11898 0
h 7338 -11899 0
h 7338 -11900 0
h 7338 -11901 0
h 11902 -11544 -10531 0
h -11902 11544 0
h -11902 10531 0
h 11903 -11730 -10521 0
h -11903 11730 0
h -11903 10521 0
h 11904 -11730 -10531 0
h -11904 11730 0
h -11904 10531 0
h 11905 -11544 -10521 -10533 0
h -11905 11544 0
h -11905 10521 0
h -11905 10533 0
h -7321 11563 11902 11903 11904 11905 0
h 7321 -11563 0
h 7321 -11902 0
h 7321 -11903 0
h 7321 -11904 0
h 7321 -11905 0
h 11906 -11544 -11730 0
h -11906 11544 0
h -11906 11730 0
h 11795 -11730 -11730 0
h -11795 11730 0
h -11795 11730 0
h 11907 -11730 -11544 0
h -11907 11730 0
h -11907 11544 0
h 11908 -11544 -11544 -10533 0
h -11908 11544 0
h -11908 11544 0
h -11908 10533 0
h -7340 11565 11906 11795 11907 11908 0
h 7340 -11565 0
h 7340 -11906 0
h 7340 -11795 0
h 7340 -11907 0
h 7340 -11908 0
h 11909 -11544 -10535 0
h -11909 11544 0
h -11909 10535 0
h 11910 -11730 -10535 0
h -11910 11730 0
h -11910 10535 0
h 11911 -11730 -10545 0
h -11911 11730 0
h -11911 10545 0
h 11912 -11544 -10545 -10533 0
h -11912 11544 0
h -11912 10545 0
h -11912 10533 0
h -7342 11567 11909 11910 11911 11912 0
h 7342 -11567 0
h 7342 -11909 0
h 7342 -11910 0
h 7342 -11911 0
h 7342 -11912 0
h 11913 -11544 -10537 0
h -11913 11544 0
h -11913 10537 0
h 11914 -11730 -10539 0
h -11914 11730 0
h -11914 10539 0
h 11915 -11730 -10537 0
h -11915 11730 0
h -11915 10537 0
h 11916 -11544 -10539 -10533 0
h -11916 11544 0
h -11916 10539 0
h -11916 10533 0
h -7344 11569 11913 11914 11915 11916 0
h 7344 -11569 0
h 7344 -11913 0
h 7344 -11914 0
h 7344 -11915 0
h 7344 -11916 0
h 11917 -10500 -10537 0
h -11917 10500 0
h -11917 10537 0
h 11918 -10497 -10537 0
h -11918 10497 0
h -11918 10537 0
h 11919 -10497 -10539 0
h -11919 10497 0
h -11919 10539 0
h 11920 -10500 -10539 -10533 0
h -11920 10500 0
h -11920 10539 0
h -11920 10533 0
h -7346 10508 11917 11918 11919 11920 0
h 7346 -10508 0
h 7346 -11917 0
h 7346 -11918 0
h 7346 -11919 0
h 7346 -11920 0
h 11921 -10545 -10529 0
h -11921 10545 0
h -11921 10529 0
h 11922 -10535 -10503 0
h -11922 10535 0
h -11922 10503 0
h 11923 -10535 -10529 0
h -11923 10535 0
h -11923 10529 0
h 11924 -10545 -10503 -10533 0
h -11924 10545 0
h -11924 10503 0
h -11924 10533 0
h -7348 10541 11921 11922 11923 11924 0
h 7348 -10541 0
h 7348 -11921 0
h 7348 -11922 0
h 7348 -11923 0
h 7348 -11924 0
h 11925 -10545 -10531 0
h -11925 10545 0
h -11925 10531 0
h 11926 -10535 -10521 0
h -11926 10535 0
h -11926 10521 0
h 11927 -10535 -10531 0
h -11927 10535 0
h -11927 10531 0
h 11928 -10545 -10521 -10533 0
h -11928 10545 0
h -11928 10521 0
h -11928 10533 0
h -7330 10543 11925 11926 11927 11928 0
h 7330 -10543 0
h 7330 -11925 0
h 7330 -11926 0
h 7330 -11927 0
h 7330 -11928 0
h 11929 -10545 -10497 0
h -11929 10545 0
h -11929 10497 0
h 11930 -10535 -10500 0
h -11930 10535 0
h -11930 10500 0
h 11931 -10535 -10497 0
h -11931 10535 0
h -11931 10497 0
h 11932 -10545 -10500 -10533 0
h -11932 10545 0
h -11932 10500 0
h -11932 10533 0
h -7350 10505 11929 11930 11931 11932 0
h 7350 -10505 0
h 7350 -11929 0
h 7350 -11930 0
h 7350 -11931 0
h 7350 -11932 0
h 11933 -10545 -10535 0
h -11933 10545 0
h -11933 10535 0
h 11934 -10535 -10535 0
h -11934 10535 0
h -11934 10535 0
h 11935 -10535 -10545 0
h -11935 10535 0
h -11935 10545 0
h 11936 -10545 -10545 -10533 0
h -11936 10545 0
h -11936 10545 0
h -11936 10533 0
h -7352 10547 11933 11934 11935 11936 0
h 7352 -10547 0
h 7352 -11933 0
h 7352 -11934 0
h 7352 -11935 0
h 7352 -11936 0
h 11937 -10811 -10804 0
h -11937 10811 0
h -11937 10804 0
h 11938 -10804 -10804 0
h -11938 10804 0
h -11938 10804 0
h 11939 -10804 -10811 0
h -11939 10804 0
h -11939 10811 0
h 11940 -10811 -10811 -10890 0
h -11940 10811 0
h -11940 10811 0
h -11940 10890 0
h -7613 10776 11937 11938 11939 11940 0
h 7613 -10776 0
h 7613 -11937 0
h 7613 -11938 0
h 7613 -11939 0
h 7613 -11940 0
h 11941 -10811 -10850 0
h -11941 10811 0
h -11941 10850 0
h 11942 -10804 -10850 0
h -11942 10804 0
h -11942 10850 0
h 11943 -10804 -10855 0
h -11943 10804 0
h -11943 10855 0
h 11944 -10811 -10855 -10890 0
h -11944 10811 0
h -11944 10855 0
h -11944 10890 0
h -8450 10783 11941 11942 11943 11944 0
h 8450 -10783 0
h 8450 -11941 0
h 8450 -11942 0
h 8450 -11943 0
h 8450 -11944 0
h 11945 -10811 -10885 0
h -11945 10811 0
h -11945 10885 0
h 11946 -10804 -10860 0
h -11946 10804 0
h -11946 10860 0
h 11947 -10804 -10885 0
h -11947 10804 0
h -11947 10885 0
h 11948 -10811 -10860 -10890 0
h -11948 10811 0
h -11948 10860 0
h -11948 10890 0
h -7612 10790 11945 11946 11947 11948 0
h 7612 -10790 0
h 7612 -11945 0
h 7612 -11946 0
h 7612 -11947 0
h 7612 -11948 0
h 11949 -10816 -10885 0
h -11949 10816 0
h -11949 10885 0
h 11950 -10880 -10885 0
h -11950 10880 0
h -11950 10885 0
h 11951 -10880 -10860 0
h -11951 10880 0
h -11951 10860 0
h 11952 -10816 -10860 -10890 0
h -11952 10816 0
h -11952 10860 0
h -11952 10890 0
h -7621 10797 11949 11950 11951 11952 0
h 7621 -10797 0
h 7621 -11949 0
h 7621 -11950 0
h 7621 -11951 0
h 7621 -11952 0
h 11953 -10811 -10799 0
h -11953 10811 0
h -11953 10799 0
h 11954 -10804 -10799 0
h -11954 10804 0
h -11954 10799 0
h 11955 -10804 -10806 0
h -11955 10804 0
h -11955 10806 0
h 11956 -10811 -10806 -10890 0
h -11956 10811 0
h -11956 10806 0
h -11956 10890 0
h -7616 10771 11953 11954 11955 11956 0
h 7616 -10771 0
h 7616 -11953 0
h 7616 -11954 0
h 7616 -11955 0
h 7616 -11956 0
h 11957 -10811 -10802 0
h -11957 10811 0
h -11957 10802 0
h 11958 -10804 -10808 0
h -11958 10804 0
h -11958 10808 0
h 11959 -10804 -10802 0
h -11959 10804 0
h -11959 10802 0
h 11960 -10811 -10808 -10890 0
h -11960 10811 0
h -11960 10808 0
h -11960 10890 0
h -7619 10770 11957 11958 11959 11960 0
h 7619 -10770 0
h 7619 -11957 0
h 7619 -11958 0
h 7619 -11959 0
h 7619 -11960 0
h 11961 -10816 -10802 0
h -11961 10816 0
h -11961 10802 0
h 11962 -10880 -10802 0
h -11962 10880 0
h -11962 10802 0
h 11963 -10880 -10808 0
h -11963 10880 0
h -11963 10808 0
h 11964 -10816 -10808 -10890 0
h -11964 10816 0
h -11964 10808 0
h -11964 10890 0
h -7622 10792 11961 11962 11963 11964 0
h 7622 -10792 0
h 7622 -11961 0
h 7622 -11962 0
h 7622 -11963 0
h 7622 -11964 0
h 11965 -10811 -10895 0
h -11965 10811 0
h -11965 10895 0
h 11966 -10804 -10895 0
h -11966 10804 0
h -11966 10895 0
h 11967 -10804 -10920 0
h -11967 10804 0
h -11967 10920 0
h 11968 -10811 -10920 -10890 0
h -11968 10811 0
h -11968 10920 0
h -11968 10890 0
h -7625 10823 11965 11966 11967 11968 0
h 7625 -10823 0
h 7625 -11965 0
h 7625 -11966 0
h 7625 -11967 0
h 7625 -11968 0
h 11969 -10811 -10900 0
h -11969 10811 0
h -11969 10900 0
h 11970 -10804 -10905 0
h -11970 10804 0
h -11970 10905 0
h 11971 -10804 -10900 0
h -11971 10804 0
h -11971 10900 0
h 11972 -10811 -10905 -10890 0
h -11972 10811 0
h -11972 10905 0
h -11972 10890 0
h -7628 10830 11969 11970 11971 11972 0
h 7628 -10830 0
h 7628 -11969 0
h 7628 -11970 0
h 7628 -11971 0
h 7628 -11972 0
h 11973 -10816 -10900 0
h -11973 10816 0
h -11973 10900 0
h 11974 -10880 -10900 0
h -11974 10880 0
h -11974 10900 0
h 11975 -10880 -10905 0
h -11975 10880 0
h -11975 10905 0
h 11976 -10816 -10905 -10890 0
h -11976 10816 0
h -11976 10905 0
h -11976 10890 0
h -7630 10835 11973 11974 11975 11976 0
h 7630 -10835 0
h 7630 -11973 0
h 7630 -11974 0
h 7630 -11975 0
h 7630 -11976 0
h 11977 -10855 -10880 0
h -11977 10855 0
h -11977 10880 0
h 11978 -10850 -10816 0
h -11978 10850 0
h -11978 10816 0
h 11979 -10850 -10880 0
h -11979 10850 0
h -11979 10880 0
h 11980 -10855 -10816 -10890 0
h -11980 10855 0
h -11980 10816 0
h -11980 10890 0
h -8467 10840 11977 11978 11979 11980 0
h 8467 -10840 0
h 8467 -11977 0
h 8467 -11978 0
h 8467 -11979 0
h 8467 -11980 0
h 11981 -10855 -10850 0
h -11981 10855 0
h -11981 10850 0
h 11982 -10850 -10850 0
h -11982 10850 0
h -11982 10850 0
h 11983 -10850 -10855 0
h -11983 10850 0
h -11983 10855 0
h 11984 -10855 -10855 -10890 0
h -11984 10855 0
h -11984 10855 0
h -11984 10890 0
h -8454 10845 11981 11982 11983 11984 0
h 8454 -10845 0
h 8454 -11981 0
h 8454 -11982 0
h 8454 -11983 0
h 8454 -11984 0
h 11985 -10855 -10799 0
h -11985 10855 0
h -11985 10799 0
h 11986 -10850 -10799 0
h -11986 10850 0
h -11986 10799 0
h 11987 -10850 -10806 0
h -11987 10850 0
h -11987 10806 0
h 11988 -10855 -10806 -10890 0
h -11988 10855 0
h -11988 10806 0
h -11988 10890 0
h -8456 10778 11985 11986 11987 11988 0
h 8456 -10778 0
h 8456 -11985 0
h 8456 -11986 0
h 8456 -11987 0
h 8456 -11988 0
h 11989 -10855 -10802 0
h -11989 10855 0
h -11989 10802 0
h 11990 -10850 -10808 0
h -11990 10850 0
h -11990 10808 0
h 11991 -10850 -10802 0
h -11991 10850 0
h -11991 10802 0
h 11992 -10855 -10808 -10890 0
h -11992 10855 0
h -11992 10808 0
h -11992 10890 0
h -8461 10781 11989 11990 11991 11992 0
h 8461 -10781 0
h 8461 -11989 0
h 8461 -11990 0
h 8461 -11991 0
h 8461 -11992 0
h 11993 -10860 -10802 0
h -11993 10860 0
h -11993 10802 0
h 11994 -10885 -10802 0
h -11994 10885 0
h -11994 10802 0
h 11995 -10885 -10808 0
h -11995 10885 0
h -11995 10808 0
h 11996 -10860 -10808 -10890 0
h -11996 10860 0
h -11996 10808 0
h -11996 10890 0
h -7618 10787 11993 11994 11995 11996 0
h 7618 -10787 0
h 7618 -11993 0
h 7618 -11994 0
h 7618 -11995 0
h 7618 -11996 0
h 11997 -10855 -10895 0
h -11997 10855 0
h -11997 10895 0
h 11998 -10850 -10895 0
h -11998 10850 0
h -11998 10895 0
h 11999 -10850 -10920 0
h -11999 10850 0
h -11999 10920 0
h 12000 -10855 -10920 -10890 0
h -12000 10855 0
h -12000 10920 0
h -12000 10890 0
h -8471 10865 11997 11998 11999 12000 0
h 8471 -10865 0
h 8471 -11997 0
h 8471 -11998 0
h 8471 -11999 0
h 8471 -12000 0
h 12001 -10855 -10900 0
h -12001 10855 0
h -12001 10900 0
h 12002 -10850 -10905 0
h -12002 10850 0
h -12002 10905 0
h 12003 -10850 -10900 0
h -12003 10850 0
h -12003 10900 0
h 12004 -10855 -10905 -10890 0
h -12004 10855 0
h -12004 10905 0
h -12004 10890 0
h -8476 10870 12001 12002 12003 12004 0
h 8476 -10870 0
h 8476 -12001 0
h 8476 -12002 0
h 8476 -12003 0
h 8476 -12004 0
h 12005 -10860 -10900 0
h -12005 10860 0
h -12005 10900 0
h 12006 -10885 -10900 0
h -12006 10885 0
h -12006 10900 0
h 12007 -10885 -10905 0
h -12007 10885 0
h -12007 10905 0
h 12008 -10860 -10905 -10890 0
h -12008 10860 0
h -12008 10905 0
h -12008 10890 0
h -7627 10875 12005 12006 12007 12008 0
h 7627 -10875 0
h 7627 -12005 0
h 7627 -12006 0
h 7627 -12007 0
h 7627 -12008 0
h 12009 -10806 -10880 0
h -12009 10806 0
h -12009 10880 0
h 12010 -10799 -10816 0
h -12010 10799 0
h -12010 10816 0
h 12011 -10799 -10880 0
h -12011 10799 0
h -12011 10880 0
h 12012 -10806 -10816 -10890 0
h -12012 10806 0
h -12012 10816 0
h -12012 10890 0
h -7632 10794 12009 12010 12011 12012 0
h 7632 -10794 0
h 7632 -12009 0
h 7632 -12010 0
h 7632 -12011 0
h 7632 -12012 0
h 12013 -10806 -10885 0
h -12013 10806 0
h -12013 10885 0
h 12014 -10799 -10860 0
h -12014 10799 0
h -12014 10860 0
h 12015 -10799 -10885 0
h -12015 10799 0
h -12015 10885 0
h 12016 -10806 -10860 -10890 0
h -12016 10806 0
h -12016 10860 0
h -12016 10890 0
h -7615 10785 12013 12014 12015 12016 0
h 7615 -10785 0
h 7615 -12013 0
h 7615 -12014 0
h 7615 -12015 0
h 7615 -12016 0
h 12017 -10806 -10799 0
h -12017 10806 0
h -12017 10799 0
h 10887 -10799 -10799 0
h -10887 10799 0
h -10887 10799 0
h 12018 -10799 -10806 0
h -12018 10799 0
h -12018 10806 0
h 12019 -10806 -10806 -10890 0
h -12019 10806 0
h -12019 10806 0
h -12019 10890 0
h -7634 10775 12017 10887 12018 12019 0
h 7634 -10775 0
h 7634 -12017 0
h 7634 -10887 0
h 7634 -12018 0
h 7634 -12019 0
h 12020 -10806 -10895 0
h -12020 10806 0
h -12020 10895 0
h 12021 -10799 -10895 0
h -12021 10799 0
h -12021 10895 0
h 12022 -10799 -10920 0
h -12022 10799 0
h -12022 10920 0
h 12023 -10806 -10920 -10890 0
h -12023 10806 0
h -12023 10920 0
h -12023 10890 0
h -7636 10818 12020 12021 12022 12023 0
h 7636 -10818 0
h 7636 -12020 0
h 7636 -12021 0
h 7636 -12022 0
h 7636 -12023 0
h 12024 -10806 -10900 0
h -12024 10806 0
h -12024 10900 0
h 12025 -10799 -10905 0
h -12025 10799 0
h -12025 10905 0
h 12026 -10799 -10900 0
h -12026 10799 0
h -12026 10900 0
h 12027 -10806 -10905 -10890 0
h -12027 10806 0
h -12027 10905 0
h -12027 10890 0
h -7638 10825 12024 12025 12026 12027 0
h 7638 -10825 0
h 7638 -12024 0
h 7638 -12025 0
h 7638 -12026 0
h 7638 -12027 0
h 12028 -10808 -10900 0
h -12028 10808 0
h -12028 10900 0
h 12029 -10802 -10900 0
h -12029 10802 0
h -12029 10900 0
h 12030 -10802 -10905 0
h -12030 10802 0
h -12030 10905 0
h 12031 -10808 -10905 -10890 0
h -12031 10808 0
h -12031 10905 0
h -12031 10890 0
h -7640 10827 12028 12029 12030 12031 0
h 7640 -10827 0
h 7640 -12028 0
h 7640 -12029 0
h 7640 -12030 0
h 7640 -12031 0
h 12032 -10920 -10880 0
h -12032 10920 0
h -12032 10880 0
h 12033 -10895 -10816 0
h -12033 10895 0
h -12033 10816 0
h 12034 -10895 -10880 0
h -12034 10895 0
h -12034 10880 0
h 12035 -10920 -10816 -10890 0
h -12035 10920 0
h -12035 10816 0
h -12035 10890 0
h -7642 10910 12032 12033 12034 12035 0
h 7642 -10910 0
h 7642 -12032 0
h 7642 -12033 0
h 7642 -12034 0
h 7642 -12035 0
h 12036 -10920 -10885 0
h -12036 10920 0
h -12036 10885 0
h 12037 -10895 -10860 0
h -12037 10895 0
h -12037 10860 0
h 12038 -10895 -10885 0
h -12038 10895 0
h -12038 10885 0
h 12039 -10920 -10860 -10890 0
h -12039 10920 0
h -12039 10860 0
h -12039 10890 0
h -7624 10915 12036 12037 12038 12039 0
h 7624 -10915 0
h 7624 -12036 0
h 7624 -12037 0
h 7624 -12038 0
h 7624 -12039 0
h 12040 -10920 -10802 0
h -12040 10920 0
h -12040 10802 0
h 12041 -10895 -10808 0
h -12041 10895 0
h -12041 10808 0
h 12042 -10895 -10802 0
h -12042 10895 0
h -12042 10802 0
h 12043 -10920 -10808 -10890 0
h -12043 10920 0
h -12043 10808 0
h -12043 10890 0
h -7644 10821 12040 12041 12042 12043 0
h 7644 -10821 0
h 7644 -12040 0
h 7644 -12041 0
h 7644 -12042 0
h 7644 -12043 0
h 12044 -10920 -10895 0
h -12044 10920 0
h -12044 10895 0
h 12045 -10895 -10895 0
h -12045 10895 0
h -12045 10895 0
h 12046 -10895 -10920 0
h -12046 10895 0
h -12046 10920 0
h 12047 -10920 -10920 -10890 0
h -12047 10920 0
h -12047 10920 0
h -12047 10890 0
h -7646 10925 12044 12045 12046 12047 0
h 7646 -10925 0
h 7646 -12044 0
h 7646 -12045 0
h 7646 -12046 0
h 7646 -12047 0
h 12048 -12049 -1216 0
h -12048 12049 0
h -12048 1216 0
h 12050 -1216 -1216 0
h -12050 1216 0
h -12050 1216 0
h 12051 -1216 -12049 0
h -12051 1216 0
h -12051 12049 0
h 12052 -12049 -12049 -1221 0
h -12052 12049 0
h -12052 12049 0
h -12052 1221 0
h -10586 1201 12048 12050 12051 12052 0
h 10586 -1201 0
h 10586 -12048 0
h 10586 -12050 0
h 10586 -12051 0
h 10586 -12052 0
h 12053 -12049 -1217 0
h -12053 12049 0
h -12053 1217 0
h 12054 -1216 -1217 0
h -12054 1216 0
h -12054 1217 0
h 12055 -1216 -12056 0
h -12055 1216 0
h -12055 12056 0
h 12057 -12049 -12056 -1221 0
h -12057 12049 0
h -12057 12056 0
h -12057 1221 0
h -10589 1202 12053 12054 12055 12057 0
h 10589 -1202 0
h 10589 -12053 0
h 10589 -12054 0
h 10589 -12055 0
h 10589 -12057 0
h 12058 -12049 -12059 0
h -12058 12049 0
h -12058 12059 0
h 12060 -1216 -12061 0
h -12060 1216 0
h -12060 12061 0
h 12062 -1216 -12059 0
h -12062 1216 0
h -12062 12059 0
h 12063 -12049 -12061 -1221 0
h -12063 12049 0
h -12063 12061 0
h -12063 1221 0
h -10592 12064 12058 12060 12062 12063 0
h 10592 -12064 0
h 10592 -12058 0
h 10592 -12060 0
h 10592 -12062 0
h 10592 -12063 0
h 12065 -12066 -12059 0
h -12065 12066 0
h -12065 12059 0
h 12067 -12068 -12059 0
h -12067 12068 0
h -12067 12059 0
h 12069 -12068 -12061 0
h -12069 12068 0
h -12069 12061 0
h 12070 -12066 -12061 -1221 0
h -12070 12066 0
h -12070 12061 0
h -12070 1221 0
h -10595 12071 12065 12067 12069 12070 0
h 10595 -12071 0
h 10595 -12065 0
h 10595 -12067 0
h 10595 -12069 0
h 10595 -12070 0
h 12072 -12049 -1218 0
h -12072 12049 0
h -12072 1218 0
h 12073 -1216 -1218 0
h -12073 1216 0
h -12073 1218 0
h 12074 -1216 -12075 0
h -12074 1216 0
h -12074 12075 0
h 12076 -12049 -12075 -1221 0
h -12076 12049 0
h -12076 12075 0
h -12076 1221 0
h -10598 1204 12072 12073 12074 12076 0
h 10598 -1204 0
h 10598 -12072 0
h 10598 -12073 0
h 10598 -12074 0
h 10598 -12076 0
h 12077 -12049 -12078 0
h -12077 12049 0
h -12077 12078 0
h 12079 -1216 -12080 0
h -12079 1216 0
h -12079 12080 0
h 12081 -1216 -12078 0
h -12081 1216 0
h -12081 12078 0
h 12082 -12049 -12080 -1221 0
h -12082 12049 0
h -12082 12080 0
h -12082 1221 0
h -10601 12083 12077 12079 12081 12082 0
h 10601 -12083 0
h 10601 -12077 0
h 10601 -12079 0
h 10601 -12081 0
h 10601 -12082 0
h 12084 -12066 -12078 0
h -12084 12066 0
h -12084 12078 0
h 12085 -12068 -12078 0
h -12085 12068 0
h -12085 12078 0
h 12086 -12068 -12080 0
h -12086 12068 0
h -12086 12080 0
h 12087 -12066 -12080 -1221 0
h -12087 12066 0
h -12087 12080 0
h -12087 1221 0
h -10603 12088 12084 12085 12086 12087 0
h 10603 -12088 0
h 10603 -12084 0
h 10603 -12085 0
h 10603 -12086 0
h 10603 -12087 0
h 12089 -12049 -1219 0
h -12089 12049 0
h -12089 1219 0
h 12090 -1216 -1219 0
h -12090 1216 0
h -12090 1219 0
h 12091 -1216 -12092 0
h -12091 1216 0
h -12091 12092 0
h 12093 -12049 -12092 -1221 0
h -12093 12049 0
h -12093 12092 0
h -12093 1221 0
h -10682 1207 12089 12090 12091 12093 0
h 10682 -1207 0
h 10682 -12089 0
h 10682 -12090 0
h 10682 -12091 0
h 10682 -12093 0
h 12094 -12049 -12095 0
h -12094 12049 0
h -12094 12095 0
h 12096 -1216 -12097 0
h -12096 1216 0
h -12096 12097 0
h 12098 -1216 -12095 0
h -12098 1216 0
h -12098 12095 0
h 12099 -12049 -12097 -1221 0
h -12099 12049 0
h -12099 12097 0
h -12099 1221 0
h -10585 12100 12094 12096 12098 12099 0
h 10585 -12100 0
h 10585 -12094 0
h 10585 -12096 0
h 10585 -12098 0
h 10585 -12099 0
h 12101 -12066 -12095 0
h -12101 12066 0
h -12101 12095 0
h 12102 -12068 -12095 0
h -12102 12068 0
h -12102 12095 0
h 12103 -12068 -12097 0
h -12103 12068 0
h -12103 12097 0
h 12104 -12066 -12097 -1221 0
h -12104 12066 0
h -12104 12097 0
h -12104 1221 0
h -10594 12105 12101 12102 12103 12104 0
h 10594 -12105 0
h 10594 -12101 0
h 10594 -12102 0
h 10594 -12103 0
h 10594 -12104 0
h 12106 -12049 -1220 0
h -12106 12049 0
h -12106 1220 0
h 12107 -1216 -1220 0
h -12107 1216 0
h -12107 1220 0
h 12108 -1216 -12109 0
h -12108 1216 0
h -12108 12109 0
h 12110 -12049 -12109 -1221 0
h -12110 12049 0
h -12110 12109 0
h -12110 1221 0
h -10606 1211 12106 12107 12108 12110 0
h 10606 -1211 0
h 10606 -12106 0
h 10606 -12107 0
h 10606 -12108 0
h 10606 -12110 0
h 12111 -12049 -12112 0
h -12111 12049 0
h -12111 12112 0
h 12113 -1216 -12114 0
h -12113 1216 0
h -12113 12114 0
h 12115 -1216 -12112 0
h -12115 1216 0
h -12115 12112 0
h 12116 -12049 -12114 -1221 0
h -12116 12049 0
h -12116 12114 0
h -12116 1221 0
h -10609 12117 12111 12113 12115 12116 0
h 10609 -12117 0
h 10609 -12111 0
h 10609 -12113 0
h 10609 -12115 0
h 10609 -12116 0
h 12118 -12066 -12112 0
h -12118 12066 0
h -12118 12112 0
h 12119 -12068 -12112 0
h -12119 12068 0
h -12119 12112 0
h 12120 -12068 -12114 0
h -12120 12068 0
h -12120 12114 0
h 12121 -12066 -12114 -1221 0
h -12121 12066 0
h -12121 12114 0
h -12121 1221 0
h -10611 12122 12118 12119 12120 12121 0
h 10611 -12122 0
h 10611 -12118 0
h 10611 -12119 0
h 10611 -12120 0
h 10611 -12121 0
h 12123 -12056 -12068 0
h -12123 12056 0
h -12123 12068 0
h 12124 -1217 -12066 0
h -12124 1217 0
h -12124 12066 0
h 12125 -1217 -12068 0
h -12125 1217 0
h -12125 12068 0
h 12126 -12056 -12066 -1221 0
h -12126 12056 0
h -12126 12066 0
h -12126 1221 0
h -10613 12127 12123 12124 12125 12126 0
h 10613 -12127 0
h 10613 -12123 0
h 10613 -12124 0
h 10613 -12125 0
h 10613 -12126 0
h 12128 -12056 -1217 0
h -12128 12056 0
h -12128 1217 0
h 12129 -1217 -1217 0
h -12129 1217 0
h -12129 1217 0
h 12130 -1217 -12056 0
h -12130 1217 0
h -12130 12056 0
h 12131 -12056 -12056 -1221 0
h -12131 12056 0
h -12131 12056 0
h -12131 1221 0
h -10615 1203 12128 12129 12130 12131 0
h 10615 -1203 0
h 10615 -12128 0
h 10615 -12129 0
h 10615 -12130 0
h 10615 -12131 0
h 12132 -12056 -1218 0
h -12132 12056 0
h -12132 1218 0
h 12133 -1217 -1218 0
h -12133 1217 0
h -12133 1218 0
h 12134 -1217 -12075 0
h -12134 1217 0
h -12134 12075 0
h 12135 -12056 -12075 -1221 0
h -12135 12056 0
h -12135 12075 0
h -12135 1221 0
h -10617 1205 12132 12133 12134 12135 0
h 10617 -1205 0
h 10617 -12132 0
h 10617 -12133 0
h 10617 -12134 0
h 10617 -12135 0
h 12136 -12056 -12078 0
h -12136 12056 0
h -12136 12078 0
h 12137 -1217 -12080 0
h -12137 1217 0
h -12137 12080 0
h 12138 -1217 -12078 0
h -12138 1217 0
h -12138 12078 0
h 12139 -12056 -12080 -1221 0
h -12139 12056 0
h -12139 12080 0
h -12139 1221 0
h -10619 12140 12136 12137 12138 12139 0
h 10619 -12140 0
h 10619 -12136 0
h 10619 -12137 0
h 10619 -12138 0
h 10619 -12139 0
h 12141 -12061 -12078 0
h -12141 12061 0
h -12141 12078 0
h 12142 -12059 -12078 0
h -12142 12059 0
h -12142 12078 0
h 12143 -12059 -12080 0
h -12143 12059 0
h -12143 12080 0
h 12144 -12061 -12080 -1221 0
h -12144 12061 0
h -12144 12080 0
h -12144 1221 0
h -10621 12145 12141 12142 12143 12144 0
h 10621 -12145 0
h 10621 -12141 0
h 10621 -12142 0
h 10621 -12143 0
h 10621 -12144 0
h 12146 -12056 -1219 0
h -12146 12056 0
h -12146 1219 0
h 12147 -1217 -1219 0
h -12147 1217 0
h -12147 1219 0
h 12148 -1217 -12092 0
h -12148 1217 0
h -12148 12092 0
h 12149 -12056 -12092 -1221 0
h -12149 12056 0
h -12149 12092 0
h -12149 1221 0
h -10715 1208 12146 12147 12148 12149 0
h 10715 -1208 0
h 10715 -12146 0
h 10715 -12147 0
h 10715 -12148 0
h 10715 -12149 0
h 12150 -12056 -12095 0
h -12150 12056 0
h -12150 12095 0
h 12151 -1217 -12097 0
h -12151 1217 0
h -12151 12097 0
h 12152 -1217 -12095 0
h -12152 1217 0
h -12152 12095 0
h 12153 -12056 -12097 -1221 0
h -12153 12056 0
h -12153 12097 0
h -12153 1221 0
h -10588 12154 12150 12151 12152 12153 0
h 10588 -12154 0
h 10588 -12150 0
h 10588 -12151 0
h 10588 -12152 0
h 10588 -12153 0
h 12155 -12061 -12095 0
h -12155 12061 0
h -12155 12095 0
h 12156 -12059 -12095 0
h -12156 12059 0
h -12156 12095 0
h 12157 -12059 -12097 0
h -12157 12059 0
h -12157 12097 0
h 12158 -12061 -12097 -1221 0
h -12158 12061 0
h -12158 12097 0
h -12158 1221 0
h -10591 12159 12155 12156 12157 12158 0
h 10591 -12159 0
h 10591 -12155 0
h 10591 -12156 0
h 10591 -12157 0
h 10591 -12158 0
h 12160 -12056 -1220 0
h -12160 12056 0
h -12160 1220 0
h 12161 -1217 -1220 0
h -12161 1217 0
h -12161 1220 0
h 12162 -1217 -12109 0
h -12162 1217 0
h -12162 12109 0
h 12163 -12056 -12109 -1221 0
h -12163 12056 0
h -12163 12109 0
h -12163 1221 0
h -10623 1212 12160 12161 12162 12163 0
h 10623 -1212 0
h 10623 -12160 0
h 10623 -12161 0
h 10623 -12162 0
h 10623 -12163 0
h 12164 -12056 -12112 0
h -12164 12056 0
h -12164 12112 0
h 12165 -1217 -12114 0
h -12165 1217 0
h -12165 12114 0
h 12166 -1217 -12112 0
h -12166 1217 0
h -12166 12112 0
h 12167 -12056 -12114 -1221 0
h -12167 12056 0
h -12167 12114 0
h -12167 1221 0
h -10625 12168 12164 12165 12166 12167 0
h 10625 -12168 0
h 10625 -12164 0
h 10625 -12165 0
h 10625 -12166 0
h 10625 -12167 0
h 12169 -12061 -12112 0
h -12169 12061 0
h -12169 12112 0
h 12170 -12059 -12112 0
h -12170 12059 0
h -12170 12112 0
h 12171 -12059 -12114 0
h -12171 12059 0
h -12171 12114 0
h 12172 -12061 -12114 -1221 0
h -12172 12061 0
h -12172 12114 0
h -12172 1221 0
h -10627 12173 12169 12170 12171 12172 0
h 10627 -12173 0
h 10627 -12169 0
h 10627 -12170 0
h 10627 -12171 0
h 10627 -12172 0
h 12174 -12075 -12068 0
h -12174 12075 0
h -12174 12068 0
h 12175 -1218 -12066 0
h -12175 1218 0
h -12175 12066 0
h 12176 -1218 -12068 0
h -12176 1218 0
h -12176 12068 0
h 12177 -12075 -12066 -1221 0
h -12177 12075 0
h -12177 12066 0
h -12177 1221 0
h -10629 12178 12174 12175 12176 12177 0
h 10629 -12178 0
h 10629 -12174 0
h 10629 -12175 0
h 10629 -12176 0
h 10629 -12177 0
h 12179 -12075 -12059 0
h -12179 12075 0
h -12179 12059 0
h 12180 -1218 -12061 0
h -12180 1218 0
h -12180 12061 0
h 12181 -1218 -12059 0
h -12181 1218 0
h -12181 12059 0
h 12182 -12075 -12061 -1221 0
h -12182 12075 0
h -12182 12061 0
h -12182 1221 0
h -10631 12183 12179 12180 12181 12182 0
h 10631 -12183 0
h 10631 -12179 0
h 10631 -12180 0
h 10631 -12181 0
h 10631 -12182 0
h 12184 -12075 -1218 0
h -12184 12075 0
h -12184 1218 0
h 12185 -1218 -1218 0
h -12185 1218 0
h -12185 1218 0
h 12186 -1218 -12075 0
h -12186 1218 0
h -12186 12075 0
h 12187 -12075 -12075 -1221 0
h -12187 12075 0
h -12187 12075 0
h -12187 1221 0
h -10633 1206 12184 12185 12186 12187 0
h 10633 -1206 0
h 10633 -12184 0
h 10633 -12185 0
h 10633 -12186 0
h 10633 -12187 0
h 12188 -12075 -1219 0
h -12188 12075 0
h -12188 1219 0
h 12189 -1218 -1219 0
h -12189 1218 0
h -12189 1219 0
h 12190 -1218 -12092 0
h -12190 1218 0
h -12190 12092 0
h 12191 -12075 -12092 -1221 0
h -12191 12075 0
h -12191 12092 0
h -12191 1221 0
h -10740 1209 12188 12189 12190 12191 0
h 10740 -1209 0
h 10740 -12188 0
h 10740 -12189 0
h 10740 -12190 0
h 10740 -12191 0
h 12192 -12075 -12095 0
h -12192 12075 0
h -12192 12095 0
h 12193 -1218 -12097 0
h -12193 1218 0
h -12193 12097 0
h 12194 -1218 -12095 0
h -12194 1218 0
h -12194 12095 0
h 12195 -12075 -12097 -1221 0
h -12195 12075 0
h -12195 12097 0
h -12195 1221 0
h -10597 12196 12192 12193 12194 12195 0
h 10597 -12196 0
h 10597 -12192 0
h 10597 -12193 0
h 10597 -12194 0
h 10597 -12195 0
h 12197 -12080 -12095 0
h -12197 12080 0
h -12197 12095 0
h 12198 -12078 -12095 0
h -12198 12078 0
h -12198 12095 0
h 12199 -12078 -12097 0
h -12199 12078 0
h -12199 12097 0
h 12200 -12080 -12097 -1221 0
h -12200 12080 0
h -12200 12097 0
h -12200 1221 0
h -10600 12201 12197 12198 12199 12200 0
h 10600 -12201 0
h 10600 -12197 0
h 10600 -12198 0
h 10600 -12199 0
h 10600 -12200 0
h 12202 -12075 -1220 0
h -12202 12075 0
h -12202 1220 0
h 12203 -1218 -1220 0
h -12203 1218 0
h -12203 1220 0
h 12204 -1218 -12109 0
h -12204 1218 0
h -12204 12109 0
h 12205 -12075 -12109 -1221 0
h -12205 12075 0
h -12205 12109 0
h -12205 1221 0
h -10635 1213 12202 12203 12204 12205 0
h 10635 -1213 0
h 10635 -12202 0
h 10635 -12203 0
h 10635 -12204 0
h 10635 -12205 0
h 12206 -12075 -12112 0
h -12206 12075 0
h -12206 12112 0
h 12207 -1218 -12114 0
h -12207 1218 0
h -12207 12114 0
h 12208 -1218 -12112 0
h -12208 1218 0
h -12208 12112 0
h 12209 -12075 -12114 -1221 0
h -12209 12075 0
h -12209 12114 0
h -12209 1221 0
h -10637 12210 12206 12207 12208 12209 0
h 10637 -12210 0
h 10637 -12206 0
h 10637 -12207 0
h 10637 -12208 0
h 10637 -12209 0
h 12211 -12080 -12112 0
h -12211 12080 0
h -12211 12112 0
h 12212 -12078 -12112 0
h -12212 12078 0
h -12212 12112 0
h 12213 -12078 -12114 0
h -12213 12078 0
h -12213 12114 0
h 12214 -12080 -12114 -1221 0
h -12214 12080 0
h -12214 12114 0
h -12214 1221 0
h -10639 12215 12211 12212 12213 12214 0
h 10639 -12215 0
h 10639 -12211 0
h 10639 -12212 0
h 10639 -12213 0
h 10639 -12214 0
h 12216 -12092 -12068 0
h -12216 12092 0
h -12216 12068 0
h 12217 -1219 -12066 0
h -12217 1219 0
h -12217 12066 0
h 12218 -1219 -12068 0
h -12218 1219 0
h -12218 12068 0
h 12219 -12092 -12066 -1221 0
h -12219 12092 0
h -12219 12066 0
h -12219 1221 0
h -10753 12220 12216 12217 12218 12219 0
h 10753 -12220 0
h 10753 -12216 0
h 10753 -12217 0
h 10753 -12218 0
h 10753 -12219 0
h 12221 -12092 -12059 0
h -12221 12092 0
h -12221 12059 0
h 12222 -1219 -12061 0
h -12222 1219 0
h -12222 12061 0
h 12223 -1219 -12059 0
h -12223 1219 0
h -12223 12059 0
h 12224 -12092 -12061 -1221 0
h -12224 12092 0
h -12224 12061 0
h -12224 1221 0
h -10758 12225 12221 12222 12223 12224 0
h 10758 -12225 0
h 10758 -12221 0
h 10758 -12222 0
h 10758 -12223 0
h 10758 -12224 0
h 12226 -12092 -12078 0
h -12226 12092 0
h -12226 12078 0
h 12227 -1219 -12080 0
h -12227 1219 0
h -12227 12080 0
h 12228 -1219 -12078 0
h -12228 1219 0
h -12228 12078 0
h 12229 -12092 -12080 -1221 0
h -12229 12092 0
h -12229 12080 0
h -12229 1221 0
h -10763 12230 12226 12227 12228 12229 0
h 10763 -12230 0
h 10763 -12226 0
h 10763 -12227 0
h 10763 -12228 0
h 10763 -12229 0
h 12231 -12092 -1219 0
h -12231 12092 0
h -12231 1219 0
h 12232 -1219 -1219 0
h -12232 1219 0
h -12232 1219 0
h 12233 -1219 -12092 0
h -12233 1219 0
h -12233 12092 0
h 12234 -12092 -12092 -1221 0
h -12234 12092 0
h -12234 12092 0
h -12234 1221 0
h -10768 1210 12231 12232 12233 12234 0
h 10768 -1210 0
h 10768 -12231 0
h 10768 -12232 0
h 10768 -12233 0
h 10768 -12234 0
h 12235 -12092 -1220 0
h -12235 12092 0
h -12235 1220 0
h 12236 -1219 -1220 0
h -12236 1219 0
h -12236 1220 0
h 12237 -1219 -12109 0
h -12237 1219 0
h -12237 12109 0
h 12238 -12092 -12109 -1221 0
h -12238 12092 0
h -12238 12109 0
h -12238 1221 0
h -10677 1214 12235 12236 12237 12238 0
h 10677 -1214 0
h 10677 -12235 0
h 10677 -12236 0
h 10677 -12237 0
h 10677 -12238 0
h 12239 -12092 -12112 0
h -12239 12092 0
h -12239 12112 0
h 12240 -1219 -12114 0
h -12240 1219 0
h -12240 12114 0
h 12241 -1219 -12112 0
h -12241 1219 0
h -12241 12112 0
h 12242 -12092 -12114 -1221 0
h -12242 12092 0
h -12242 12114 0
h -12242 1221 0
h -10680 12243 12239 12240 12241 12242 0
h 10680 -12243 0
h 10680 -12239 0
h 10680 -12240 0
h 10680 -12241 0
h 10680 -12242 0
h 12244 -12097 -12112 0
h -12244 12097 0
h -12244 12112 0
h 12245 -12095 -12112 0
h -12245 12095 0
h -12245 12112 0
h 12246 -12095 -12114 0
h -12246 12095 0
h -12246 12114 0
h 12247 -12097 -12114 -1221 0
h -12247 12097 0
h -12247 12114 0
h -12247 1221 0
h -10608 12248 12244 12245 12246 12247 0
h 10608 -12248 0
h 10608 -12244 0
h 10608 -12245 0
h 10608 -12246 0
h 10608 -12247 0
h 12249 -12109 -12068 0
h -12249 12109 0
h -12249 12068 0
h 12250 -1220 -12066 0
h -12250 1220 0
h -12250 12066 0
h 12251 -1220 -12068 0
h -12251 1220 0
h -12251 12068 0
h 12252 -12109 -12066 -1221 0
h -12252 12109 0
h -12252 12066 0
h -12252 1221 0
h -10641 12253 12249 12250 12251 12252 0
h 10641 -12253 0
h 10641 -12249 0
h 10641 -12250 0
h 10641 -12251 0
h 10641 -12252 0
h 12254 -12109 -12059 0
h -12254 12109 0
h -12254 12059 0
h 12255 -1220 -12061 0
h -12255 1220 0
h -12255 12061 0
h 12256 -1220 -12059 0
h -12256 1220 0
h -12256 12059 0
h 12257 -12109 -12061 -1221 0
h -12257 12109 0
h -12257 12061 0
h -12257 1221 0
h -10643 12258 12254 12255 12256 12257 0
h 10643 -12258 0
h 10643 -12254 0
h 10643 -12255 0
h 10643 -12256 0
h 10643 -12257 0
h 12259 -12109 -12078 0
h -12259 12109 0
h -12259 12078 0
h 12260 -1220 -12080 0
h -12260 1220 0
h -12260 12080 0
h 12261 -1220 -12078 0
h -12261 1220 0
h -12261 12078 0
h 12262 -12109 -12080 -1221 0
h -12262 12109 0
h -12262 12080 0
h -12262 1221 0
h -10645 12263 12259 12260 12261 12262 0
h 10645 -12263 0
h 10645 -12259 0
h 10645 -12260 0
h 10645 -12261 0
h 10645 -12262 0
h 12264 -12109 -12095 0
h -12264 12109 0
h -12264 12095 0
h 12265 -1220 -12097 0
h -12265 1220 0
h -12265 12097 0
h 12266 -1220 -12095 0
h -12266 1220 0
h -12266 12095 0
h 12267 -12109 -12097 -1221 0
h -12267 12109 0
h -12267 12097 0
h -12267 1221 0
h -10605 12268 12264 12265 12266 12267 0
h 10605 -12268 0
h 10605 -12264 0
h 10605 -12265 0
h 10605 -12266 0
h 10605 -12267 0
h 12269 -12109 -1220 0
h -12269 12109 0
h -12269 1220 0
h 12270 -1220 -1220 0
h -12270 1220 0
h -12270 1220 0
h 12271 -1220 -12109 0
h -12271 1220 0
h -12271 12109 0
h 12272 -12109 -12109 -1221 0
h -12272 12109 0
h -12272 12109 0
h -12272 1221 0
h -10647 1215 12269 12270 12271 12272 0
h 10647 -1215 0
h 10647 -12269 0
h 10647 -12270 0
h 10647 -12271 0
h 10647 -12272 0
h 12273 -12117 -12117 0
h -12273 12117 0
h -12273 12117 0
h -10486 1201 12273 0
h 10486 -1201 0
h 10486 -12273 0
h 12274 -12117 -12168 0
h -12274 12117 0
h -12274 12168 0
h -10489 1202 12274 0
h 10489 -1202 0
h 10489 -12274 0
h 12275 -12117 -12173 0
h -12275 12117 0
h -12275 12173 0
h -10492 12064 12275 0
h 10492 -12064 0
h 10492 -12275 0
h 12276 -12122 -12173 0
h -12276 12122 0
h -12276 12173 0
h -10495 12071 12276 0
h 10495 -12071 0
h 10495 -12276 0
h 12277 -12117 -12210 0
h -12277 12117 0
h -12277 12210 0
h -10498 1204 12277 0
h 10498 -1204 0
h 10498 -12277 0
h 12278 -12117 -12215 0
h -12278 12117 0
h -12278 12215 0
h -10501 12083 12278 0
h 10501 -12083 0
h 10501 -12278 0
h 12279 -12122 -12215 0
h -12279 12122 0
h -12279 12215 0
h -10503 12088 12279 0
h 10503 -12088 0
h 10503 -12279 0
h 12280 -12117 -12243 0
h -12280 12117 0
h -12280 12243 0
h -11545 1207 12280 0
h 11545 -1207 0
h 11545 -12280 0
h 12281 -12117 -12248 0
h -12281 12117 0
h -12281 12248 0
h -10485 12100 12281 0
h 10485 -12100 0
h 10485 -12281 0
h 12282 -12122 -12248 0
h -12282 12122 0
h -12282 12248 0
h -10494 12105 12282 0
h 10494 -12105 0
h 10494 -12282 0
h 12283 -12117 -12112 0
h -12283 12117 0
h -12283 12112 0
h -10506 1216 12283 0
h 10506 -1216 0
h 10506 -12283 0
h 12284 -12117 -12114 0
h -12284 12117 0
h -12284 12114 0
h -10509 12049 12284 0
h 10509 -12049 0
h 10509 -12284 0
h 12285 -12122 -12114 0
h -12285 12122 0
h -12285 12114 0
h -10511 12066 12285 0
h 10511 -12066 0
h 10511 -12285 0
h 12286 -12168 -12122 0
h -12286 12168 0
h -12286 12122 0
h -10513 12127 12286 0
h 10513 -12127 0
h 10513 -12286 0
h 12287 -12168 -12168 0
h -12287 12168 0
h -12287 12168 0
h -10515 1203 12287 0
h 10515 -1203 0
h 10515 -12287 0
h 12288 -12168 -12210 0
h -12288 12168 0
h -12288 12210 0
h -10517 1205 12288 0
h 10517 -1205 0
h 10517 -12288 0
h 12289 -12168 -12215 0
h -12289 12168 0
h -12289 12215 0
h -10519 12140 12289 0
h 10519 -12140 0
h 10519 -12289 0
h 12290 -12173 -12215 0
h -12290 12173 0
h -12290 12215 0
h -10521 12145 12290 0
h 10521 -12145 0
h 10521 -12290 0
h 12291 -12168 -12243 0
h -12291 12168 0
h -12291 12243 0
h -11554 1208 12291 0
h 11554 -1208 0
h 11554 -12291 0
h 12292 -12168 -12248 0
h -12292 12168 0
h -12292 12248 0
h -10488 12154 12292 0
h 10488 -12154 0
h 10488 -12292 0
h 12293 -12173 -12248 0
h -12293 12173 0
h -12293 12248 0
h -10491 12159 12293 0
h 10491 -12159 0
h 10491 -12293 0
h 12294 -12168 -12112 0
h -12294 12168 0
h -12294 12112 0
h -10523 1217 12294 0
h 10523 -1217 0
h 10523 -12294 0
h 12295 -12168 -12114 0
h -12295 12168 0
h -12295 12114 0
h -10525 12056 12295 0
h 10525 -12056 0
h 10525 -12295 0
h 12296 -12173 -12114 0
h -12296 12173 0
h -12296 12114 0
h -10527 12061 12296 0
h 10527 -12061 0
h 10527 -12296 0
h 12297 -12210 -12122 0
h -12297 12210 0
h -12297 12122 0
h -10529 12178 12297 0
h 10529 -12178 0
h 10529 -12297 0
h 12298 -12210 -12173 0
h -12298 12210 0
h -12298 12173 0
h -10531 12183 12298 0
h 10531 -12183 0
h 10531 -12298 0
h 12299 -12210 -12210 0
h -12299 12210 0
h -12299 12210 0
h -10533 1206 12299 0
h 10533 -1206 0
h 10533 -12299 0
h 12300 -12210 -12243 0
h -12300 12210 0
h -12300 12243 0
h -11730 1209 12300 0
h 11730 -1209 0
h 11730 -12300 0
h 12301 -12210 -12248 0
h -12301 12210 0
h -12301 12248 0
h -10497 12196 12301 0
h 10497 -12196 0
h 10497 -12301 0
h 12302 -12215 -12248 0
h -12302 12215 0
h -12302 12248 0
h -10500 12201 12302 0
h 10500 -12201 0
h 10500 -12302 0
h 12303 -12210 -12112 0
h -12303 12210 0
h -12303 12112 0
h -10535 1218 12303 0
h 10535 -1218 0
h 10535 -12303 0
h 12304 -12210 -12114 0
h -12304 12210 0
h -12304 12114 0
h -10537 12075 12304 0
h 10537 -12075 0
h 10537 -12304 0
h 12305 -12215 -12114 0
h -12305 12215 0
h -12305 12114 0
h -10539 12080 12305 0
h 10539 -12080 0
h 10539 -12305 0
h 12306 -12243 -12122 0
h -12306 12243 0
h -12306 12122 0
h -11561 12220 12306 0
h 11561 -12220 0
h 11561 -12306 0
h 12307 -12243 -12173 0
h -12307 12243 0
h -12307 12173 0
h -11563 12225 12307 0
h 11563 -12225 0
h 11563 -12307 0
h 12308 -12243 -12215 0
h -12308 12243 0
h -12308 12215 0
h -11544 12230 12308 0
h 11544 -12230 0
h 11544 -12308 0
h 12309 -12243 -12243 0
h -12309 12243 0
h -12309 12243 0
h -11565 1210 12309 0
h 11565 -1210 0
h 11565 -12309 0
h 12310 -12243 -12112 0
h -12310 12243 0
h -12310 12112 0
h -11567 1219 12310 0
h 11567 -1219 0
h 11567 -12310 0
h 12311 -12243 -12114 0
h -12311 12243 0
h -12311 12114 0
h -11569 12092 12311 0
h 11569 -12092 0
h 11569 -12311 0
h 12312 -12248 -12114 0
h -12312 12248 0
h -12312 12114 0
h -10508 12097 12312 0
h 10508 -12097 0
h 10508 -12312 0
h 12313 -12112 -12122 0
h -12313 12112 0
h -12313 12122 0
h -10541 12068 12313 0
h 10541 -12068 0
h 10541 -12313 0
h 12314 -12112 -12173 0
h -12314 12112 0
h -12314 12173 0
h -10543 12059 12314 0
h 10543 -12059 0
h 10543 -12314 0
h 12315 -12112 -12215 0
h -12315 12112 0
h -12315 12215 0
h -10545 12078 12315 0
h 10545 -12078 0
h 10545 -12315 0
h 12316 -12112 -12248 0
h -12316 12112 0
h -12316 12248 0
h -10505 12095 12316 0
h 10505 -12095 0
h 10505 -12316 0
h 12317 -12112 -12112 0
h -12317 12112 0
h -12317 12112 0
h -10547 1221 12317 0
h 10547 -1221 0
h 10547 -12317 0
h 12318 -12100 -1207 0
h -12318 12100 0
h -12318 1207 0
h 12319 -1207 -1207 0
h -12319 1207 0
h -12319 1207 0
h 12320 -1207 -12100 0
h -12320 1207 0
h -12320 12100 0
h 12321 -12100 -12100 -1210 0
h -12321 12100 0
h -12321 12100 0
h -12321 1210 0
h -10334 1201 12318 12319 12320 12321 0
h 10334 -1201 0
h 10334 -12318 0
h 10334 -12319 0
h 10334 -12320 0
h 10334 -12321 0
h 12322 -12100 -1208 0
h -12322 12100 0
h -12322 1208 0
h 12323 -1207 -1208 0
h -12323 1207 0
h -12323 1208 0
h 12324 -1207 -12154 0
h -12324 1207 0
h -12324 12154 0
h 12325 -12100 -12154 -1210 0
h -12325 12100 0
h -12325 12154 0
h -12325 1210 0
h -10341 1202 12322 12323 12324 12325 0
h 10341 -1202 0
h 10341 -12322 0
h 10341 -12323 0
h 10341 -12324 0
h 10341 -12325 0
h 12326 -12100 -12225 0
h -12326 12100 0
h -12326 12225 0
h 12327 -1207 -12159 0
h -12327 1207 0
h -12327 12159 0
h 12328 -1207 -12225 0
h -12328 1207 0
h -12328 12225 0
h 12329 -12100 -12159 -1210 0
h -12329 12100 0
h -12329 12159 0
h -12329 1210 0
h -10348 12064 12326 12327 12328 12329 0
h 10348 -12064 0
h 10348 -12326 0
h 10348 -12327 0
h 10348 -12328 0
h 10348 -12329 0
h 12330 -12105 -12225 0
h -12330 12105 0
h -12330 12225 0
h 12331 -12220 -12225 0
h -12331 12220 0
h -12331 12225 0
h 12332 -12220 -12159 0
h -12332 12220 0
h -12332 12159 0
h 12333 -12105 -12159 -1210 0
h -12333 12105 0
h -12333 12159 0
h -12333 1210 0
h -10355 12071 12330 12331 12332 12333 0
h 10355 -12071 0
h 10355 -12330 0
h 10355 -12331 0
h 10355 -12332 0
h 10355 -12333 0
h 12334 -12100 -1209 0
h -12334 12100 0
h -12334 1209 0
h 12335 -1207 -1209 0
h -12335 1207 0
h -12335 1209 0
h 12336 -1207 -12196 0
h -12336 1207 0
h -12336 12196 0
h 12337 -12100 -12196 -1210 0
h -12337 12100 0
h -12337 12196 0
h -12337 1210 0
h -10329 1204 12334 12335 12336 12337 0
h 10329 -1204 0
h 10329 -12334 0
h 10329 -12335 0
h 10329 -12336 0
h 10329 -12337 0
h 12338 -12100 -12230 0
h -12338 12100 0
h -12338 12230 0
h 12339 -1207 -12201 0
h -12339 1207 0
h -12339 12201 0
h 12340 -1207 -12230 0
h -12340 1207 0
h -12340 12230 0
h 12341 -12100 -12201 -1210 0
h -12341 12100 0
h -12341 12201 0
h -12341 1210 0
h -10328 12083 12338 12339 12340 12341 0
h 10328 -12083 0
h 10328 -12338 0
h 10328 -12339 0
h 10328 -12340 0
h 10328 -12341 0
h 12342 -12105 -12230 0
h -12342 12105 0
h -12342 12230 0
h 12343 -12220 -12230 0
h -12343 12220 0
h -12343 12230 0
h 12344 -12220 -12201 0
h -12344 12220 0
h -12344 12201 0
h 12345 -12105 -12201 -1210 0
h -12345 12105 0
h -12345 12201 0
h -12345 1210 0
h -10350 12088 12342 12343 12344 12345 0
h 10350 -12088 0
h 10350 -12342 0
h 10350 -12343 0
h 10350 -12344 0
h 10350 -12345 0
h 12346 -12100 -1214 0
h -12346 12100 0
h -12346 1214 0
h 12347 -1207 -1214 0
h -12347 1207 0
h -12347 1214 0
h 12348 -1207 -12268 0
h -12348 1207 0
h -12348 12268 0
h 12349 -12100 -12268 -1210 0
h -12349 12100 0
h -12349 12268 0
h -12349 1210 0
h -10362 1211 12346 12347 12348 12349 0
h 10362 -1211 0
h 10362 -12346 0
h 10362 -12347 0
h 10362 -12348 0
h 10362 -12349 0
h 12350 -12100 -12243 0
h -12350 12100 0
h -12350 12243 0
h 12351 -1207 -12248 0
h -12351 1207 0
h -12351 12248 0
h 12352 -1207 -12243 0
h -12352 1207 0
h -12352 12243 0
h 12353 -12100 -12248 -1210 0
h -12353 12100 0
h -12353 12248 0
h -12353 1210 0
h -10369 12117 12350 12351 12352 12353 0
h 10369 -12117 0
h 10369 -12350 0
h 10369 -12351 0
h 10369 -12352 0
h 10369 -12353 0
h 12354 -12105 -12243 0
h -12354 12105 0
h -12354 12243 0
h 12355 -12220 -12243 0
h -12355 12220 0
h -12355 12243 0
h 12356 -12220 -12248 0
h -12356 12220 0
h -12356 12248 0
h 12357 -12105 -12248 -1210 0
h -12357 12105 0
h -12357 12248 0
h -12357 1210 0
h -10374 12122 12354 12355 12356 12357 0
h 10374 -12122 0
h 10374 -12354 0
h 10374 -12355 0
h 10374 -12356 0
h 10374 -12357 0
h 12358 -12100 -1219 0
h -12358 12100 0
h -12358 1219 0
h 12359 -1207 -1219 0
h -12359 1207 0
h -12359 1219 0
h 12360 -1207 -12095 0
h -12360 1207 0
h -12360 12095 0
h 12361 -12100 -12095 -1210 0
h -12361 12100 0
h -12361 12095 0
h -12361 1210 0
h -10381 1216 12358 12359 12360 12361 0
h 10381 -1216 0
h 10381 -12358 0
h 10381 -12359 0
h 10381 -12360 0
h 10381 -12361 0
h 12362 -12100 -12092 0
h -12362 12100 0
h -12362 12092 0
h 12363 -1207 -12097 0
h -12363 1207 0
h -12363 12097 0
h 12364 -1207 -12092 0
h -12364 1207 0
h -12364 12092 0
h 12365 -12100 -12097 -1210 0
h -12365 12100 0
h -12365 12097 0
h -12365 1210 0
h -10388 12049 12362 12363 12364 12365 0
h 10388 -12049 0
h 10388 -12362 0
h 10388 -12363 0
h 10388 -12364 0
h 10388 -12365 0
h 12366 -12105 -12092 0
h -12366 12105 0
h -12366 12092 0
h 12367 -12220 -12092 0
h -12367 12220 0
h -12367 12092 0
h 12368 -12220 -12097 0
h -12368 12220 0
h -12368 12097 0
h 12369 -12105 -12097 -1210 0
h -12369 12105 0
h -12369 12097 0
h -12369 1210 0
h -10393 12066 12366 12367 12368 12369 0
h 10393 -12066 0
h 10393 -12366 0
h 10393 -12367 0
h 10393 -12368 0
h 10393 -12369 0
h 12370 -12154 -12220 0
h -12370 12154 0
h -12370 12220 0
h 12371 -1208 -12105 0
h -12371 1208 0
h -12371 12105 0
h 12372 -1208 -12220 0
h -12372 1208 0
h -12372 12220 0
h 12373 -12154 -12105 -1210 0
h -12373 12154 0
h -12373 12105 0
h -12373 1210 0
h -10398 12127 12370 12371 12372 12373 0
h 10398 -12127 0
h 10398 -12370 0
h 10398 -12371 0
h 10398 -12372 0
h 10398 -12373 0
h 12374 -12154 -1208 0
h -12374 12154 0
h -12374 1208 0
h 12375 -1208 -1208 0
h -12375 1208 0
h -12375 1208 0
h 12376 -1208 -12154 0
h -12376 1208 0
h -12376 12154 0
h 12377 -12154 -12154 -1210 0
h -12377 12154 0
h -12377 12154 0
h -12377 1210 0
h -10403 1203 12374 12375 12376 12377 0
h 10403 -1203 0
h 10403 -12374 0
h 10403 -12375 0
h 10403 -12376 0
h 10403 -12377 0
h 12378 -12154 -1209 0
h -12378 12154 0
h -12378 1209 0
h 12379 -1208 -1209 0
h -12379 1208 0
h -12379 1209 0
h 12380 -1208 -12196 0
h -12380 1208 0
h -12380 12196 0
h 12381 -12154 -12196 -1210 0
h -12381 12154 0
h -12381 12196 0
h -12381 1210 0
h -10336 1205 12378 12379 12380 12381 0
h 10336 -1205 0
h 10336 -12378 0
h 10336 -12379 0
h 10336 -12380 0
h 10336 -12381 0
h 12382 -12154 -12230 0
h -12382 12154 0
h -12382 12230 0
h 12383 -1208 -12201 0
h -12383 1208 0
h -12383 12201 0
h 12384 -1208 -12230 0
h -12384 1208 0
h -12384 12230 0
h 12385 -12154 -12201 -1210 0
h -12385 12154 0
h -12385 12201 0
h -12385 1210 0
h -10339 12140 12382 12383 12384 12385 0
h 10339 -12140 0
h 10339 -12382 0
h 10339 -12383 0
h 10339 -12384 0
h 10339 -12385 0
h 12386 -12159 -12230 0
h -12386 12159 0
h -12386 12230 0
h 12387 -12225 -12230 0
h -12387 12225 0
h -12387 12230 0
h 12388 -12225 -12201 0
h -12388 12225 0
h -12388 12201 0
h 12389 -12159 -12201 -1210 0
h -12389 12159 0
h -12389 12201 0
h -12389 1210 0
h -10345 12145 12386 12387 12388 12389 0
h 10345 -12145 0
h 10345 -12386 0
h 10345 -12387 0
h 10345 -12388 0
h 10345 -12389 0
h 12390 -12154 -1214 0
h -12390 12154 0
h -12390 1214 0
h 12391 -1208 -1214 0
h -12391 1208 0
h -12391 1214 0
h 12392 -1208 -12268 0
h -12392 1208 0
h -12392 12268 0
h 12393 -12154 -12268 -1210 0
h -12393 12154 0
h -12393 12268 0
h -12393 1210 0
h -10408 1212 12390 12391 12392 12393 0
h 10408 -1212 0
h 10408 -12390 0
h 10408 -12391 0
h 10408 -12392 0
h 10408 -12393 0
h 12394 -12154 -12243 0
h -12394 12154 0
h -12394 12243 0
h 12395 -1208 -12248 0
h -12395 1208 0
h -12395 12248 0
h 12396 -1208 -12243 0
h -12396 1208 0
h -12396 12243 0
h 12397 -12154 -12248 -1210 0
h -12397 12154 0
h -12397 12248 0
h -12397 1210 0
h -10413 12168 12394 12395 12396 12397 0
h 10413 -12168 0
h 10413 -12394 0
h 10413 -12395 0
h 10413 -12396 0
h 10413 -12397 0
h 12398 -12159 -12243 0
h -12398 12159 0
h -12398 12243 0
h 12399 -12225 -12243 0
h -12399 12225 0
h -12399 12243 0
h 12400 -12225 -12248 0
h -12400 12225 0
h -12400 12248 0
h 12401 -12159 -12248 -1210 0
h -12401 12159 0
h -12401 12248 0
h -12401 1210 0
h -10418 12173 12398 12399 12400 12401 0
h 10418 -12173 0
h 10418 -12398 0
h 10418 -12399 0
h 10418 -12400 0
h 10418 -12401 0
h 12402 -12154 -1219 0
h -12402 12154 0
h -12402 1219 0
h 12403 -1208 -1219 0
h -12403 1208 0
h -12403 1219 0
h 12404 -1208 -12095 0
h -12404 1208 0
h -12404 12095 0
h 12405 -12154 -12095 -1210 0
h -12405 12154 0
h -12405 12095 0
h -12405 1210 0
h -10423 1217 12402 12403 12404 12405 0
h 10423 -1217 0
h 10423 -12402 0
h 10423 -12403 0
h 10423 -12404 0
h 10423 -12405 0
h 12406 -12154 -12092 0
h -12406 12154 0
h -12406 12092 0
h 12407 -1208 -12097 0
h -12407 1208 0
h -12407 12097 0
h 12408 -1208 -12092 0
h -12408 1208 0
h -12408 12092 0
h 12409 -12154 -12097 -1210 0
h -12409 12154 0
h -12409 12097 0
h -12409 1210 0
h -10428 12056 12406 12407 12408 12409 0
h 10428 -12056 0
h 10428 -12406 0
h 10428 -12407 0
h 10428 -12408 0
h 10428 -12409 0
h 12410 -12159 -12092 0
h -12410 12159 0
h -12410 12092 0
h 12411 -12225 -12092 0
h -12411 12225 0
h -12411 12092 0
h 12412 -12225 -12097 0
h -12412 12225 0
h -12412 12097 0
h 12413 -12159 -12097 -1210 0
h -12413 12159 0
h -12413 12097 0
h -12413 1210 0
h -10433 12061 12410 12411 12412 12413 0
h 10433 -12061 0
h 10433 -12410 0
h 10433 -12411 0
h 10433 -12412 0
h 10433 -12413 0
h 12414 -12196 -12220 0
h -12414 12196 0
h -12414 12220 0
h 12415 -1209 -12105 0
h -12415 1209 0
h -12415 12105 0
h 12416 -1209 -12220 0
h -12416 1209 0
h -12416 12220 0
h 12417 -12196 -12105 -1210 0
h -12417 12196 0
h -12417 12105 0
h -12417 1210 0
h -10352 12178 12414 12415 12416 12417 0
h 10352 -12178 0
h 10352 -12414 0
h 10352 -12415 0
h 10352 -12416 0
h 10352 -12417 0
h 12418 -12196 -12225 0
h -12418 12196 0
h -12418 12225 0
h 12419 -1209 -12159 0
h -12419 1209 0
h -12419 12159 0
h 12420 -1209 -12225 0
h -12420 1209 0
h -12420 12225 0
h 12421 -12196 -12159 -1210 0
h -12421 12196 0
h -12421 12159 0
h -12421 1210 0
h -10343 12183 12418 12419 12420 12421 0
h 10343 -12183 0
h 10343 -12418 0
h 10343 -12419 0
h 10343 -12420 0
h 10343 -12421 0
h 12422 -12196 -1209 0
h -12422 12196 0
h -12422 1209 0
h 12423 -1209 -1209 0
h -12423 1209 0
h -12423 1209 0
h 12424 -1209 -12196 0
h -12424 1209 0
h -12424 12196 0
h 12425 -12196 -12196 -1210 0
h -12425 12196 0
h -12425 12196 0
h -12425 1210 0
h -10333 1206 12422 12423 12424 12425 0
h 10333 -1206 0
h 10333 -12422 0
h 10333 -12423 0
h 10333 -12424 0
h 10333 -12425 0
h 12426 -12196 -1214 0
h -12426 12196 0
h -12426 1214 0
h 12427 -1209 -1214 0
h -12427 1209 0
h -12427 1214 0
h 12428 -1209 -12268 0
h -12428 1209 0
h -12428 12268 0
h 12429 -12196 -12268 -1210 0
h -12429 12196 0
h -12429 12268 0
h -12429 1210 0
h -10357 1213 12426 12427 12428 12429 0
h 10357 -1213 0
h 10357 -12426 0
h 10357 -12427 0
h 10357 -12428 0
h 10357 -12429 0
h 12430 -12196 -12243 0
h -12430 12196 0
h -12430 12243 0
h 12431 -1209 -12248 0
h -12431 1209 0
h -12431 12248 0
h 12432 -1209 -12243 0
h -12432 1209 0
h -12432 12243 0
h 12433 -12196 -12248 -1210 0
h -12433 12196 0
h -12433 12248 0
h -12433 1210 0
h -10364 12210 12430 12431 12432 12433 0
h 10364 -12210 0
h 10364 -12430 0
h 10364 -12431 0
h 10364 -12432 0
h 10364 -12433 0
h 12434 -12201 -12243 0
h -12434 12201 0
h -12434 12243 0
h 12435 -12230 -12243 0
h -12435 12230 0
h -12435 12243 0
h 12436 -12230 -12248 0
h -12436 12230 0
h -12436 12248 0
h 12437 -12201 -12248 -1210 0
h -12437 12201 0
h -12437 12248 0
h -12437 1210 0
h -10366 12215 12434 12435 12436 12437 0
h 10366 -12215 0
h 10366 -12434 0
h 10366 -12435 0
h 10366 -12436 0
h 10366 -12437 0
h 12438 -12196 -1219 0
h -12438 12196 0
h -12438 1219 0
h 12439 -1209 -1219 0
h -12439 1209 0
h -12439 1219 0
h 12440 -1209 -12095 0
h -12440 1209 0
h -12440 12095 0
h 12441 -12196 -12095 -1210 0
h -12441 12196 0
h -12441 12095 0
h -12441 1210 0
h -10376 1218 12438 12439 12440 12441 0
h 10376 -1218 0
h 10376 -12438 0
h 10376 -12439 0
h 10376 -12440 0
h 10376 -12441 0
h 12442 -12196 -12092 0
h -12442 12196 0
h -12442 12092 0
h 12443 -1209 -12097 0
h -12443 1209 0
h -12443 12097 0
h 12444 -1209 -12092 0
h -12444 1209 0
h -12444 12092 0
h 12445 -12196 -12097 -1210 0
h -12445 12196 0
h -12445 12097 0
h -12445 1210 0
h -10383 12075 12442 12443 12444 12445 0
h 10383 -12075 0
h 10383 -12442 0
h 10383 -12443 0
h 10383 -12444 0
h 10383 -12445 0
h 12446 -12201 -12092 0
h -12446 12201 0
h -12446 12092 0
h 12447 -12230 -12092 0
h -12447 12230 0
h -12447 12092 0
h 12448 -12230 -12097 0
h -12448 12230 0
h -12448 12097 0
h 12449 -12201 -12097 -1210 0
h -12449 12201 0
h -12449 12097 0
h -12449 1210 0
h -10385 12080 12446 12447 12448 12449 0
h 10385 -12080 0
h 10385 -12446 0
h 10385 -12447 0
h 10385 -12448 0
h 10385 -12449 0
h 12450 -12268 -12220 0
h -12450 12268 0
h -12450 12220 0
h 12451 -1214 -12105 0
h -12451 1214 0
h -12451 12105 0
h 12452 -1214 -12220 0
h -12452 1214 0
h -12452 12220 0
h 12453 -12268 -12105 -1210 0
h -12453 12268 0
h -12453 12105 0
h -12453 1210 0
h -10438 12253 12450 12451 12452 12453 0
h 10438 -12253 0
h 10438 -12450 0
h 10438 -12451 0
h 10438 -12452 0
h 10438 -12453 0
h 12454 -12268 -12225 0
h -12454 12268 0
h -12454 12225 0
h 12455 -1214 -12159 0
h -12455 1214 0
h -12455 12159 0
h 12456 -1214 -12225 0
h -12456 1214 0
h -12456 12225 0
h 12457 -12268 -12159 -1210 0
h -12457 12268 0
h -12457 12159 0
h -12457 1210 0
h -10443 12258 12454 12455 12456 12457 0
h 10443 -12258 0
h 10443 -12454 0
h 10443 -12455 0
h 10443 -12456 0
h 10443 -12457 0
h 12458 -12268 -12230 0
h -12458 12268 0
h -12458 12230 0
h 12459 -1214 -12201 0
h -12459 1214 0
h -12459 12201 0
h 12460 -1214 -12230 0
h -12460 1214 0
h -12460 12230 0
h 12461 -12268 -12201 -1210 0
h -12461 12268 0
h -12461 12201 0
h -12461 1210 0
h -10360 12263 12458 12459 12460 12461 0
h 10360 -12263 0
h 10360 -12458 0
h 10360 -12459 0
h 10360 -12460 0
h 10360 -12461 0
h 12462 -12268 -1214 0
h -12462 12268 0
h -12462 1214 0
h 12463 -1214 -1214 0
h -12463 1214 0
h -12463 1214 0
h 12464 -1214 -12268 0
h -12464 1214 0
h -12464 12268 0
h 12465 -12268 -12268 -1210 0
h -12465 12268 0
h -12465 12268 0
h -12465 1210 0
h -10448 1215 12462 12463 12464 12465 0
h 10448 -1215 0
h 10448 -12462 0
h 10448 -12463 0
h 10448 -12464 0
h 10448 -12465 0
h 12466 -12268 -1219 0
h -12466 12268 0
h -12466 1219 0
h 12467 -1214 -1219 0
h -12467 1214 0
h -12467 1219 0
h 12468 -1214 -12095 0
h -12468 1214 0
h -12468 12095 0
h 12469 -12268 -12095 -1210 0
h -12469 12268 0
h -12469 12095 0
h -12469 1210 0
h -10453 1220 12466 12467 12468 12469 0
h 10453 -1220 0
h 10453 -12466 0
h 10453 -12467 0
h 10453 -12468 0
h 10453 -12469 0
h 12470 -12268 -12092 0
h -12470 12268 0
h -12470 12092 0
h 12471 -1214 -12097 0
h -12471 1214 0
h -12471 12097 0
h 12472 -1214 -12092 0
h -12472 1214 0
h -12472 12092 0
h 12473 -12268 -12097 -1210 0
h -12473 12268 0
h -12473 12097 0
h -12473 1210 0
h -10458 12109 12470 12471 12472 12473 0
h 10458 -12109 0
h 10458 -12470 0
h 10458 -12471 0
h 10458 -12472 0
h 10458 -12473 0
h 12474 -12248 -12092 0
h -12474 12248 0
h -12474 12092 0
h 12475 -12243 -12092 0
h -12475 12243 0
h -12475 12092 0
h 12476 -12243 -12097 0
h -12476 12243 0
h -12476 12097 0
h 12477 -12248 -12097 -1210 0
h -12477 12248 0
h -12477 12097 0
h -12477 1210 0
h -10463 12114 12474 12475 12476 12477 0
h 10463 -12114 0
h 10463 -12474 0
h 10463 -12475 0
h 10463 -12476 0
h 10463 -12477 0
h 12478 -12095 -12220 0
h -12478 12095 0
h -12478 12220 0
h 12479 -1219 -12105 0
h -12479 1219 0
h -12479 12105 0
h 12480 -1219 -12220 0
h -12480 1219 0
h -12480 12220 0
h 12481 -12095 -12105 -1210 0
h -12481 12095 0
h -12481 12105 0
h -12481 1210 0
h -10468 12068 12478 12479 12480 12481 0
h 10468 -12068 0
h 10468 -12478 0
h 10468 -12479 0
h 10468 -12480 0
h 10468 -12481 0
h 12482 -12095 -12225 0
h -12482 12095 0
h -12482 12225 0
h 12483 -1219 -12159 0
h -12483 1219 0
h -12483 12159 0
h 12484 -1219 -12225 0
h -12484 1219 0
h -12484 12225 0
h 12485 -12095 -12159 -1210 0
h -12485 12095 0
h -12485 12159 0
h -12485 1210 0
h -10473 12059 12482 12483 12484 12485 0
h 10473 -12059 0
h 10473 -12482 0
h 10473 -12483 0
h 10473 -12484 0
h 10473 -12485 0
h 12486 -12095 -12230 0
h -12486 12095 0
h -12486 12230 0
h 12487 -1219 -12201 0
h -12487 1219 0
h -12487 12201 0
h 12488 -1219 -12230 0
h -12488 1219 0
h -12488 12230 0
h 12489 -12095 -12201 -1210 0
h -12489 12095 0
h -12489 12201 0
h -12489 1210 0
h -10379 12078 12486 12487 12488 12489 0
h 10379 -12078 0
h 10379 -12486 0
h 10379 -12487 0
h 10379 -12488 0
h 10379 -12489 0
h 12490 -12095 -12243 0
h -12490 12095 0
h -12490 12243 0
h 12491 -1219 -12248 0
h -12491 1219 0
h -12491 12248 0
h 12492 -1219 -12243 0
h -12492 1219 0
h -12492 12243 0
h 12493 -12095 -12248 -1210 0
h -12493 12095 0
h -12493 12248 0
h -12493 1210 0
h -10478 12112 12490 12491 12492 12493 0
h 10478 -12112 0
h 10478 -12490 0
h 10478 -12491 0
h 10478 -12492 0
h 10478 -12493 0
h 12494 -12095 -1219 0
h -12494 12095 0
h -12494 1219 0
h 12232 -1219 -1219 0
h -12232 1219 0
h -12232 1219 0
h 12495 -1219 -12095 0
h -12495 1219 0
h -12495 12095 0
h 12496 -12095 -12095 -1210 0
h -12496 12095 0
h -12496 12095 0
h -12496 1210 0
h -10483 1221 12494 12232 12495 12496 0
h 10483 -1221 0
h 10483 -12494 0
h 10483 -12232 0
h 10483 -12495 0
h 10483 -12496 0
h 12497 -12117 -1211 0
h -12497 12117 0
h -12497 1211 0
h 12498 -1211 -1211 0
h -12498 1211 0
h -12498 1211 0
h 12499 -1211 -12117 0
h -12499 1211 0
h -12499 12117 0
h 12500 -12117 -12117 -1215 0
h -12500 12117 0
h -12500 12117 0
h -12500 1215 0
h -10776 1201 12497 12498 12499 12500 0
h 10776 -1201 0
h 10776 -12497 0
h 10776 -12498 0
h 10776 -12499 0
h 10776 -12500 0
h 12501 -12117 -1212 0
h -12501 12117 0
h -12501 1212 0
h 12502 -1211 -1212 0
h -12502 1211 0
h -12502 1212 0
h 12503 -1211 -12168 0
h -12503 1211 0
h -12503 12168 0
h 12504 -12117 -12168 -1215 0
h -12504 12117 0
h -12504 12168 0
h -12504 1215 0
h -10783 1202 12501 12502 12503 12504 0
h 10783 -1202 0
h 10783 -12501 0
h 10783 -12502 0
h 10783 -12503 0
h 10783 -12504 0
h 12505 -12117 -12258 0
h -12505 12117 0
h -12505 12258 0
h 12506 -1211 -12173 0
h -12506 1211 0
h -12506 12173 0
h 12507 -1211 -12258 0
h -12507 1211 0
h -12507 12258 0
h 12508 -12117 -12173 -1215 0
h -12508 12117 0
h -12508 12173 0
h -12508 1215 0
h -10790 12064 12505 12506 12507 12508 0
h 10790 -12064 0
h 10790 -12505 0
h 10790 -12506 0
h 10790 -12507 0
h 10790 -12508 0
h 12509 -12122 -12258 0
h -12509 12122 0
h -12509 12258 0
h 12510 -12253 -12258 0
h -12510 12253 0
h -12510 12258 0
h 12511 -12253 -12173 0
h -12511 12253 0
h -12511 12173 0
h 12512 -12122 -12173 -1215 0
h -12512 12122 0
h -12512 12173 0
h -12512 1215 0
h -10797 12071 12509 12510 12511 12512 0
h 10797 -12071 0
h 10797 -12509 0
h 10797 -12510 0
h 10797 -12511 0
h 10797 -12512 0
h 12513 -12117 -1213 0
h -12513 12117 0
h -12513 1213 0
h 12514 -1211 -1213 0
h -12514 1211 0
h -12514 1213 0
h 12515 -1211 -12210 0
h -12515 1211 0
h -12515 12210 0
h 12516 -12117 -12210 -1215 0
h -12516 12117 0
h -12516 12210 0
h -12516 1215 0
h -10804 1204 12513 12514 12515 12516 0
h 10804 -1204 0
h 10804 -12513 0
h 10804 -12514 0
h 10804 -12515 0
h 10804 -12516 0
h 12517 -12117 -12263 0
h -12517 12117 0
h -12517 12263 0
h 12518 -1211 -12215 0
h -12518 1211 0
h -12518 12215 0
h 12519 -1211 -12263 0
h -12519 1211 0
h -12519 12263 0
h 12520 -12117 -12215 -1215 0
h -12520 12117 0
h -12520 12215 0
h -12520 1215 0
h -10811 12083 12517 12518 12519 12520 0
h 10811 -12083 0
h 10811 -12517 0
h 10811 -12518 0
h 10811 -12519 0
h 10811 -12520 0
h 12521 -12122 -12263 0
h -12521 12122 0
h -12521 12263 0
h 12522 -12253 -12263 0
h -12522 12253 0
h -12522 12263 0
h 12523 -12253 -12215 0
h -12523 12253 0
h -12523 12215 0
h 12524 -12122 -12215 -1215 0
h -12524 12122 0
h -12524 12215 0
h -12524 1215 0
h -10816 12088 12521 12522 12523 12524 0
h 10816 -12088 0
h 10816 -12521 0
h 10816 -12522 0
h 10816 -12523 0
h 10816 -12524 0
h 12525 -12117 -1214 0
h -12525 12117 0
h -12525 1214 0
h 12526 -1211 -1214 0
h -12526 1211 0
h -12526 1214 0
h 12527 -1211 -12243 0
h -12527 1211 0
h -12527 12243 0
h 12528 -12117 -12243 -1215 0
h -12528 12117 0
h -12528 12243 0
h -12528 1215 0
h -10771 1207 12525 12526 12527 12528 0
h 10771 -1207 0
h 10771 -12525 0
h 10771 -12526 0
h 10771 -12527 0
h 10771 -12528 0
h 12529 -12117 -12268 0
h -12529 12117 0
h -12529 12268 0
h 12530 -1211 -12248 0
h -12530 1211 0
h -12530 12248 0
h 12531 -1211 -12268 0
h -12531 1211 0
h -12531 12268 0
h 12532 -12117 -12248 -1215 0
h -12532 12117 0
h -12532 12248 0
h -12532 1215 0
h -10770 12100 12529 12530 12531 12532 0
h 10770 -12100 0
h 10770 -12529 0
h 10770 -12530 0
h 10770 -12531 0
h 10770 -12532 0
h 12533 -12122 -12268 0
h -12533 12122 0
h -12533 12268 0
h 12534 -12253 -12268 0
h -12534 12253 0
h -12534 12268 0
h 12535 -12253 -12248 0
h -12535 12253 0
h -12535 12248 0
h 12536 -12122 -12248 -1215 0
h -12536 12122 0
h -12536 12248 0
h -12536 1215 0
h -10792 12105 12533 12534 12535 12536 0
h 10792 -12105 0
h 10792 -12533 0
h 10792 -12534 0
h 10792 -12535 0
h 10792 -12536 0
h 12537 -12117 -1220 0
h -12537 12117 0
h -12537 1220 0
h 12538 -1211 -1220 0
h -12538 1211 0
h -12538 1220 0
h 12539 -1211 -12112 0
h -12539 1211 0
h -12539 12112 0
h 12540 -12117 -12112 -1215 0
h -12540 12117 0
h -12540 12112 0
h -12540 1215 0
h -10823 1216 12537 12538 12539 12540 0
h 10823 -1216 0
h 10823 -12537 0
h 10823 -12538 0
h 10823 -12539 0
h 10823 -12540 0
h 12541 -12117 -12109 0
h -12541 12117 0
h -12541 12109 0
h 12542 -1211 -12114 0
h -12542 1211 0
h -12542 12114 0
h 12543 -1211 -12109 0
h -12543 1211 0
h -12543 12109 0
h 12544 -12117 -12114 -1215 0
h -12544 12117 0
h -12544 12114 0
h -12544 1215 0
h -10830 12049 12541 12542 12543 12544 0
h 10830 -12049 0
h 10830 -12541 0
h 10830 -12542 0
h 10830 -12543 0
h 10830 -12544 0
h 12545 -12122 -12109 0
h -12545 12122 0
h -12545 12109 0
h 12546 -12253 -12109 0
h -12546 12253 0
h -12546 12109 0
h 12547 -12253 -12114 0
h -12547 12253 0
h -12547 12114 0
h 12548 -12122 -12114 -1215 0
h -12548 12122 0
h -12548 12114 0
h -12548 1215 0
h -10835 12066 12545 12546 12547 12548 0
h 10835 -12066 0
h 10835 -12545 0
h 10835 -12546 0
h 10835 -12547 0
h 10835 -12548 0
h 12549 -12168 -12253 0
h -12549 12168 0
h -12549 12253 0
h 12550 -1212 -12122 0
h -12550 1212 0
h -12550 12122 0
h 12551 -1212 -12253 0
h -12551 1212 0
h -12551 12253 0
h 12552 -12168 -12122 -1215 0
h -12552 12168 0
h -12552 12122 0
h -12552 1215 0
h -10840 12127 12549 12550 12551 12552 0
h 10840 -12127 0
h 10840 -12549 0
h 10840 -12550 0
h 10840 -12551 0
h 10840 -12552 0
h 12553 -12168 -1212 0
h -12553 12168 0
h -12553 1212 0
h 12554 -1212 -1212 0
h -12554 1212 0
h -12554 1212 0
h 12555 -1212 -12168 0
h -12555 1212 0
h -12555 12168 0
h 12556 -12168 -12168 -1215 0
h -12556 12168 0
h -12556 12168 0
h -12556 1215 0
h -10845 1203 12553 12554 12555 12556 0
h 10845 -1203 0
h 10845 -12553 0
h 10845 -12554 0
h 10845 -12555 0
h 10845 -12556 0
h 12557 -12168 -1213 0
h -12557 12168 0
h -12557 1213 0
h 12558 -1212 -1213 0
h -12558 1212 0
h -12558 1213 0
h 12559 -1212 -12210 0
h -12559 1212 0
h -12559 12210 0
h 12560 -12168 -12210 -1215 0
h -12560 12168 0
h -12560 12210 0
h -12560 1215 0
h -10850 1205 12557 12558 12559 12560 0
h 10850 -1205 0
h 10850 -12557 0
h 10850 -12558 0
h 10850 -12559 0
h 10850 -12560 0
h 12561 -12168 -12263 0
h -12561 12168 0
h -12561 12263 0
h 12562 -1212 -12215 0
h -12562 1212 0
h -12562 12215 0
h 12563 -1212 -12263 0
h -12563 1212 0
h -12563 12263 0
h 12564 -12168 -12215 -1215 0
h -12564 12168 0
h -12564 12215 0
h -12564 1215 0
h -10855 12140 12561 12562 12563 12564 0
h 10855 -12140 0
h 10855 -12561 0
h 10855 -12562 0
h 10855 -12563 0
h 10855 -12564 0
h 12565 -12173 -12263 0
h -12565 12173 0
h -12565 12263 0
h 12566 -12258 -12263 0
h -12566 12258 0
h -12566 12263 0
h 12567 -12258 -12215 0
h -12567 12258 0
h -12567 12215 0
h 12568 -12173 -12215 -1215 0
h -12568 12173 0
h -12568 12215 0
h -12568 1215 0
h -10860 12145 12565 12566 12567 12568 0
h 10860 -12145 0
h 10860 -12565 0
h 10860 -12566 0
h 10860 -12567 0
h 10860 -12568 0
h 12569 -12168 -1214 0
h -12569 12168 0
h -12569 1214 0
h 12570 -1212 -1214 0
h -12570 1212 0
h -12570 1214 0
h 12571 -1212 -12243 0
h -12571 1212 0
h -12571 12243 0
h 12572 -12168 -12243 -1215 0
h -12572 12168 0
h -12572 12243 0
h -12572 1215 0
h -10778 1208 12569 12570 12571 12572 0
h 10778 -1208 0
h 10778 -12569 0
h 10778 -12570 0
h 10778 -12571 0
h 10778 -12572 0
h 12573 -12168 -12268 0
h -12573 12168 0
h -12573 12268 0
h 12574 -1212 -12248 0
h -12574 1212 0
h -12574 12248 0
h 12575 -1212 -12268 0
h -12575 1212 0
h -12575 12268 0
h 12576 -12168 -12248 -1215 0
h -12576 12168 0
h -12576 12248 0
h -12576 1215 0
h -10781 12154 12573 12574 12575 12576 0
h 10781 -12154 0
h 10781 -12573 0
h 10781 -12574 0
h 10781 -12575 0
h 10781 -12576 0
h 12577 -12173 -12268 0
h -12577 12173 0
h -12577 12268 0
h 12578 -12258 -12268 0
h -12578 12258 0
h -12578 12268 0
h 12579 -12258 -12248 0
h -12579 12258 0
h -12579 12248 0
h 12580 -12173 -12248 -1215 0
h -12580 12173 0
h -12580 12248 0
h -12580 1215 0
h -10787 12159 12577 12578 12579 12580 0
h 10787 -12159 0
h 10787 -12577 0
h 10787 -12578 0
h 10787 -12579 0
h 10787 -12580 0
h 12581 -12168 -1220 0
h -12581 12168 0
h -12581 1220 0
h 12582 -1212 -1220 0
h -12582 1212 0
h -12582 1220 0
h 12583 -1212 -12112 0
h -12583 1212 0
h -12583 12112 0
h 12584 -12168 -12112 -1215 0
h -12584 12168 0
h -12584 12112 0
h -12584 1215 0
h -10865 1217 12581 12582 12583 12584 0
h 10865 -1217 0
h 10865 -12581 0
h 10865 -12582 0
h 10865 -12583 0
h 10865 -12584 0
h 12585 -12168 -12109 0
h -12585 12168 0
h -12585 12109 0
h 12586 -1212 -12114 0
h -12586 1212 0
h -12586 12114 0
h 12587 -1212 -12109 0
h -12587 1212 0
h -12587 12109 0
h 12588 -12168 -12114 -1215 0
h -12588 12168 0
h -12588 12114 0
h -12588 1215 0
h -10870 12056 12585 12586 12587 12588 0
h 10870 -12056 0
h 10870 -12585 0
h 10870 -12586 0
h 10870 -12587 0
h 10870 -12588 0
h 12589 -12173 -12109 0
h -12589 12173 0
h -12589 12109 0
h 12590 -12258 -12109 0
h -12590 12258 0
h -12590 12109 0
h 12591 -12258 -12114 0
h -12591 12258 0
h -12591 12114 0
h 12592 -12173 -12114 -1215 0
h -12592 12173 0
h -12592 12114 0
h -12592 1215 0
h -10875 12061 12589 12590 12591 12592 0
h 10875 -12061 0
h 10875 -12589 0
h 10875 -12590 0
h 10875 -12591 0
h 10875 -12592 0
h 12593 -12210 -12253 0
h -12593 12210 0
h -12593 12253 0
h 12594 -1213 -12122 0
h -12594 1213 0
h -12594 12122 0
h 12595 -1213 -12253 0
h -12595 1213 0
h -12595 12253 0
h 12596 -12210 -12122 -1215 0
h -12596 12210 0
h -12596 12122 0
h -12596 1215 0
h -10880 12178 12593 12594 12595 12596 0
h 10880 -12178 0
h 10880 -12593 0
h 10880 -12594 0
h 10880 -12595 0
h 10880 -12596 0
h 12597 -12210 -12258 0
h -12597 12210 0
h -12597 12258 0
h 12598 -1213 -12173 0
h -12598 1213 0
h -12598 12173 0
h 12599 -1213 -12258 0
h -12599 1213 0
h -12599 12258 0
h 12600 -12210 -12173 -1215 0
h -12600 12210 0
h -12600 12173 0
h -12600 1215 0
h -10885 12183 12597 12598 12599 12600 0
h 10885 -12183 0
h 10885 -12597 0
h 10885 -12598 0
h 10885 -12599 0
h 10885 -12600 0
h 12601 -12210 -1213 0
h -12601 12210 0
h -12601 1213 0
h 12602 -1213 -1213 0
h -12602 1213 0
h -12602 1213 0
h 12603 -1213 -12210 0
h -12603 1213 0
h -12603 12210 0
h 12604 -12210 -12210 -1215 0
h -12604 12210 0
h -12604 12210 0
h -12604 1215 0
h -10890 1206 12601 12602 12603 12604 0
h 10890 -1206 0
h 10890 -12601 0
h 10890 -12602 0
h 10890 -12603 0
h 10890 -12604 0
h 12605 -12210 -1214 0
h -12605 12210 0
h -12605 1214 0
h 12606 -1213 -1214 0
h -12606 1213 0
h -12606 1214 0
h 12607 -1213 -12243 0
h -12607 1213 0
h -12607 12243 0
h 12608 -12210 -12243 -1215 0
h -12608 12210 0
h -12608 12243 0
h -12608 1215 0
h -10799 1209 12605 12606 12607 12608 0
h 10799 -1209 0
h 10799 -12605 0
h 10799 -12606 0
h 10799 -12607 0
h 10799 -12608 0
h 12609 -12210 -12268 0
h -12609 12210 0
h -12609 12268 0
h 12610 -1213 -12248 0
h -12610 1213 0
h -12610 12248 0
h 12611 -1213 -12268 0
h -12611 1213 0
h -12611 12268 0
h 12612 -12210 -12248 -1215 0
h -12612 12210 0
h -12612 12248 0
h -12612 1215 0
h -10802 12196 12609 12610 12611 12612 0
h 10802 -12196 0
h 10802 -12609 0
h 10802 -12610 0
h 10802 -12611 0
h 10802 -12612 0
h 12613 -12215 -12268 0
h -12613 12215 0
h -12613 12268 0
h 12614 -12263 -12268 0
h -12614 12263 0
h -12614 12268 0
h 12615 -12263 -12248 0
h -12615 12263 0
h -12615 12248 0
h 12616 -12215 -12248 -1215 0
h -12616 12215 0
h -12616 12248 0
h -12616 1215 0
h -10808 12201 12613 12614 12615 12616 0
h 10808 -12201 0
h 10808 -12613 0
h 10808 -12614 0
h 10808 -12615 0
h 10808 -12616 0
h 12617 -12210 -1220 0
h -12617 12210 0
h -12617 1220 0
h 12618 -1213 -1220 0
h -12618 1213 0
h -12618 1220 0
h 12619 -1213 -12112 0
h -12619 1213 0
h -12619 12112 0
h 12620 -12210 -12112 -1215 0
h -12620 12210 0
h -12620 12112 0
h -12620 1215 0
h -10895 1218 12617 12618 12619 12620 0
h 10895 -1218 0
h 10895 -12617 0
h 10895 -12618 0
h 10895 -12619 0
h 10895 -12620 0
h 12621 -12210 -12109 0
h -12621 12210 0
h -12621 12109 0
h 12622 -1213 -12114 0
h -12622 1213 0
h -12622 12114 0
h 12623 -1213 -12109 0
h -12623 1213 0
h -12623 12109 0
h 12624 -12210 -12114 -1215 0
h -12624 12210 0
h -12624 12114 0
h -12624 1215 0
h -10900 12075 12621 12622 12623 12624 0
h 10900 -12075 0
h 10900 -12621 0
h 10900 -12622 0
h 10900 -12623 0
h 10900 -12624 0
h 12625 -12215 -12109 0
h -12625 12215 0
h -12625 12109 0
h 12626 -12263 -12109 0
h -12626 12263 0
h -12626 12109 0
h 12627 -12263 -12114 0
h -12627 12263 0
h -12627 12114 0
h 12628 -12215 -12114 -1215 0
h -12628 12215 0
h -12628 12114 0
h -12628 1215 0
h -10905 12080 12625 12626 12627 12628 0
h 10905 -12080 0
h 10905 -12625 0
h 10905 -12626 0
h 10905 -12627 0
h 10905 -12628 0
h 12629 -12243 -12253 0
h -12629 12243 0
h -12629 12253 0
h 12630 -1214 -12122 0
h -12630 1214 0
h -12630 12122 0
h 12631 -1214 -12253 0
h -12631 1214 0
h -12631 12253 0
h 12632 -12243 -12122 -1215 0
h -12632 12243 0
h -12632 12122 0
h -12632 1215 0
h -10794 12220 12629 12630 12631 12632 0
h 10794 -12220 0
h 10794 -12629 0
h 10794 -12630 0
h 10794 -12631 0
h 10794 -12632 0
h 12633 -12243 -12258 0
h -12633 12243 0
h -12633 12258 0
h 12634 -1214 -12173 0
h -12634 1214 0
h -12634 12173 0
h 12635 -1214 -12258 0
h -12635 1214 0
h -12635 12258 0
h 12636 -12243 -12173 -1215 0
h -12636 12243 0
h -12636 12173 0
h -12636 1215 0
h -10785 12225 12633 12634 12635 12636 0
h 10785 -12225 0
h 10785 -12633 0
h 10785 -12634 0
h 10785 -12635 0
h 10785 -12636 0
h 12637 -12243 -12263 0
h -12637 12243 0
h -12637 12263 0
h 12638 -1214 -12215 0
h -12638 1214 0
h -12638 12215 0
h 12639 -1214 -12263 0
h -12639 1214 0
h -12639 12263 0
h 12640 -12243 -12215 -1215 0
h -12640 12243 0
h -12640 12215 0
h -12640 1215 0
h -10806 12230 12637 12638 12639 12640 0
h 10806 -12230 0
h 10806 -12637 0
h 10806 -12638 0
h 10806 -12639 0
h 10806 -12640 0
h 12641 -12243 -1214 0
h -12641 12243 0
h -12641 1214 0
h 12463 -1214 -1214 0
h -12463 1214 0
h -12463 1214 0
h 12642 -1214 -12243 0
h -12642 1214 0
h -12642 12243 0
h 12643 -12243 -12243 -1215 0
h -12643 12243 0
h -12643 12243 0
h -12643 1215 0
h -10775 1210 12641 12463 12642 12643 0
h 10775 -1210 0
h 10775 -12641 0
h 10775 -12463 0
h 10775 -12642 0
h 10775 -12643 0
h 12644 -12243 -1220 0
h -12644 12243 0
h -12644 1220 0
h 12645 -1214 -1220 0
h -12645 1214 0
h -12645 1220 0
h 12646 -1214 -12112 0
h -12646 1214 0
h -12646 12112 0
h 12647 -12243 -12112 -1215 0
h -12647 12243 0
h -12647 12112 0
h -12647 1215 0
h -10818 1219 12644 12645 12646 12647 0
h 10818 -1219 0
h 10818 -12644 0
h 10818 -12645 0
h 10818 -12646 0
h 10818 -12647 0
h 12648 -12243 -12109 0
h -12648 12243 0
h -12648 12109 0
h 12649 -1214 -12114 0
h -12649 1214 0
h -12649 12114 0
h 12650 -1214 -12109 0
h -12650 1214 0
h -12650 12109 0
h 12651 -12243 -12114 -1215 0
h -12651 12243 0
h -12651 12114 0
h -12651 1215 0
h -10825 12092 12648 12649 12650 12651 0
h 10825 -12092 0
h 10825 -12648 0
h 10825 -12649 0
h 10825 -12650 0
h 10825 -12651 0
h 12652 -12248 -12109 0
h -12652 12248 0
h -12652 12109 0
h 12653 -12268 -12109 0
h -12653 12268 0
h -12653 12109 0
h 12654 -12268 -12114 0
h -12654 12268 0
h -12654 12114 0
h 12655 -12248 -12114 -1215 0
h -12655 12248 0
h -12655 12114 0
h -12655 1215 0
h -10827 12097 12652 12653 12654 12655 0
h 10827 -12097 0
h 10827 -12652 0
h 10827 -12653 0
h 10827 -12654 0
h 10827 -12655 0
h 12656 -12112 -12253 0
h -12656 12112 0
h -12656 12253 0
h 12657 -1220 -12122 0
h -12657 1220 0
h -12657 12122 0
h 12658 -1220 -12253 0
h -12658 1220 0
h -12658 12253 0
h 12659 -12112 -12122 -1215 0
h -12659 12112 0
h -12659 12122 0
h -12659 1215 0
h -10910 12068 12656 12657 12658 12659 0
h 10910 -12068 0
h 10910 -12656 0
h 10910 -12657 0
h 10910 -12658 0
h 10910 -12659 0
h 12660 -12112 -12258 0
h -12660 12112 0
h -12660 12258 0
h 12661 -1220 -12173 0
h -12661 1220 0
h -12661 12173 0
h 12662 -1220 -12258 0
h -12662 1220 0
h -12662 12258 0
h 12663 -12112 -12173 -1215 0
h -12663 12112 0
h -12663 12173 0
h -12663 1215 0
h -10915 12059 12660 12661 12662 12663 0
h 10915 -12059 0
h 10915 -12660 0
h 10915 -12661 0
h 10915 -12662 0
h 10915 -12663 0
h 12664 -12112 -12263 0
h -12664 12112 0
h -12664 12263 0
h 12665 -1220 -12215 0
h -12665 1220 0
h -12665 12215 0
h 12666 -1220 -12263 0
h -12666 1220 0
h -12666 12263 0
h 12667 -12112 -12215 -1215 0
h -12667 12112 0
h -12667 12215 0
h -12667 1215 0
h -10920 12078 12664 12665 12666 12667 0
h 10920 -12078 0
h 10920 -12664 0
h 10920 -12665 0
h 10920 -12666 0
h 10920 -12667 0
h 12668 -12112 -12268 0
h -12668 12112 0
h -12668 12268 0
h 12669 -1220 -12248 0
h -12669 1220 0
h -12669 12248 0
h 12670 -1220 -12268 0
h -12670 1220 0
h -12670 12268 0
h 12671 -12112 -12248 -1215 0
h -12671 12112 0
h -12671 12248 0
h -12671 1215 0
h -10821 12095 12668 12669 12670 12671 0
h 10821 -12095 0
h 10821 -12668 0
h 10821 -12669 0
h 10821 -12670 0
h 10821 -12671 0
h 12672 -12112 -1220 0
h -12672 12112 0
h -12672 1220 0
h 12270 -1220 -1220 0
h -12270 1220 0
h -12270 1220 0
h 12673 -1220 -12112 0
h -12673 1220 0
h -12673 12112 0
h 12674 -12112 -12112 -1215 0
h -12674 12112 0
h -12674 12112 0
h -12674 1215 0
h -10925 1221 12672 12270 12673 12674 0
h 10925 -1221 0
h 10925 -12672 0
h 10925 -12270 0
h 10925 -12673 0
h 10925 -12674 0
h 12675 -12049 -12049 0
h -12675 12049 0
h -12675 12049 0
h -10265 1201 12675 0
h 10265 -1201 0
h 10265 -12675 0
h 12676 -12049 -12056 0
h -12676 12049 0
h -12676 12056 0
h -10268 1202 12676 0
h 10268 -1202 0
h 10268 -12676 0
h 12677 -12049 -12061 0
h -12677 12049 0
h -12677 12061 0
h -10271 12064 12677 0
h 10271 -12064 0
h 10271 -12677 0
h 12678 -12066 -12061 0
h -12678 12066 0
h -12678 12061 0
h -10274 12071 12678 0
h 10274 -12071 0
h 10274 -12678 0
h 12679 -12049 -12075 0
h -12679 12049 0
h -12679 12075 0
h -10554 1204 12679 0
h 10554 -1204 0
h 10554 -12679 0
h 12680 -12049 -12080 0
h -12680 12049 0
h -12680 12080 0
h -10264 12083 12680 0
h 10264 -12083 0
h 10264 -12680 0
h 12681 -12066 -12080 0
h -12681 12066 0
h -12681 12080 0
h -10273 12088 12681 0
h 10273 -12088 0
h 10273 -12681 0
h 12682 -12049 -12092 0
h -12682 12049 0
h -12682 12092 0
h -10277 1207 12682 0
h 10277 -1207 0
h 10277 -12682 0
h 12683 -12049 -12097 0
h -12683 12049 0
h -12683 12097 0
h -10280 12100 12683 0
h 10280 -12100 0
h 10280 -12683 0
h 12684 -12066 -12097 0
h -12684 12066 0
h -12684 12097 0
h -10282 12105 12684 0
h 10282 -12105 0
h 10282 -12684 0
h 12685 -12049 -12109 0
h -12685 12049 0
h -12685 12109 0
h -10285 1211 12685 0
h 10285 -1211 0
h 10285 -12685 0
h 12686 -12049 -12114 0
h -12686 12049 0
h -12686 12114 0
h -10288 12117 12686 0
h 10288 -12117 0
h 10288 -12686 0
h 12687 -12066 -12114 0
h -12687 12066 0
h -12687 12114 0
h -10290 12122 12687 0
h 10290 -12122 0
h 10290 -12687 0
h 12688 -12056 -12066 0
h -12688 12056 0
h -12688 12066 0
h -10292 12127 12688 0
h 10292 -12127 0
h 10292 -12688 0
h 12689 -12056 -12056 0
h -12689 12056 0
h -12689 12056 0
h -10294 1203 12689 0
h 10294 -1203 0
h 10294 -12689 0
h 12690 -12056 -12075 0
h -12690 12056 0
h -12690 12075 0
h -10563 1205 12690 0
h 10563 -1205 0
h 10563 -12690 0
h 12691 -12056 -12080 0
h -12691 12056 0
h -12691 12080 0
h -10267 12140 12691 0
h 10267 -12140 0
h 10267 -12691 0
h 12692 -12061 -12080 0
h -12692 12061 0
h -12692 12080 0
h -10270 12145 12692 0
h 10270 -12145 0
h 10270 -12692 0
h 12693 -12056 -12092 0
h -12693 12056 0
h -12693 12092 0
h -10296 1208 12693 0
h 10296 -1208 0
h 10296 -12693 0
h 12694 -12056 -12097 0
h -12694 12056 0
h -12694 12097 0
h -10298 12154 12694 0
h 10298 -12154 0
h 10298 -12694 0
h 12695 -12061 -12097 0
h -12695 12061 0
h -12695 12097 0
h -10300 12159 12695 0
h 10300 -12159 0
h 10300 -12695 0
h 12696 -12056 -12109 0
h -12696 12056 0
h -12696 12109 0
h -10302 1212 12696 0
h 10302 -1212 0
h 10302 -12696 0
h 12697 -12056 -12114 0
h -12697 12056 0
h -12697 12114 0
h -10304 12168 12697 0
h 10304 -12168 0
h 10304 -12697 0
h 12698 -12061 -12114 0
h -12698 12061 0
h -12698 12114 0
h -10306 12173 12698 0
h 10306 -12173 0
h 10306 -12698 0
h 12699 -12075 -12066 0
h -12699 12075 0
h -12699 12066 0
h -10570 12178 12699 0
h 10570 -12178 0
h 10570 -12699 0
h 12700 -12075 -12061 0
h -12700 12075 0
h -12700 12061 0
h -10572 12183 12700 0
h 10572 -12183 0
h 10572 -12700 0
h 12701 -12075 -12075 0
h -12701 12075 0
h -12701 12075 0
h -10574 1206 12701 0
h 10574 -1206 0
h 10574 -12701 0
h 12702 -12075 -12092 0
h -12702 12075 0
h -12702 12092 0
h -10943 1209 12702 0
h 10943 -1209 0
h 10943 -12702 0
h 12703 -12075 -12097 0
h -12703 12075 0
h -12703 12097 0
h -10553 12196 12703 0
h 10553 -12196 0
h 10553 -12703 0
h 12704 -12080 -12097 0
h -12704 12080 0
h -12704 12097 0
h -10279 12201 12704 0
h 10279 -12201 0
h 10279 -12704 0
h 12705 -12075 -12109 0
h -12705 12075 0
h -12705 12109 0
h -10576 1213 12705 0
h 10576 -1213 0
h 10576 -12705 0
h 12706 -12075 -12114 0
h -12706 12075 0
h -12706 12114 0
h -10578 12210 12706 0
h 10578 -12210 0
h 10578 -12706 0
h 12707 -12080 -12114 0
h -12707 12080 0
h -12707 12114 0
h -10287 12215 12707 0
h 10287 -12215 0
h 10287 -12707 0
h 12708 -12092 -12066 0
h -12708 12092 0
h -12708 12066 0
h -10308 12220 12708 0
h 10308 -12220 0
h 10308 -12708 0
h 12709 -12092 -12061 0
h -12709 12092 0
h -12709 12061 0
h -10310 12225 12709 0
h 10310 -12225 0
h 10310 -12709 0
h 12710 -12092 -12080 0
h -12710 12092 0
h -12710 12080 0
h -10276 12230 12710 0
h 10276 -12230 0
h 10276 -12710 0
h 12711 -12092 -12092 0
h -12711 12092 0
h -12711 12092 0
h -10312 1210 12711 0
h 10312 -1210 0
h 10312 -12711 0
h 12712 -12092 -12109 0
h -12712 12092 0
h -12712 12109 0
h -10314 1214 12712 0
h 10314 -1214 0
h 10314 -12712 0
h 12713 -12092 -12114 0
h -12713 12092 0
h -12713 12114 0
h -10316 12243 12713 0
h 10316 -12243 0
h 10316 -12713 0
h 12714 -12097 -12114 0
h -12714 12097 0
h -12714 12114 0
h -10318 12248 12714 0
h 10318 -12248 0
h 10318 -12714 0
h 12715 -12109 -12066 0
h -12715 12109 0
h -12715 12066 0
h -10320 12253 12715 0
h 10320 -12253 0
h 10320 -12715 0
h 12716 -12109 -12061 0
h -12716 12109 0
h -12716 12061 0
h -10322 12258 12716 0
h 10322 -12258 0
h 10322 -12716 0
h 12717 -12109 -12080 0
h -12717 12109 0
h -12717 12080 0
h -10284 12263 12717 0
h 10284 -12263 0
h 10284 -12717 0
h 12718 -12109 -12097 0
h -12718 12109 0
h -12718 12097 0
h -10324 12268 12718 0
h 10324 -12268 0
h 10324 -12718 0
h 12719 -12109 -12109 0
h -12719 12109 0
h -12719 12109 0
h -10326 1215 12719 0
h 10326 -1215 0
h 10326 -12719 0
h 12720 -12100 -12100 0
h -12720 12100 0
h -12720 12100 0
h -10113 1201 12720 0
h 10113 -1201 0
h 10113 -12720 0
h 12721 -12100 -12154 0
h -12721 12100 0
h -12721 12154 0
h -10120 1202 12721 0
h 10120 -1202 0
h 10120 -12721 0
h 12722 -12100 -12159 0
h -12722 12100 0
h -12722 12159 0
h -10127 12064 12722 0
h 10127 -12064 0
h 10127 -12722 0
h 12723 -12105 -12159 0
h -12723 12105 0
h -12723 12159 0
h -10134 12071 12723 0
h 10134 -12071 0
h 10134 -12723 0
h 12724 -12100 -12196 0
h -12724 12100 0
h -12724 12196 0
h -10108 1204 12724 0
h 10108 -1204 0
h 10108 -12724 0
h 12725 -12100 -12201 0
h -12725 12100 0
h -12725 12201 0
h -10107 12083 12725 0
h 10107 -12083 0
h 10107 -12725 0
h 12726 -12105 -12201 0
h -12726 12105 0
h -12726 12201 0
h -10129 12088 12726 0
h 10129 -12088 0
h 10129 -12726 0
h 12727 -12100 -12268 0
h -12727 12100 0
h -12727 12268 0
h -10141 1211 12727 0
h 10141 -1211 0
h 10141 -12727 0
h 12728 -12100 -12248 0
h -12728 12100 0
h -12728 12248 0
h -10148 12117 12728 0
h 10148 -12117 0
h 10148 -12728 0
h 12729 -12105 -12248 0
h -12729 12105 0
h -12729 12248 0
h -10153 12122 12729 0
h 10153 -12122 0
h 10153 -12729 0
h 12730 -12100 -12095 0
h -12730 12100 0
h -12730 12095 0
h -10160 1216 12730 0
h 10160 -1216 0
h 10160 -12730 0
h 12731 -12100 -12097 0
h -12731 12100 0
h -12731 12097 0
h -10167 12049 12731 0
h 10167 -12049 0
h 10167 -12731 0
h 12732 -12105 -12097 0
h -12732 12105 0
h -12732 12097 0
h -10172 12066 12732 0
h 10172 -12066 0
h 10172 -12732 0
h 12733 -12154 -12105 0
h -12733 12154 0
h -12733 12105 0
h -10177 12127 12733 0
h 10177 -12127 0
h 10177 -12733 0
h 12734 -12154 -12154 0
h -12734 12154 0
h -12734 12154 0
h -10182 1203 12734 0
h 10182 -1203 0
h 10182 -12734 0
h 12735 -12154 -12196 0
h -12735 12154 0
h -12735 12196 0
h -10115 1205 12735 0
h 10115 -1205 0
h 10115 -12735 0
h 12736 -12154 -12201 0
h -12736 12154 0
h -12736 12201 0
h -10118 12140 12736 0
h 10118 -12140 0
h 10118 -12736 0
h 12737 -12159 -12201 0
h -12737 12159 0
h -12737 12201 0
h -10124 12145 12737 0
h 10124 -12145 0
h 10124 -12737 0
h 12738 -12154 -12268 0
h -12738 12154 0
h -12738 12268 0
h -10187 1212 12738 0
h 10187 -1212 0
h 10187 -12738 0
h 12739 -12154 -12248 0
h -12739 12154 0
h -12739 12248 0
h -10192 12168 12739 0
h 10192 -12168 0
h 10192 -12739 0
h 12740 -12159 -12248 0
h -12740 12159 0
h -12740 12248 0
h -10197 12173 12740 0
h 10197 -12173 0
h 10197 -12740 0
h 12741 -12154 -12095 0
h -12741 12154 0
h -12741 12095 0
h -10202 1217 12741 0
h 10202 -1217 0
h 10202 -12741 0
h 12742 -12154 -12097 0
h -12742 12154 0
h -12742 12097 0
h -10207 12056 12742 0
h 10207 -12056 0
h 10207 -12742 0
h 12743 -12159 -12097 0
h -12743 12159 0
h -12743 12097 0
h -10212 12061 12743 0
h 10212 -12061 0
h 10212 -12743 0
h 12744 -12196 -12105 0
h -12744 12196 0
h -12744 12105 0
h -10131 12178 12744 0
h 10131 -12178 0
h 10131 -12744 0
h 12745 -12196 -12159 0
h -12745 12196 0
h -12745 12159 0
h -10122 12183 12745 0
h 10122 -12183 0
h 10122 -12745 0
h 12746 -12196 -12196 0
h -12746 12196 0
h -12746 12196 0
h -10112 1206 12746 0
h 10112 -1206 0
h 10112 -12746 0
h 12747 -12196 -12268 0
h -12747 12196 0
h -12747 12268 0
h -10136 1213 12747 0
h 10136 -1213 0
h 10136 -12747 0
h 12748 -12196 -12248 0
h -12748 12196 0
h -12748 12248 0
h -10143 12210 12748 0
h 10143 -12210 0
h 10143 -12748 0
h 12749 -12201 -12248 0
h -12749 12201 0
h -12749 12248 0
h -10145 12215 12749 0
h 10145 -12215 0
h 10145 -12749 0
h 12750 -12196 -12095 0
h -12750 12196 0
h -12750 12095 0
h -10155 1218 12750 0
h 10155 -1218 0
h 10155 -12750 0
h 12751 -12196 -12097 0
h -12751 12196 0
h -12751 12097 0
h -10162 12075 12751 0
h 10162 -12075 0
h 10162 -12751 0
h 12752 -12201 -12097 0
h -12752 12201 0
h -12752 12097 0
h -10164 12080 12752 0
h 10164 -12080 0
h 10164 -12752 0
h 12753 -12268 -12105 0
h -12753 12268 0
h -12753 12105 0
h -10217 12253 12753 0
h 10217 -12253 0
h 10217 -12753 0
h 12754 -12268 -12159 0
h -12754 12268 0
h -12754 12159 0
h -10222 12258 12754 0
h 10222 -12258 0
h 10222 -12754 0
h 12755 -12268 -12201 0
h -12755 12268 0
h -12755 12201 0
h -10139 12263 12755 0
h 10139 -12263 0
h 10139 -12755 0
h 12756 -12268 -12268 0
h -12756 12268 0
h -12756 12268 0
h -10227 1215 12756 0
h 10227 -1215 0
h 10227 -12756 0
h 12757 -12268 -12095 0
h -12757 12268 0
h -12757 12095 0
h -10232 1220 12757 0
h 10232 -1220 0
h 10232 -12757 0
h 12758 -12268 -12097 0
h -12758 12268 0
h -12758 12097 0
h -10237 12109 12758 0
h 10237 -12109 0
h 10237 -12758 0
h 12759 -12248 -12097 0
h -12759 12248 0
h -12759 12097 0
h -10242 12114 12759 0
h 10242 -12114 0
h 10242 -12759 0
h 12760 -12095 -12105 0
h -12760 12095 0
h -12760 12105 0
h -10247 12068 12760 0
h 10247 -12068 0
h 10247 -12760 0
h 12761 -12095 -12159 0
h -12761 12095 0
h -12761 12159 0
h -10252 12059 12761 0
h 10252 -12059 0
h 10252 -12761 0
h 12762 -12095 -12201 0
h -12762 12095 0
h -12762 12201 0
h -10158 12078 12762 0
h 10158 -12078 0
h 10158 -12762 0
h 12763 -12095 -12248 0
h -12763 12095 0
h -12763 12248 0
h -10257 12112 12763 0
h 10257 -12112 0
h 10257 -12763 0
h 12764 -12095 -12095 0
h -12764 12095 0
h -12764 12095 0
h -10262 1221 12764 0
h 10262 -1221 0
h 10262 -12764 0
