c Standarized MaxSat Instance
c{
c "sha1sum": "efd7f49f58e2e4d0be1cbdacb127573096cb0f5b",
c "nvars": 2318,
c "ncls": 9290,
c "total_lits": 20798,
c "nhards": 8316,
c "nhard_nlits": 19824,
c "nhard_len_stats":
c    { "min": 2,
c      "max": 38,
c      "ave": 2.3838,
c      "stddev": 2.5309 },
c "nsofts": 974,
c "nsoft_nlits": 974,
c "nsoft_len_stats":
c    { "min": 1,
c      "max": 1,
c      "ave": 1.0000,
c      "stddev": 0.0000 },
c "nsoft_wts": 4,
c "soft_wt_stats":
c    { "min": 239,
c      "max": 40000,
c      "ave": 1026.5010,
c      "stddev": 4811.8841 }
c}
c------------------------------------------------------------
c Input CNF, Input: #User=11, #Permessi=11, #ruoli=38
239 1 0
239 -2 0
239 -3 0
239 -4 0
239 -5 0
239 6 0
239 -7 0
239 8 0
239 -9 0
239 -10 0
239 -11 0
239 -12 0
239 -13 0
239 -14 0
239 39 0
239 40 0
239 41 0
239 42 0
239 43 0
239 44 0
239 45 0
239 46 0
239 47 0
239 48 0
239 -49 0
239 -50 0
239 -51 0
239 -52 0
239 -77 0
239 -78 0
239 -79 0
239 -80 0
239 -81 0
239 -82 0
239 -83 0
239 84 0
239 -85 0
239 -86 0
239 -87 0
239 -88 0
239 -89 0
239 -90 0
239 -115 0
239 -116 0
239 -117 0
239 -118 0
239 -119 0
239 -120 0
239 -121 0
239 -122 0
239 -123 0
239 -124 0
239 -125 0
239 -126 0
239 -127 0
239 -128 0
239 153 0
239 154 0
239 -155 0
239 156 0
239 157 0
239 -158 0
239 -159 0
239 160 0
239 161 0
239 162 0
239 -163 0
239 -164 0
239 -165 0
239 -166 0
239 -191 0
239 -192 0
239 -193 0
239 -194 0
239 -195 0
239 -196 0
239 -197 0
239 -198 0
239 -199 0
239 200 0
239 -201 0
239 -202 0
239 -203 0
239 -204 0
239 -229 0
239 -230 0
239 -231 0
239 -232 0
239 -233 0
239 -234 0
239 -235 0
239 -236 0
239 -237 0
239 238 0
239 -239 0
239 -240 0
239 -241 0
239 -242 0
239 -267 0
239 268 0
239 -269 0
239 270 0
239 -271 0
239 -272 0
239 -273 0
239 274 0
239 -275 0
239 276 0
239 277 0
239 -278 0
239 -279 0
239 -280 0
239 305 0
239 -306 0
239 307 0
239 308 0
239 309 0
239 310 0
239 -311 0
239 312 0
239 -313 0
239 314 0
239 -315 0
239 316 0
239 -317 0
239 -318 0
239 -343 0
239 344 0
239 -345 0
239 346 0
239 -347 0
239 -348 0
239 -349 0
239 350 0
239 -351 0
239 352 0
239 -353 0
239 -354 0
239 355 0
239 -356 0
239 -381 0
239 -382 0
239 -383 0
239 384 0
239 -385 0
239 -386 0
239 -387 0
239 388 0
239 -389 0
239 390 0
239 -391 0
239 -392 0
239 -393 0
239 394 0
239 -419 0
239 -420 0
239 -421 0
239 422 0
239 -423 0
239 424 0
239 -425 0
239 -426 0
239 -427 0
239 -428 0
239 -429 0
239 430 0
239 431 0
239 432 0
239 433 0
239 -434 0
239 -435 0
239 -436 0
239 -437 0
239 -438 0
239 -439 0
239 -440 0
239 441 0
239 442 0
239 -443 0
239 444 0
239 445 0
239 446 0
239 -447 0
239 -448 0
239 -449 0
239 -450 0
239 -451 0
239 452 0
239 453 0
239 -454 0
239 455 0
239 -456 0
239 -457 0
239 -458 0
239 -459 0
239 -460 0
239 -461 0
239 -462 0
239 463 0
239 464 0
239 -465 0
239 466 0
239 -467 0
239 468 0
239 -469 0
239 -470 0
239 -471 0
239 -472 0
239 -473 0
239 -474 0
239 -475 0
239 -476 0
239 477 0
239 478 0
239 479 0
239 -480 0
239 -481 0
239 -482 0
239 -483 0
239 -484 0
239 485 0
239 486 0
239 487 0
239 488 0
239 489 0
239 490 0
239 -491 0
239 -492 0
239 -493 0
239 -494 0
239 -495 0
239 -496 0
239 -497 0
239 -498 0
239 499 0
239 -500 0
239 -501 0
239 -502 0
239 -503 0
239 -504 0
239 -505 0
239 -506 0
239 507 0
239 508 0
239 509 0
239 510 0
239 -511 0
239 512 0
239 -513 0
239 -514 0
239 -515 0
239 -516 0
239 -517 0
239 518 0
239 -519 0
239 -520 0
239 -521 0
239 -522 0
239 -523 0
239 -524 0
239 -525 0
239 -526 0
239 -527 0
239 -528 0
239 529 0
239 530 0
239 531 0
239 532 0
239 -533 0
239 -534 0
239 535 0
239 536 0
239 -537 0
239 -538 0
239 -539 0
239 540 0
239 541 0
239 -542 0
239 543 0
239 544 0
239 545 0
239 -546 0
239 -547 0
239 548 0
239 -549 0
239 -550 0
239 551 0
239 552 0
239 553 0
239 554 0
239 -555 0
239 -556 0
239 -557 0
239 -558 0
239 -559 0
239 560 0
239 -561 0
239 562 0
239 563 0
239 -564 0
239 565 0
239 -566 0
239 -567 0
239 -568 0
239 -569 0
239 -570 0
239 -571 0
239 572 0
239 -15 0
239 -16 0
239 -17 0
239 -18 0
239 -19 0
239 -20 0
239 -21 0
239 -22 0
239 -23 0
239 -24 0
239 -25 0
239 -26 0
239 -27 0
239 -28 0
239 -29 0
239 -30 0
239 -31 0
239 -32 0
239 -33 0
239 -34 0
239 -35 0
239 -36 0
239 -37 0
239 -38 0
239 -53 0
239 -54 0
239 -55 0
239 -56 0
239 -57 0
239 -58 0
239 -59 0
239 -60 0
239 -61 0
239 -62 0
239 -63 0
239 -64 0
239 -65 0
239 -66 0
239 -67 0
239 -68 0
239 -69 0
239 -70 0
239 -71 0
239 -72 0
239 -73 0
239 -74 0
239 -75 0
239 -76 0
239 -91 0
239 -92 0
239 -93 0
239 -94 0
239 -95 0
239 -96 0
239 -97 0
239 -98 0
239 -99 0
239 -100 0
239 -101 0
239 -102 0
239 -103 0
239 -104 0
239 -105 0
239 -106 0
239 -107 0
239 -108 0
239 -109 0
239 -110 0
239 -111 0
239 -112 0
239 -113 0
239 -114 0
239 -129 0
239 -130 0
239 -131 0
239 -132 0
239 -133 0
239 -134 0
239 -135 0
239 -136 0
239 -137 0
239 -138 0
239 -139 0
239 -140 0
239 -141 0
239 -142 0
239 -143 0
239 -144 0
239 -145 0
239 -146 0
239 -147 0
239 -148 0
239 -149 0
239 -150 0
239 -151 0
239 -152 0
239 -167 0
239 -168 0
239 -169 0
239 -170 0
239 -171 0
239 -172 0
239 -173 0
239 -174 0
239 -175 0
239 -176 0
239 -177 0
239 -178 0
239 -179 0
239 -180 0
239 -181 0
239 -182 0
239 -183 0
239 -184 0
239 -185 0
239 -186 0
239 -187 0
239 -188 0
239 -189 0
239 -190 0
239 -205 0
239 -206 0
239 -207 0
239 -208 0
239 -209 0
239 -210 0
239 -211 0
239 -212 0
239 -213 0
239 -214 0
239 -215 0
239 -216 0
239 -217 0
239 -218 0
239 -219 0
239 -220 0
239 -221 0
239 -222 0
239 -223 0
239 -224 0
239 -225 0
239 -226 0
239 -227 0
239 -228 0
239 -243 0
239 -244 0
239 -245 0
239 -246 0
239 -247 0
239 -248 0
239 -249 0
239 -250 0
239 -251 0
239 -252 0
239 -253 0
239 -254 0
239 -255 0
239 -256 0
239 -257 0
239 -258 0
239 -259 0
239 -260 0
239 -261 0
239 -262 0
239 -263 0
239 -264 0
239 -265 0
239 -266 0
239 -281 0
239 -282 0
239 -283 0
239 -284 0
239 -285 0
239 -286 0
239 -287 0
239 -288 0
239 -289 0
239 -290 0
239 -291 0
239 -292 0
239 -293 0
239 -294 0
239 -295 0
239 -296 0
239 -297 0
239 -298 0
239 -299 0
239 -300 0
239 -301 0
239 -302 0
239 -303 0
239 -304 0
239 -319 0
239 -320 0
239 -321 0
239 -322 0
239 -323 0
239 -324 0
239 -325 0
239 -326 0
239 -327 0
239 -328 0
239 -329 0
239 -330 0
239 -331 0
239 -332 0
239 -333 0
239 -334 0
239 -335 0
239 -336 0
239 -337 0
239 -338 0
239 -339 0
239 -340 0
239 -341 0
239 -342 0
239 -357 0
239 -358 0
239 -359 0
239 -360 0
239 -361 0
239 -362 0
239 -363 0
239 -364 0
239 -365 0
239 -366 0
239 -367 0
239 -368 0
239 -369 0
239 -370 0
239 -371 0
239 -372 0
239 -373 0
239 -374 0
239 -375 0
239 -376 0
239 -377 0
239 -378 0
239 -379 0
239 -380 0
239 -395 0
239 -396 0
239 -397 0
239 -398 0
239 -399 0
239 -400 0
239 -401 0
239 -402 0
239 -403 0
239 -404 0
239 -405 0
239 -406 0
239 -407 0
239 -408 0
239 -409 0
239 -410 0
239 -411 0
239 -412 0
239 -413 0
239 -414 0
239 -415 0
239 -416 0
239 -417 0
239 -418 0
239 -573 0
239 -584 0
239 -595 0
239 -606 0
239 -617 0
239 -628 0
239 -639 0
239 -650 0
239 -661 0
239 -672 0
239 -683 0
239 -694 0
239 -705 0
239 -716 0
239 -727 0
239 -738 0
239 -749 0
239 -760 0
239 -771 0
239 -782 0
239 -793 0
239 -804 0
239 -815 0
239 -826 0
239 -574 0
239 -585 0
239 -596 0
239 -607 0
239 -618 0
239 -629 0
239 -640 0
239 -651 0
239 -662 0
239 -673 0
239 -684 0
239 -695 0
239 -706 0
239 -717 0
239 -728 0
239 -739 0
239 -750 0
239 -761 0
239 -772 0
239 -783 0
239 -794 0
239 -805 0
239 -816 0
239 -827 0
239 -575 0
239 -586 0
239 -597 0
239 -608 0
239 -619 0
239 -630 0
239 -641 0
239 -652 0
239 -663 0
239 -674 0
239 -685 0
239 -696 0
239 -707 0
239 -718 0
239 -729 0
239 -740 0
239 -751 0
239 -762 0
239 -773 0
239 -784 0
239 -795 0
239 -806 0
239 -817 0
239 -828 0
239 -576 0
239 -587 0
239 -598 0
239 -609 0
239 -620 0
239 -631 0
239 -642 0
239 -653 0
239 -664 0
239 -675 0
239 -686 0
239 -697 0
239 -708 0
239 -719 0
239 -730 0
239 -741 0
239 -752 0
239 -763 0
239 -774 0
239 -785 0
239 -796 0
239 -807 0
239 -818 0
239 -829 0
239 -577 0
239 -588 0
239 -599 0
239 -610 0
239 -621 0
239 -632 0
239 -643 0
239 -654 0
239 -665 0
239 -676 0
239 -687 0
239 -698 0
239 -709 0
239 -720 0
239 -731 0
239 -742 0
239 -753 0
239 -764 0
239 -775 0
239 -786 0
239 -797 0
239 -808 0
239 -819 0
239 -830 0
239 -578 0
239 -589 0
239 -600 0
239 -611 0
239 -622 0
239 -633 0
239 -644 0
239 -655 0
239 -666 0
239 -677 0
239 -688 0
239 -699 0
239 -710 0
239 -721 0
239 -732 0
239 -743 0
239 -754 0
239 -765 0
239 -776 0
239 -787 0
239 -798 0
239 -809 0
239 -820 0
239 -831 0
239 -579 0
239 -590 0
239 -601 0
239 -612 0
239 -623 0
239 -634 0
239 -645 0
239 -656 0
239 -667 0
239 -678 0
239 -689 0
239 -700 0
239 -711 0
239 -722 0
239 -733 0
239 -744 0
239 -755 0
239 -766 0
239 -777 0
239 -788 0
239 -799 0
239 -810 0
239 -821 0
239 -832 0
239 -580 0
239 -591 0
239 -602 0
239 -613 0
239 -624 0
239 -635 0
239 -646 0
239 -657 0
239 -668 0
239 -679 0
239 -690 0
239 -701 0
239 -712 0
239 -723 0
239 -734 0
239 -745 0
239 -756 0
239 -767 0
239 -778 0
239 -789 0
239 -800 0
239 -811 0
239 -822 0
239 -833 0
239 -581 0
239 -592 0
239 -603 0
239 -614 0
239 -625 0
239 -636 0
239 -647 0
239 -658 0
239 -669 0
239 -680 0
239 -691 0
239 -702 0
239 -713 0
239 -724 0
239 -735 0
239 -746 0
239 -757 0
239 -768 0
239 -779 0
239 -790 0
239 -801 0
239 -812 0
239 -823 0
239 -834 0
239 -582 0
239 -593 0
239 -604 0
239 -615 0
239 -626 0
239 -637 0
239 -648 0
239 -659 0
239 -670 0
239 -681 0
239 -692 0
239 -703 0
239 -714 0
239 -725 0
239 -736 0
239 -747 0
239 -758 0
239 -769 0
239 -780 0
239 -791 0
239 -802 0
239 -813 0
239 -824 0
239 -835 0
239 -583 0
239 -594 0
239 -605 0
239 -616 0
239 -627 0
239 -638 0
239 -649 0
239 -660 0
239 -671 0
239 -682 0
239 -693 0
239 -704 0
239 -715 0
239 -726 0
239 -737 0
239 -748 0
239 -759 0
239 -770 0
239 -781 0
239 -792 0
239 -803 0
239 -814 0
239 -825 0
239 -836 0
800 -1 0
800 -6 0
800 -8 0
800 -39 0
800 -40 0
800 -41 0
800 -42 0
800 -43 0
800 -44 0
800 -45 0
800 -46 0
800 -47 0
800 -48 0
800 -84 0
800 -153 0
800 -154 0
800 -156 0
800 -157 0
800 -160 0
800 -161 0
800 -162 0
800 -200 0
800 -238 0
800 -268 0
800 -270 0
800 -274 0
800 -276 0
800 -277 0
800 -305 0
800 -307 0
800 -308 0
800 -309 0
800 -310 0
800 -312 0
800 -314 0
800 -316 0
800 -344 0
800 -346 0
800 -350 0
800 -352 0
800 -355 0
800 -384 0
800 -388 0
800 -390 0
800 -394 0
800 -422 0
800 -424 0
800 -430 0
800 -431 0
800 -432 0
800 -433 0
800 -441 0
800 -442 0
800 -444 0
800 -445 0
800 -446 0
800 -452 0
800 -453 0
800 -455 0
800 -463 0
800 -464 0
800 -466 0
800 -468 0
800 -477 0
800 -478 0
800 -479 0
800 -485 0
800 -486 0
800 -487 0
800 -488 0
800 -489 0
800 -490 0
800 -499 0
800 -507 0
800 -508 0
800 -509 0
800 -510 0
800 -512 0
800 -518 0
800 -529 0
800 -530 0
800 -531 0
800 -532 0
800 -535 0
800 -536 0
800 -540 0
800 -541 0
800 -543 0
800 -544 0
800 -545 0
800 -548 0
800 -551 0
800 -552 0
800 -553 0
800 -554 0
800 -560 0
800 -562 0
800 -563 0
800 -565 0
800 -572 0
40000 837 0
40000 838 0
40000 839 0
40000 840 0
40000 841 0
40000 842 0
40000 843 0
40000 844 0
40000 845 0
40000 846 0
40000 847 0
40000 848 0
40000 849 0
40000 850 0
6667 851 0
6667 852 0
6667 853 0
6667 854 0
6667 855 0
6667 856 0
6667 857 0
6667 858 0
6667 859 0
6667 860 0
6667 861 0
6667 862 0
6667 863 0
6667 864 0
6667 865 0
6667 866 0
6667 867 0
6667 868 0
6667 869 0
6667 870 0
6667 871 0
6667 872 0
6667 873 0
6667 874 0
h -837 -1 0
h -837 -39 0
h -837 -77 0
h -837 -115 0
h -837 -153 0
h -837 -191 0
h -837 -229 0
h -837 -267 0
h -837 -305 0
h -837 -343 0
h -837 -381 0
h 837 1 39 77 115 153 191 229 267 305 343 381 0
h -838 -2 0
h -838 -40 0
h -838 -78 0
h -838 -116 0
h -838 -154 0
h -838 -192 0
h -838 -230 0
h -838 -268 0
h -838 -306 0
h -838 -344 0
h -838 -382 0
h 838 2 40 78 116 154 192 230 268 306 344 382 0
h -839 -3 0
h -839 -41 0
h -839 -79 0
h -839 -117 0
h -839 -155 0
h -839 -193 0
h -839 -231 0
h -839 -269 0
h -839 -307 0
h -839 -345 0
h -839 -383 0
h 839 3 41 79 117 155 193 231 269 307 345 383 0
h -840 -4 0
h -840 -42 0
h -840 -80 0
h -840 -118 0
h -840 -156 0
h -840 -194 0
h -840 -232 0
h -840 -270 0
h -840 -308 0
h -840 -346 0
h -840 -384 0
h 840 4 42 80 118 156 194 232 270 308 346 384 0
h -841 -5 0
h -841 -43 0
h -841 -81 0
h -841 -119 0
h -841 -157 0
h -841 -195 0
h -841 -233 0
h -841 -271 0
h -841 -309 0
h -841 -347 0
h -841 -385 0
h 841 5 43 81 119 157 195 233 271 309 347 385 0
h -842 -6 0
h -842 -44 0
h -842 -82 0
h -842 -120 0
h -842 -158 0
h -842 -196 0
h -842 -234 0
h -842 -272 0
h -842 -310 0
h -842 -348 0
h -842 -386 0
h 842 6 44 82 120 158 196 234 272 310 348 386 0
h -843 -7 0
h -843 -45 0
h -843 -83 0
h -843 -121 0
h -843 -159 0
h -843 -197 0
h -843 -235 0
h -843 -273 0
h -843 -311 0
h -843 -349 0
h -843 -387 0
h 843 7 45 83 121 159 197 235 273 311 349 387 0
h -844 -8 0
h -844 -46 0
h -844 -84 0
h -844 -122 0
h -844 -160 0
h -844 -198 0
h -844 -236 0
h -844 -274 0
h -844 -312 0
h -844 -350 0
h -844 -388 0
h 844 8 46 84 122 160 198 236 274 312 350 388 0
h -845 -9 0
h -845 -47 0
h -845 -85 0
h -845 -123 0
h -845 -161 0
h -845 -199 0
h -845 -237 0
h -845 -275 0
h -845 -313 0
h -845 -351 0
h -845 -389 0
h 845 9 47 85 123 161 199 237 275 313 351 389 0
h -846 -10 0
h -846 -48 0
h -846 -86 0
h -846 -124 0
h -846 -162 0
h -846 -200 0
h -846 -238 0
h -846 -276 0
h -846 -314 0
h -846 -352 0
h -846 -390 0
h 846 10 48 86 124 162 200 238 276 314 352 390 0
h -847 -11 0
h -847 -49 0
h -847 -87 0
h -847 -125 0
h -847 -163 0
h -847 -201 0
h -847 -239 0
h -847 -277 0
h -847 -315 0
h -847 -353 0
h -847 -391 0
h 847 11 49 87 125 163 201 239 277 315 353 391 0
h -848 -12 0
h -848 -50 0
h -848 -88 0
h -848 -126 0
h -848 -164 0
h -848 -202 0
h -848 -240 0
h -848 -278 0
h -848 -316 0
h -848 -354 0
h -848 -392 0
h 848 12 50 88 126 164 202 240 278 316 354 392 0
h -849 -13 0
h -849 -51 0
h -849 -89 0
h -849 -127 0
h -849 -165 0
h -849 -203 0
h -849 -241 0
h -849 -279 0
h -849 -317 0
h -849 -355 0
h -849 -393 0
h 849 13 51 89 127 165 203 241 279 317 355 393 0
h -850 -14 0
h -850 -52 0
h -850 -90 0
h -850 -128 0
h -850 -166 0
h -850 -204 0
h -850 -242 0
h -850 -280 0
h -850 -318 0
h -850 -356 0
h -850 -394 0
h 850 14 52 90 128 166 204 242 280 318 356 394 0
h -851 -15 0
h -851 -53 0
h -851 -91 0
h -851 -129 0
h -851 -167 0
h -851 -205 0
h -851 -243 0
h -851 -281 0
h -851 -319 0
h -851 -357 0
h -851 -395 0
h 851 15 53 91 129 167 205 243 281 319 357 395 0
h -852 -16 0
h -852 -54 0
h -852 -92 0
h -852 -130 0
h -852 -168 0
h -852 -206 0
h -852 -244 0
h -852 -282 0
h -852 -320 0
h -852 -358 0
h -852 -396 0
h 852 16 54 92 130 168 206 244 282 320 358 396 0
h -853 -17 0
h -853 -55 0
h -853 -93 0
h -853 -131 0
h -853 -169 0
h -853 -207 0
h -853 -245 0
h -853 -283 0
h -853 -321 0
h -853 -359 0
h -853 -397 0
h 853 17 55 93 131 169 207 245 283 321 359 397 0
h -854 -18 0
h -854 -56 0
h -854 -94 0
h -854 -132 0
h -854 -170 0
h -854 -208 0
h -854 -246 0
h -854 -284 0
h -854 -322 0
h -854 -360 0
h -854 -398 0
h 854 18 56 94 132 170 208 246 284 322 360 398 0
h -855 -19 0
h -855 -57 0
h -855 -95 0
h -855 -133 0
h -855 -171 0
h -855 -209 0
h -855 -247 0
h -855 -285 0
h -855 -323 0
h -855 -361 0
h -855 -399 0
h 855 19 57 95 133 171 209 247 285 323 361 399 0
h -856 -20 0
h -856 -58 0
h -856 -96 0
h -856 -134 0
h -856 -172 0
h -856 -210 0
h -856 -248 0
h -856 -286 0
h -856 -324 0
h -856 -362 0
h -856 -400 0
h 856 20 58 96 134 172 210 248 286 324 362 400 0
h -857 -21 0
h -857 -59 0
h -857 -97 0
h -857 -135 0
h -857 -173 0
h -857 -211 0
h -857 -249 0
h -857 -287 0
h -857 -325 0
h -857 -363 0
h -857 -401 0
h 857 21 59 97 135 173 211 249 287 325 363 401 0
h -858 -22 0
h -858 -60 0
h -858 -98 0
h -858 -136 0
h -858 -174 0
h -858 -212 0
h -858 -250 0
h -858 -288 0
h -858 -326 0
h -858 -364 0
h -858 -402 0
h 858 22 60 98 136 174 212 250 288 326 364 402 0
h -859 -23 0
h -859 -61 0
h -859 -99 0
h -859 -137 0
h -859 -175 0
h -859 -213 0
h -859 -251 0
h -859 -289 0
h -859 -327 0
h -859 -365 0
h -859 -403 0
h 859 23 61 99 137 175 213 251 289 327 365 403 0
h -860 -24 0
h -860 -62 0
h -860 -100 0
h -860 -138 0
h -860 -176 0
h -860 -214 0
h -860 -252 0
h -860 -290 0
h -860 -328 0
h -860 -366 0
h -860 -404 0
h 860 24 62 100 138 176 214 252 290 328 366 404 0
h -861 -25 0
h -861 -63 0
h -861 -101 0
h -861 -139 0
h -861 -177 0
h -861 -215 0
h -861 -253 0
h -861 -291 0
h -861 -329 0
h -861 -367 0
h -861 -405 0
h 861 25 63 101 139 177 215 253 291 329 367 405 0
h -862 -26 0
h -862 -64 0
h -862 -102 0
h -862 -140 0
h -862 -178 0
h -862 -216 0
h -862 -254 0
h -862 -292 0
h -862 -330 0
h -862 -368 0
h -862 -406 0
h 862 26 64 102 140 178 216 254 292 330 368 406 0
h -863 -27 0
h -863 -65 0
h -863 -103 0
h -863 -141 0
h -863 -179 0
h -863 -217 0
h -863 -255 0
h -863 -293 0
h -863 -331 0
h -863 -369 0
h -863 -407 0
h 863 27 65 103 141 179 217 255 293 331 369 407 0
h -864 -28 0
h -864 -66 0
h -864 -104 0
h -864 -142 0
h -864 -180 0
h -864 -218 0
h -864 -256 0
h -864 -294 0
h -864 -332 0
h -864 -370 0
h -864 -408 0
h 864 28 66 104 142 180 218 256 294 332 370 408 0
h -865 -29 0
h -865 -67 0
h -865 -105 0
h -865 -143 0
h -865 -181 0
h -865 -219 0
h -865 -257 0
h -865 -295 0
h -865 -333 0
h -865 -371 0
h -865 -409 0
h 865 29 67 105 143 181 219 257 295 333 371 409 0
h -866 -30 0
h -866 -68 0
h -866 -106 0
h -866 -144 0
h -866 -182 0
h -866 -220 0
h -866 -258 0
h -866 -296 0
h -866 -334 0
h -866 -372 0
h -866 -410 0
h 866 30 68 106 144 182 220 258 296 334 372 410 0
h -867 -31 0
h -867 -69 0
h -867 -107 0
h -867 -145 0
h -867 -183 0
h -867 -221 0
h -867 -259 0
h -867 -297 0
h -867 -335 0
h -867 -373 0
h -867 -411 0
h 867 31 69 107 145 183 221 259 297 335 373 411 0
h -868 -32 0
h -868 -70 0
h -868 -108 0
h -868 -146 0
h -868 -184 0
h -868 -222 0
h -868 -260 0
h -868 -298 0
h -868 -336 0
h -868 -374 0
h -868 -412 0
h 868 32 70 108 146 184 222 260 298 336 374 412 0
h -869 -33 0
h -869 -71 0
h -869 -109 0
h -869 -147 0
h -869 -185 0
h -869 -223 0
h -869 -261 0
h -869 -299 0
h -869 -337 0
h -869 -375 0
h -869 -413 0
h 869 33 71 109 147 185 223 261 299 337 375 413 0
h -870 -34 0
h -870 -72 0
h -870 -110 0
h -870 -148 0
h -870 -186 0
h -870 -224 0
h -870 -262 0
h -870 -300 0
h -870 -338 0
h -870 -376 0
h -870 -414 0
h 870 34 72 110 148 186 224 262 300 338 376 414 0
h -871 -35 0
h -871 -73 0
h -871 -111 0
h -871 -149 0
h -871 -187 0
h -871 -225 0
h -871 -263 0
h -871 -301 0
h -871 -339 0
h -871 -377 0
h -871 -415 0
h 871 35 73 111 149 187 225 263 301 339 377 415 0
h -872 -36 0
h -872 -74 0
h -872 -112 0
h -872 -150 0
h -872 -188 0
h -872 -226 0
h -872 -264 0
h -872 -302 0
h -872 -340 0
h -872 -378 0
h -872 -416 0
h 872 36 74 112 150 188 226 264 302 340 378 416 0
h -873 -37 0
h -873 -75 0
h -873 -113 0
h -873 -151 0
h -873 -189 0
h -873 -227 0
h -873 -265 0
h -873 -303 0
h -873 -341 0
h -873 -379 0
h -873 -417 0
h 873 37 75 113 151 189 227 265 303 341 379 417 0
h -874 -38 0
h -874 -76 0
h -874 -114 0
h -874 -152 0
h -874 -190 0
h -874 -228 0
h -874 -266 0
h -874 -304 0
h -874 -342 0
h -874 -380 0
h -874 -418 0
h 874 38 76 114 152 190 228 266 304 342 380 418 0
h 851 -837 0
h 851 -838 0
h 851 -839 0
h 851 -840 0
h 851 -841 0
h 851 -842 0
h 851 -843 0
h 851 -844 0
h 851 -845 0
h 851 -846 0
h 851 -847 0
h 851 -848 0
h 851 -849 0
h 851 -850 0
h 852 -837 0
h 852 -838 0
h 852 -839 0
h 852 -840 0
h 852 -841 0
h 852 -842 0
h 852 -843 0
h 852 -844 0
h 852 -845 0
h 852 -846 0
h 852 -847 0
h 852 -848 0
h 852 -849 0
h 852 -850 0
h 853 -837 0
h 853 -838 0
h 853 -839 0
h 853 -840 0
h 853 -841 0
h 853 -842 0
h 853 -843 0
h 853 -844 0
h 853 -845 0
h 853 -846 0
h 853 -847 0
h 853 -848 0
h 853 -849 0
h 853 -850 0
h 854 -837 0
h 854 -838 0
h 854 -839 0
h 854 -840 0
h 854 -841 0
h 854 -842 0
h 854 -843 0
h 854 -844 0
h 854 -845 0
h 854 -846 0
h 854 -847 0
h 854 -848 0
h 854 -849 0
h 854 -850 0
h 855 -837 0
h 855 -838 0
h 855 -839 0
h 855 -840 0
h 855 -841 0
h 855 -842 0
h 855 -843 0
h 855 -844 0
h 855 -845 0
h 855 -846 0
h 855 -847 0
h 855 -848 0
h 855 -849 0
h 855 -850 0
h 856 -837 0
h 856 -838 0
h 856 -839 0
h 856 -840 0
h 856 -841 0
h 856 -842 0
h 856 -843 0
h 856 -844 0
h 856 -845 0
h 856 -846 0
h 856 -847 0
h 856 -848 0
h 856 -849 0
h 856 -850 0
h 857 -837 0
h 857 -838 0
h 857 -839 0
h 857 -840 0
h 857 -841 0
h 857 -842 0
h 857 -843 0
h 857 -844 0
h 857 -845 0
h 857 -846 0
h 857 -847 0
h 857 -848 0
h 857 -849 0
h 857 -850 0
h 858 -837 0
h 858 -838 0
h 858 -839 0
h 858 -840 0
h 858 -841 0
h 858 -842 0
h 858 -843 0
h 858 -844 0
h 858 -845 0
h 858 -846 0
h 858 -847 0
h 858 -848 0
h 858 -849 0
h 858 -850 0
h 859 -837 0
h 859 -838 0
h 859 -839 0
h 859 -840 0
h 859 -841 0
h 859 -842 0
h 859 -843 0
h 859 -844 0
h 859 -845 0
h 859 -846 0
h 859 -847 0
h 859 -848 0
h 859 -849 0
h 859 -850 0
h 860 -837 0
h 860 -838 0
h 860 -839 0
h 860 -840 0
h 860 -841 0
h 860 -842 0
h 860 -843 0
h 860 -844 0
h 860 -845 0
h 860 -846 0
h 860 -847 0
h 860 -848 0
h 860 -849 0
h 860 -850 0
h 861 -837 0
h 861 -838 0
h 861 -839 0
h 861 -840 0
h 861 -841 0
h 861 -842 0
h 861 -843 0
h 861 -844 0
h 861 -845 0
h 861 -846 0
h 861 -847 0
h 861 -848 0
h 861 -849 0
h 861 -850 0
h 862 -837 0
h 862 -838 0
h 862 -839 0
h 862 -840 0
h 862 -841 0
h 862 -842 0
h 862 -843 0
h 862 -844 0
h 862 -845 0
h 862 -846 0
h 862 -847 0
h 862 -848 0
h 862 -849 0
h 862 -850 0
h 863 -837 0
h 863 -838 0
h 863 -839 0
h 863 -840 0
h 863 -841 0
h 863 -842 0
h 863 -843 0
h 863 -844 0
h 863 -845 0
h 863 -846 0
h 863 -847 0
h 863 -848 0
h 863 -849 0
h 863 -850 0
h 864 -837 0
h 864 -838 0
h 864 -839 0
h 864 -840 0
h 864 -841 0
h 864 -842 0
h 864 -843 0
h 864 -844 0
h 864 -845 0
h 864 -846 0
h 864 -847 0
h 864 -848 0
h 864 -849 0
h 864 -850 0
h 865 -837 0
h 865 -838 0
h 865 -839 0
h 865 -840 0
h 865 -841 0
h 865 -842 0
h 865 -843 0
h 865 -844 0
h 865 -845 0
h 865 -846 0
h 865 -847 0
h 865 -848 0
h 865 -849 0
h 865 -850 0
h 866 -837 0
h 866 -838 0
h 866 -839 0
h 866 -840 0
h 866 -841 0
h 866 -842 0
h 866 -843 0
h 866 -844 0
h 866 -845 0
h 866 -846 0
h 866 -847 0
h 866 -848 0
h 866 -849 0
h 866 -850 0
h 867 -837 0
h 867 -838 0
h 867 -839 0
h 867 -840 0
h 867 -841 0
h 867 -842 0
h 867 -843 0
h 867 -844 0
h 867 -845 0
h 867 -846 0
h 867 -847 0
h 867 -848 0
h 867 -849 0
h 867 -850 0
h 868 -837 0
h 868 -838 0
h 868 -839 0
h 868 -840 0
h 868 -841 0
h 868 -842 0
h 868 -843 0
h 868 -844 0
h 868 -845 0
h 868 -846 0
h 868 -847 0
h 868 -848 0
h 868 -849 0
h 868 -850 0
h 869 -837 0
h 869 -838 0
h 869 -839 0
h 869 -840 0
h 869 -841 0
h 869 -842 0
h 869 -843 0
h 869 -844 0
h 869 -845 0
h 869 -846 0
h 869 -847 0
h 869 -848 0
h 869 -849 0
h 869 -850 0
h 870 -837 0
h 870 -838 0
h 870 -839 0
h 870 -840 0
h 870 -841 0
h 870 -842 0
h 870 -843 0
h 870 -844 0
h 870 -845 0
h 870 -846 0
h 870 -847 0
h 870 -848 0
h 870 -849 0
h 870 -850 0
h 871 -837 0
h 871 -838 0
h 871 -839 0
h 871 -840 0
h 871 -841 0
h 871 -842 0
h 871 -843 0
h 871 -844 0
h 871 -845 0
h 871 -846 0
h 871 -847 0
h 871 -848 0
h 871 -849 0
h 871 -850 0
h 872 -837 0
h 872 -838 0
h 872 -839 0
h 872 -840 0
h 872 -841 0
h 872 -842 0
h 872 -843 0
h 872 -844 0
h 872 -845 0
h 872 -846 0
h 872 -847 0
h 872 -848 0
h 872 -849 0
h 872 -850 0
h 873 -837 0
h 873 -838 0
h 873 -839 0
h 873 -840 0
h 873 -841 0
h 873 -842 0
h 873 -843 0
h 873 -844 0
h 873 -845 0
h 873 -846 0
h 873 -847 0
h 873 -848 0
h 873 -849 0
h 873 -850 0
h 874 -837 0
h 874 -838 0
h 874 -839 0
h 874 -840 0
h 874 -841 0
h 874 -842 0
h 874 -843 0
h 874 -844 0
h 874 -845 0
h 874 -846 0
h 874 -847 0
h 874 -848 0
h 874 -849 0
h 874 -850 0
h 875 876 877 878 879 880 881 882 883 884 885 886 887 888 889 890 891 892 893 894 895 896 897 898 899 900 901 902 903 904 905 906 907 908 909 910 911 912 0
h -875 1 0
h -875 419 0
h 875 -1 -419 0
h -876 2 0
h -876 430 0
h 876 -2 -430 0
h -877 3 0
h -877 441 0
h 877 -3 -441 0
h -878 4 0
h -878 452 0
h 878 -4 -452 0
h -879 5 0
h -879 463 0
h 879 -5 -463 0
h -880 6 0
h -880 474 0
h 880 -6 -474 0
h -881 7 0
h -881 485 0
h 881 -7 -485 0
h -882 8 0
h -882 496 0
h 882 -8 -496 0
h -883 9 0
h -883 507 0
h 883 -9 -507 0
h -884 10 0
h -884 518 0
h 884 -10 -518 0
h -885 11 0
h -885 529 0
h 885 -11 -529 0
h -886 12 0
h -886 540 0
h 886 -12 -540 0
h -887 13 0
h -887 551 0
h 887 -13 -551 0
h -888 14 0
h -888 562 0
h 888 -14 -562 0
h -889 15 0
h -889 573 0
h 889 -15 -573 0
h -890 16 0
h -890 584 0
h 890 -16 -584 0
h -891 17 0
h -891 595 0
h 891 -17 -595 0
h -892 18 0
h -892 606 0
h 892 -18 -606 0
h -893 19 0
h -893 617 0
h 893 -19 -617 0
h -894 20 0
h -894 628 0
h 894 -20 -628 0
h -895 21 0
h -895 639 0
h 895 -21 -639 0
h -896 22 0
h -896 650 0
h 896 -22 -650 0
h -897 23 0
h -897 661 0
h 897 -23 -661 0
h -898 24 0
h -898 672 0
h 898 -24 -672 0
h -899 25 0
h -899 683 0
h 899 -25 -683 0
h -900 26 0
h -900 694 0
h 900 -26 -694 0
h -901 27 0
h -901 705 0
h 901 -27 -705 0
h -902 28 0
h -902 716 0
h 902 -28 -716 0
h -903 29 0
h -903 727 0
h 903 -29 -727 0
h -904 30 0
h -904 738 0
h 904 -30 -738 0
h -905 31 0
h -905 749 0
h 905 -31 -749 0
h -906 32 0
h -906 760 0
h 906 -32 -760 0
h -907 33 0
h -907 771 0
h 907 -33 -771 0
h -908 34 0
h -908 782 0
h 908 -34 -782 0
h -909 35 0
h -909 793 0
h 909 -35 -793 0
h -910 36 0
h -910 804 0
h 910 -36 -804 0
h -911 37 0
h -911 815 0
h 911 -37 -815 0
h -912 38 0
h -912 826 0
h 912 -38 -826 0
h 913 914 915 916 917 918 919 920 921 922 923 924 925 926 927 928 929 930 931 932 933 934 935 936 937 938 939 940 941 942 943 944 945 946 947 948 949 950 0
h -913 1 0
h -913 420 0
h 913 -1 -420 0
h -914 2 0
h -914 431 0
h 914 -2 -431 0
h -915 3 0
h -915 442 0
h 915 -3 -442 0
h -916 4 0
h -916 453 0
h 916 -4 -453 0
h -917 5 0
h -917 464 0
h 917 -5 -464 0
h -918 6 0
h -918 475 0
h 918 -6 -475 0
h -919 7 0
h -919 486 0
h 919 -7 -486 0
h -920 8 0
h -920 497 0
h 920 -8 -497 0
h -921 9 0
h -921 508 0
h 921 -9 -508 0
h -922 10 0
h -922 519 0
h 922 -10 -519 0
h -923 11 0
h -923 530 0
h 923 -11 -530 0
h -924 12 0
h -924 541 0
h 924 -12 -541 0
h -925 13 0
h -925 552 0
h 925 -13 -552 0
h -926 14 0
h -926 563 0
h 926 -14 -563 0
h -927 15 0
h -927 574 0
h 927 -15 -574 0
h -928 16 0
h -928 585 0
h 928 -16 -585 0
h -929 17 0
h -929 596 0
h 929 -17 -596 0
h -930 18 0
h -930 607 0
h 930 -18 -607 0
h -931 19 0
h -931 618 0
h 931 -19 -618 0
h -932 20 0
h -932 629 0
h 932 -20 -629 0
h -933 21 0
h -933 640 0
h 933 -21 -640 0
h -934 22 0
h -934 651 0
h 934 -22 -651 0
h -935 23 0
h -935 662 0
h 935 -23 -662 0
h -936 24 0
h -936 673 0
h 936 -24 -673 0
h -937 25 0
h -937 684 0
h 937 -25 -684 0
h -938 26 0
h -938 695 0
h 938 -26 -695 0
h -939 27 0
h -939 706 0
h 939 -27 -706 0
h -940 28 0
h -940 717 0
h 940 -28 -717 0
h -941 29 0
h -941 728 0
h 941 -29 -728 0
h -942 30 0
h -942 739 0
h 942 -30 -739 0
h -943 31 0
h -943 750 0
h 943 -31 -750 0
h -944 32 0
h -944 761 0
h 944 -32 -761 0
h -945 33 0
h -945 772 0
h 945 -33 -772 0
h -946 34 0
h -946 783 0
h 946 -34 -783 0
h -947 35 0
h -947 794 0
h 947 -35 -794 0
h -948 36 0
h -948 805 0
h 948 -36 -805 0
h -949 37 0
h -949 816 0
h 949 -37 -816 0
h -950 38 0
h -950 827 0
h 950 -38 -827 0
h 951 952 953 954 955 956 957 958 959 960 961 962 963 964 965 966 967 968 969 970 971 972 973 974 975 976 977 978 979 980 981 982 983 984 985 986 987 988 0
h -951 1 0
h -951 421 0
h 951 -1 -421 0
h -952 2 0
h -952 432 0
h 952 -2 -432 0
h -953 3 0
h -953 443 0
h 953 -3 -443 0
h -954 4 0
h -954 454 0
h 954 -4 -454 0
h -955 5 0
h -955 465 0
h 955 -5 -465 0
h -956 6 0
h -956 476 0
h 956 -6 -476 0
h -957 7 0
h -957 487 0
h 957 -7 -487 0
h -958 8 0
h -958 498 0
h 958 -8 -498 0
h -959 9 0
h -959 509 0
h 959 -9 -509 0
h -960 10 0
h -960 520 0
h 960 -10 -520 0
h -961 11 0
h -961 531 0
h 961 -11 -531 0
h -962 12 0
h -962 542 0
h 962 -12 -542 0
h -963 13 0
h -963 553 0
h 963 -13 -553 0
h -964 14 0
h -964 564 0
h 964 -14 -564 0
h -965 15 0
h -965 575 0
h 965 -15 -575 0
h -966 16 0
h -966 586 0
h 966 -16 -586 0
h -967 17 0
h -967 597 0
h 967 -17 -597 0
h -968 18 0
h -968 608 0
h 968 -18 -608 0
h -969 19 0
h -969 619 0
h 969 -19 -619 0
h -970 20 0
h -970 630 0
h 970 -20 -630 0
h -971 21 0
h -971 641 0
h 971 -21 -641 0
h -972 22 0
h -972 652 0
h 972 -22 -652 0
h -973 23 0
h -973 663 0
h 973 -23 -663 0
h -974 24 0
h -974 674 0
h 974 -24 -674 0
h -975 25 0
h -975 685 0
h 975 -25 -685 0
h -976 26 0
h -976 696 0
h 976 -26 -696 0
h -977 27 0
h -977 707 0
h 977 -27 -707 0
h -978 28 0
h -978 718 0
h 978 -28 -718 0
h -979 29 0
h -979 729 0
h 979 -29 -729 0
h -980 30 0
h -980 740 0
h 980 -30 -740 0
h -981 31 0
h -981 751 0
h 981 -31 -751 0
h -982 32 0
h -982 762 0
h 982 -32 -762 0
h -983 33 0
h -983 773 0
h 983 -33 -773 0
h -984 34 0
h -984 784 0
h 984 -34 -784 0
h -985 35 0
h -985 795 0
h 985 -35 -795 0
h -986 36 0
h -986 806 0
h 986 -36 -806 0
h -987 37 0
h -987 817 0
h 987 -37 -817 0
h -988 38 0
h -988 828 0
h 988 -38 -828 0
h 989 990 991 992 993 994 995 996 997 998 999 1000 1001 1002 1003 1004 1005 1006 1007 1008 1009 1010 1011 1012 1013 1014 1015 1016 1017 1018 1019 1020 1021 1022 1023 1024 1025 1026 0
h -989 1 0
h -989 422 0
h 989 -1 -422 0
h -990 2 0
h -990 433 0
h 990 -2 -433 0
h -991 3 0
h -991 444 0
h 991 -3 -444 0
h -992 4 0
h -992 455 0
h 992 -4 -455 0
h -993 5 0
h -993 466 0
h 993 -5 -466 0
h -994 6 0
h -994 477 0
h 994 -6 -477 0
h -995 7 0
h -995 488 0
h 995 -7 -488 0
h -996 8 0
h -996 499 0
h 996 -8 -499 0
h -997 9 0
h -997 510 0
h 997 -9 -510 0
h -998 10 0
h -998 521 0
h 998 -10 -521 0
h -999 11 0
h -999 532 0
h 999 -11 -532 0
h -1000 12 0
h -1000 543 0
h 1000 -12 -543 0
h -1001 13 0
h -1001 554 0
h 1001 -13 -554 0
h -1002 14 0
h -1002 565 0
h 1002 -14 -565 0
h -1003 15 0
h -1003 576 0
h 1003 -15 -576 0
h -1004 16 0
h -1004 587 0
h 1004 -16 -587 0
h -1005 17 0
h -1005 598 0
h 1005 -17 -598 0
h -1006 18 0
h -1006 609 0
h 1006 -18 -609 0
h -1007 19 0
h -1007 620 0
h 1007 -19 -620 0
h -1008 20 0
h -1008 631 0
h 1008 -20 -631 0
h -1009 21 0
h -1009 642 0
h 1009 -21 -642 0
h -1010 22 0
h -1010 653 0
h 1010 -22 -653 0
h -1011 23 0
h -1011 664 0
h 1011 -23 -664 0
h -1012 24 0
h -1012 675 0
h 1012 -24 -675 0
h -1013 25 0
h -1013 686 0
h 1013 -25 -686 0
h -1014 26 0
h -1014 697 0
h 1014 -26 -697 0
h -1015 27 0
h -1015 708 0
h 1015 -27 -708 0
h -1016 28 0
h -1016 719 0
h 1016 -28 -719 0
h -1017 29 0
h -1017 730 0
h 1017 -29 -730 0
h -1018 30 0
h -1018 741 0
h 1018 -30 -741 0
h -1019 31 0
h -1019 752 0
h 1019 -31 -752 0
h -1020 32 0
h -1020 763 0
h 1020 -32 -763 0
h -1021 33 0
h -1021 774 0
h 1021 -33 -774 0
h -1022 34 0
h -1022 785 0
h 1022 -34 -785 0
h -1023 35 0
h -1023 796 0
h 1023 -35 -796 0
h -1024 36 0
h -1024 807 0
h 1024 -36 -807 0
h -1025 37 0
h -1025 818 0
h 1025 -37 -818 0
h -1026 38 0
h -1026 829 0
h 1026 -38 -829 0
h 1027 1028 1029 1030 1031 1032 1033 1034 1035 1036 1037 1038 1039 1040 1041 1042 1043 1044 1045 1046 1047 1048 1049 1050 1051 1052 1053 1054 1055 1056 1057 1058 1059 1060 1061 1062 1063 1064 0
h -1027 1 0
h -1027 423 0
h 1027 -1 -423 0
h -1028 2 0
h -1028 434 0
h 1028 -2 -434 0
h -1029 3 0
h -1029 445 0
h 1029 -3 -445 0
h -1030 4 0
h -1030 456 0
h 1030 -4 -456 0
h -1031 5 0
h -1031 467 0
h 1031 -5 -467 0
h -1032 6 0
h -1032 478 0
h 1032 -6 -478 0
h -1033 7 0
h -1033 489 0
h 1033 -7 -489 0
h -1034 8 0
h -1034 500 0
h 1034 -8 -500 0
h -1035 9 0
h -1035 511 0
h 1035 -9 -511 0
h -1036 10 0
h -1036 522 0
h 1036 -10 -522 0
h -1037 11 0
h -1037 533 0
h 1037 -11 -533 0
h -1038 12 0
h -1038 544 0
h 1038 -12 -544 0
h -1039 13 0
h -1039 555 0
h 1039 -13 -555 0
h -1040 14 0
h -1040 566 0
h 1040 -14 -566 0
h -1041 15 0
h -1041 577 0
h 1041 -15 -577 0
h -1042 16 0
h -1042 588 0
h 1042 -16 -588 0
h -1043 17 0
h -1043 599 0
h 1043 -17 -599 0
h -1044 18 0
h -1044 610 0
h 1044 -18 -610 0
h -1045 19 0
h -1045 621 0
h 1045 -19 -621 0
h -1046 20 0
h -1046 632 0
h 1046 -20 -632 0
h -1047 21 0
h -1047 643 0
h 1047 -21 -643 0
h -1048 22 0
h -1048 654 0
h 1048 -22 -654 0
h -1049 23 0
h -1049 665 0
h 1049 -23 -665 0
h -1050 24 0
h -1050 676 0
h 1050 -24 -676 0
h -1051 25 0
h -1051 687 0
h 1051 -25 -687 0
h -1052 26 0
h -1052 698 0
h 1052 -26 -698 0
h -1053 27 0
h -1053 709 0
h 1053 -27 -709 0
h -1054 28 0
h -1054 720 0
h 1054 -28 -720 0
h -1055 29 0
h -1055 731 0
h 1055 -29 -731 0
h -1056 30 0
h -1056 742 0
h 1056 -30 -742 0
h -1057 31 0
h -1057 753 0
h 1057 -31 -753 0
h -1058 32 0
h -1058 764 0
h 1058 -32 -764 0
h -1059 33 0
h -1059 775 0
h 1059 -33 -775 0
h -1060 34 0
h -1060 786 0
h 1060 -34 -786 0
h -1061 35 0
h -1061 797 0
h 1061 -35 -797 0
h -1062 36 0
h -1062 808 0
h 1062 -36 -808 0
h -1063 37 0
h -1063 819 0
h 1063 -37 -819 0
h -1064 38 0
h -1064 830 0
h 1064 -38 -830 0
h 1065 1066 1067 1068 1069 1070 1071 1072 1073 1074 1075 1076 1077 1078 1079 1080 1081 1082 1083 1084 1085 1086 1087 1088 1089 1090 1091 1092 1093 1094 1095 1096 1097 1098 1099 1100 1101 1102 0
h -1065 1 0
h -1065 424 0
h 1065 -1 -424 0
h -1066 2 0
h -1066 435 0
h 1066 -2 -435 0
h -1067 3 0
h -1067 446 0
h 1067 -3 -446 0
h -1068 4 0
h -1068 457 0
h 1068 -4 -457 0
h -1069 5 0
h -1069 468 0
h 1069 -5 -468 0
h -1070 6 0
h -1070 479 0
h 1070 -6 -479 0
h -1071 7 0
h -1071 490 0
h 1071 -7 -490 0
h -1072 8 0
h -1072 501 0
h 1072 -8 -501 0
h -1073 9 0
h -1073 512 0
h 1073 -9 -512 0
h -1074 10 0
h -1074 523 0
h 1074 -10 -523 0
h -1075 11 0
h -1075 534 0
h 1075 -11 -534 0
h -1076 12 0
h -1076 545 0
h 1076 -12 -545 0
h -1077 13 0
h -1077 556 0
h 1077 -13 -556 0
h -1078 14 0
h -1078 567 0
h 1078 -14 -567 0
h -1079 15 0
h -1079 578 0
h 1079 -15 -578 0
h -1080 16 0
h -1080 589 0
h 1080 -16 -589 0
h -1081 17 0
h -1081 600 0
h 1081 -17 -600 0
h -1082 18 0
h -1082 611 0
h 1082 -18 -611 0
h -1083 19 0
h -1083 622 0
h 1083 -19 -622 0
h -1084 20 0
h -1084 633 0
h 1084 -20 -633 0
h -1085 21 0
h -1085 644 0
h 1085 -21 -644 0
h -1086 22 0
h -1086 655 0
h 1086 -22 -655 0
h -1087 23 0
h -1087 666 0
h 1087 -23 -666 0
h -1088 24 0
h -1088 677 0
h 1088 -24 -677 0
h -1089 25 0
h -1089 688 0
h 1089 -25 -688 0
h -1090 26 0
h -1090 699 0
h 1090 -26 -699 0
h -1091 27 0
h -1091 710 0
h 1091 -27 -710 0
h -1092 28 0
h -1092 721 0
h 1092 -28 -721 0
h -1093 29 0
h -1093 732 0
h 1093 -29 -732 0
h -1094 30 0
h -1094 743 0
h 1094 -30 -743 0
h -1095 31 0
h -1095 754 0
h 1095 -31 -754 0
h -1096 32 0
h -1096 765 0
h 1096 -32 -765 0
h -1097 33 0
h -1097 776 0
h 1097 -33 -776 0
h -1098 34 0
h -1098 787 0
h 1098 -34 -787 0
h -1099 35 0
h -1099 798 0
h 1099 -35 -798 0
h -1100 36 0
h -1100 809 0
h 1100 -36 -809 0
h -1101 37 0
h -1101 820 0
h 1101 -37 -820 0
h -1102 38 0
h -1102 831 0
h 1102 -38 -831 0
h -1 -425 0
h -2 -436 0
h -3 -447 0
h -4 -458 0
h -5 -469 0
h -6 -480 0
h -7 -491 0
h -8 -502 0
h -9 -513 0
h -10 -524 0
h -11 -535 0
h -12 -546 0
h -13 -557 0
h -14 -568 0
h -15 -579 0
h -16 -590 0
h -17 -601 0
h -18 -612 0
h -19 -623 0
h -20 -634 0
h -21 -645 0
h -22 -656 0
h -23 -667 0
h -24 -678 0
h -25 -689 0
h -26 -700 0
h -27 -711 0
h -28 -722 0
h -29 -733 0
h -30 -744 0
h -31 -755 0
h -32 -766 0
h -33 -777 0
h -34 -788 0
h -35 -799 0
h -36 -810 0
h -37 -821 0
h -38 -832 0
h -1 -426 0
h -2 -437 0
h -3 -448 0
h -4 -459 0
h -5 -470 0
h -6 -481 0
h -7 -492 0
h -8 -503 0
h -9 -514 0
h -10 -525 0
h -11 -536 0
h -12 -547 0
h -13 -558 0
h -14 -569 0
h -15 -580 0
h -16 -591 0
h -17 -602 0
h -18 -613 0
h -19 -624 0
h -20 -635 0
h -21 -646 0
h -22 -657 0
h -23 -668 0
h -24 -679 0
h -25 -690 0
h -26 -701 0
h -27 -712 0
h -28 -723 0
h -29 -734 0
h -30 -745 0
h -31 -756 0
h -32 -767 0
h -33 -778 0
h -34 -789 0
h -35 -800 0
h -36 -811 0
h -37 -822 0
h -38 -833 0
h -1 -427 0
h -2 -438 0
h -3 -449 0
h -4 -460 0
h -5 -471 0
h -6 -482 0
h -7 -493 0
h -8 -504 0
h -9 -515 0
h -10 -526 0
h -11 -537 0
h -12 -548 0
h -13 -559 0
h -14 -570 0
h -15 -581 0
h -16 -592 0
h -17 -603 0
h -18 -614 0
h -19 -625 0
h -20 -636 0
h -21 -647 0
h -22 -658 0
h -23 -669 0
h -24 -680 0
h -25 -691 0
h -26 -702 0
h -27 -713 0
h -28 -724 0
h -29 -735 0
h -30 -746 0
h -31 -757 0
h -32 -768 0
h -33 -779 0
h -34 -790 0
h -35 -801 0
h -36 -812 0
h -37 -823 0
h -38 -834 0
h -1 -428 0
h -2 -439 0
h -3 -450 0
h -4 -461 0
h -5 -472 0
h -6 -483 0
h -7 -494 0
h -8 -505 0
h -9 -516 0
h -10 -527 0
h -11 -538 0
h -12 -549 0
h -13 -560 0
h -14 -571 0
h -15 -582 0
h -16 -593 0
h -17 -604 0
h -18 -615 0
h -19 -626 0
h -20 -637 0
h -21 -648 0
h -22 -659 0
h -23 -670 0
h -24 -681 0
h -25 -692 0
h -26 -703 0
h -27 -714 0
h -28 -725 0
h -29 -736 0
h -30 -747 0
h -31 -758 0
h -32 -769 0
h -33 -780 0
h -34 -791 0
h -35 -802 0
h -36 -813 0
h -37 -824 0
h -38 -835 0
h -1 -429 0
h -2 -440 0
h -3 -451 0
h -4 -462 0
h -5 -473 0
h -6 -484 0
h -7 -495 0
h -8 -506 0
h -9 -517 0
h -10 -528 0
h -11 -539 0
h -12 -550 0
h -13 -561 0
h -14 -572 0
h -15 -583 0
h -16 -594 0
h -17 -605 0
h -18 -616 0
h -19 -627 0
h -20 -638 0
h -21 -649 0
h -22 -660 0
h -23 -671 0
h -24 -682 0
h -25 -693 0
h -26 -704 0
h -27 -715 0
h -28 -726 0
h -29 -737 0
h -30 -748 0
h -31 -759 0
h -32 -770 0
h -33 -781 0
h -34 -792 0
h -35 -803 0
h -36 -814 0
h -37 -825 0
h -38 -836 0
h -39 -419 0
h -40 -430 0
h -41 -441 0
h -42 -452 0
h -43 -463 0
h -44 -474 0
h -45 -485 0
h -46 -496 0
h -47 -507 0
h -48 -518 0
h -49 -529 0
h -50 -540 0
h -51 -551 0
h -52 -562 0
h -53 -573 0
h -54 -584 0
h -55 -595 0
h -56 -606 0
h -57 -617 0
h -58 -628 0
h -59 -639 0
h -60 -650 0
h -61 -661 0
h -62 -672 0
h -63 -683 0
h -64 -694 0
h -65 -705 0
h -66 -716 0
h -67 -727 0
h -68 -738 0
h -69 -749 0
h -70 -760 0
h -71 -771 0
h -72 -782 0
h -73 -793 0
h -74 -804 0
h -75 -815 0
h -76 -826 0
h 1103 1104 1105 1106 1107 1108 1109 1110 1111 1112 1113 1114 1115 1116 1117 1118 1119 1120 1121 1122 1123 1124 1125 1126 1127 1128 1129 1130 1131 1132 1133 1134 1135 1136 1137 1138 1139 1140 0
h -1103 39 0
h -1103 420 0
h 1103 -39 -420 0
h -1104 40 0
h -1104 431 0
h 1104 -40 -431 0
h -1105 41 0
h -1105 442 0
h 1105 -41 -442 0
h -1106 42 0
h -1106 453 0
h 1106 -42 -453 0
h -1107 43 0
h -1107 464 0
h 1107 -43 -464 0
h -1108 44 0
h -1108 475 0
h 1108 -44 -475 0
h -1109 45 0
h -1109 486 0
h 1109 -45 -486 0
h -1110 46 0
h -1110 497 0
h 1110 -46 -497 0
h -1111 47 0
h -1111 508 0
h 1111 -47 -508 0
h -1112 48 0
h -1112 519 0
h 1112 -48 -519 0
h -1113 49 0
h -1113 530 0
h 1113 -49 -530 0
h -1114 50 0
h -1114 541 0
h 1114 -50 -541 0
h -1115 51 0
h -1115 552 0
h 1115 -51 -552 0
h -1116 52 0
h -1116 563 0
h 1116 -52 -563 0
h -1117 53 0
h -1117 574 0
h 1117 -53 -574 0
h -1118 54 0
h -1118 585 0
h 1118 -54 -585 0
h -1119 55 0
h -1119 596 0
h 1119 -55 -596 0
h -1120 56 0
h -1120 607 0
h 1120 -56 -607 0
h -1121 57 0
h -1121 618 0
h 1121 -57 -618 0
h -1122 58 0
h -1122 629 0
h 1122 -58 -629 0
h -1123 59 0
h -1123 640 0
h 1123 -59 -640 0
h -1124 60 0
h -1124 651 0
h 1124 -60 -651 0
h -1125 61 0
h -1125 662 0
h 1125 -61 -662 0
h -1126 62 0
h -1126 673 0
h 1126 -62 -673 0
h -1127 63 0
h -1127 684 0
h 1127 -63 -684 0
h -1128 64 0
h -1128 695 0
h 1128 -64 -695 0
h -1129 65 0
h -1129 706 0
h 1129 -65 -706 0
h -1130 66 0
h -1130 717 0
h 1130 -66 -717 0
h -1131 67 0
h -1131 728 0
h 1131 -67 -728 0
h -1132 68 0
h -1132 739 0
h 1132 -68 -739 0
h -1133 69 0
h -1133 750 0
h 1133 -69 -750 0
h -1134 70 0
h -1134 761 0
h 1134 -70 -761 0
h -1135 71 0
h -1135 772 0
h 1135 -71 -772 0
h -1136 72 0
h -1136 783 0
h 1136 -72 -783 0
h -1137 73 0
h -1137 794 0
h 1137 -73 -794 0
h -1138 74 0
h -1138 805 0
h 1138 -74 -805 0
h -1139 75 0
h -1139 816 0
h 1139 -75 -816 0
h -1140 76 0
h -1140 827 0
h 1140 -76 -827 0
h -39 -421 0
h -40 -432 0
h -41 -443 0
h -42 -454 0
h -43 -465 0
h -44 -476 0
h -45 -487 0
h -46 -498 0
h -47 -509 0
h -48 -520 0
h -49 -531 0
h -50 -542 0
h -51 -553 0
h -52 -564 0
h -53 -575 0
h -54 -586 0
h -55 -597 0
h -56 -608 0
h -57 -619 0
h -58 -630 0
h -59 -641 0
h -60 -652 0
h -61 -663 0
h -62 -674 0
h -63 -685 0
h -64 -696 0
h -65 -707 0
h -66 -718 0
h -67 -729 0
h -68 -740 0
h -69 -751 0
h -70 -762 0
h -71 -773 0
h -72 -784 0
h -73 -795 0
h -74 -806 0
h -75 -817 0
h -76 -828 0
h 1141 1142 1143 1144 1145 1146 1147 1148 1149 1150 1151 1152 1153 1154 1155 1156 1157 1158 1159 1160 1161 1162 1163 1164 1165 1166 1167 1168 1169 1170 1171 1172 1173 1174 1175 1176 1177 1178 0
h -1141 39 0
h -1141 422 0
h 1141 -39 -422 0
h -1142 40 0
h -1142 433 0
h 1142 -40 -433 0
h -1143 41 0
h -1143 444 0
h 1143 -41 -444 0
h -1144 42 0
h -1144 455 0
h 1144 -42 -455 0
h -1145 43 0
h -1145 466 0
h 1145 -43 -466 0
h -1146 44 0
h -1146 477 0
h 1146 -44 -477 0
h -1147 45 0
h -1147 488 0
h 1147 -45 -488 0
h -1148 46 0
h -1148 499 0
h 1148 -46 -499 0
h -1149 47 0
h -1149 510 0
h 1149 -47 -510 0
h -1150 48 0
h -1150 521 0
h 1150 -48 -521 0
h -1151 49 0
h -1151 532 0
h 1151 -49 -532 0
h -1152 50 0
h -1152 543 0
h 1152 -50 -543 0
h -1153 51 0
h -1153 554 0
h 1153 -51 -554 0
h -1154 52 0
h -1154 565 0
h 1154 -52 -565 0
h -1155 53 0
h -1155 576 0
h 1155 -53 -576 0
h -1156 54 0
h -1156 587 0
h 1156 -54 -587 0
h -1157 55 0
h -1157 598 0
h 1157 -55 -598 0
h -1158 56 0
h -1158 609 0
h 1158 -56 -609 0
h -1159 57 0
h -1159 620 0
h 1159 -57 -620 0
h -1160 58 0
h -1160 631 0
h 1160 -58 -631 0
h -1161 59 0
h -1161 642 0
h 1161 -59 -642 0
h -1162 60 0
h -1162 653 0
h 1162 -60 -653 0
h -1163 61 0
h -1163 664 0
h 1163 -61 -664 0
h -1164 62 0
h -1164 675 0
h 1164 -62 -675 0
h -1165 63 0
h -1165 686 0
h 1165 -63 -686 0
h -1166 64 0
h -1166 697 0
h 1166 -64 -697 0
h -1167 65 0
h -1167 708 0
h 1167 -65 -708 0
h -1168 66 0
h -1168 719 0
h 1168 -66 -719 0
h -1169 67 0
h -1169 730 0
h 1169 -67 -730 0
h -1170 68 0
h -1170 741 0
h 1170 -68 -741 0
h -1171 69 0
h -1171 752 0
h 1171 -69 -752 0
h -1172 70 0
h -1172 763 0
h 1172 -70 -763 0
h -1173 71 0
h -1173 774 0
h 1173 -71 -774 0
h -1174 72 0
h -1174 785 0
h 1174 -72 -785 0
h -1175 73 0
h -1175 796 0
h 1175 -73 -796 0
h -1176 74 0
h -1176 807 0
h 1176 -74 -807 0
h -1177 75 0
h -1177 818 0
h 1177 -75 -818 0
h -1178 76 0
h -1178 829 0
h 1178 -76 -829 0
h 1179 1180 1181 1182 1183 1184 1185 1186 1187 1188 1189 1190 1191 1192 1193 1194 1195 1196 1197 1198 1199 1200 1201 1202 1203 1204 1205 1206 1207 1208 1209 1210 1211 1212 1213 1214 1215 1216 0
h -1179 39 0
h -1179 423 0
h 1179 -39 -423 0
h -1180 40 0
h -1180 434 0
h 1180 -40 -434 0
h -1181 41 0
h -1181 445 0
h 1181 -41 -445 0
h -1182 42 0
h -1182 456 0
h 1182 -42 -456 0
h -1183 43 0
h -1183 467 0
h 1183 -43 -467 0
h -1184 44 0
h -1184 478 0
h 1184 -44 -478 0
h -1185 45 0
h -1185 489 0
h 1185 -45 -489 0
h -1186 46 0
h -1186 500 0
h 1186 -46 -500 0
h -1187 47 0
h -1187 511 0
h 1187 -47 -511 0
h -1188 48 0
h -1188 522 0
h 1188 -48 -522 0
h -1189 49 0
h -1189 533 0
h 1189 -49 -533 0
h -1190 50 0
h -1190 544 0
h 1190 -50 -544 0
h -1191 51 0
h -1191 555 0
h 1191 -51 -555 0
h -1192 52 0
h -1192 566 0
h 1192 -52 -566 0
h -1193 53 0
h -1193 577 0
h 1193 -53 -577 0
h -1194 54 0
h -1194 588 0
h 1194 -54 -588 0
h -1195 55 0
h -1195 599 0
h 1195 -55 -599 0
h -1196 56 0
h -1196 610 0
h 1196 -56 -610 0
h -1197 57 0
h -1197 621 0
h 1197 -57 -621 0
h -1198 58 0
h -1198 632 0
h 1198 -58 -632 0
h -1199 59 0
h -1199 643 0
h 1199 -59 -643 0
h -1200 60 0
h -1200 654 0
h 1200 -60 -654 0
h -1201 61 0
h -1201 665 0
h 1201 -61 -665 0
h -1202 62 0
h -1202 676 0
h 1202 -62 -676 0
h -1203 63 0
h -1203 687 0
h 1203 -63 -687 0
h -1204 64 0
h -1204 698 0
h 1204 -64 -698 0
h -1205 65 0
h -1205 709 0
h 1205 -65 -709 0
h -1206 66 0
h -1206 720 0
h 1206 -66 -720 0
h -1207 67 0
h -1207 731 0
h 1207 -67 -731 0
h -1208 68 0
h -1208 742 0
h 1208 -68 -742 0
h -1209 69 0
h -1209 753 0
h 1209 -69 -753 0
h -1210 70 0
h -1210 764 0
h 1210 -70 -764 0
h -1211 71 0
h -1211 775 0
h 1211 -71 -775 0
h -1212 72 0
h -1212 786 0
h 1212 -72 -786 0
h -1213 73 0
h -1213 797 0
h 1213 -73 -797 0
h -1214 74 0
h -1214 808 0
h 1214 -74 -808 0
h -1215 75 0
h -1215 819 0
h 1215 -75 -819 0
h -1216 76 0
h -1216 830 0
h 1216 -76 -830 0
h -39 -424 0
h -40 -435 0
h -41 -446 0
h -42 -457 0
h -43 -468 0
h -44 -479 0
h -45 -490 0
h -46 -501 0
h -47 -512 0
h -48 -523 0
h -49 -534 0
h -50 -545 0
h -51 -556 0
h -52 -567 0
h -53 -578 0
h -54 -589 0
h -55 -600 0
h -56 -611 0
h -57 -622 0
h -58 -633 0
h -59 -644 0
h -60 -655 0
h -61 -666 0
h -62 -677 0
h -63 -688 0
h -64 -699 0
h -65 -710 0
h -66 -721 0
h -67 -732 0
h -68 -743 0
h -69 -754 0
h -70 -765 0
h -71 -776 0
h -72 -787 0
h -73 -798 0
h -74 -809 0
h -75 -820 0
h -76 -831 0
h -39 -425 0
h -40 -436 0
h -41 -447 0
h -42 -458 0
h -43 -469 0
h -44 -480 0
h -45 -491 0
h -46 -502 0
h -47 -513 0
h -48 -524 0
h -49 -535 0
h -50 -546 0
h -51 -557 0
h -52 -568 0
h -53 -579 0
h -54 -590 0
h -55 -601 0
h -56 -612 0
h -57 -623 0
h -58 -634 0
h -59 -645 0
h -60 -656 0
h -61 -667 0
h -62 -678 0
h -63 -689 0
h -64 -700 0
h -65 -711 0
h -66 -722 0
h -67 -733 0
h -68 -744 0
h -69 -755 0
h -70 -766 0
h -71 -777 0
h -72 -788 0
h -73 -799 0
h -74 -810 0
h -75 -821 0
h -76 -832 0
h -39 -426 0
h -40 -437 0
h -41 -448 0
h -42 -459 0
h -43 -470 0
h -44 -481 0
h -45 -492 0
h -46 -503 0
h -47 -514 0
h -48 -525 0
h -49 -536 0
h -50 -547 0
h -51 -558 0
h -52 -569 0
h -53 -580 0
h -54 -591 0
h -55 -602 0
h -56 -613 0
h -57 -624 0
h -58 -635 0
h -59 -646 0
h -60 -657 0
h -61 -668 0
h -62 -679 0
h -63 -690 0
h -64 -701 0
h -65 -712 0
h -66 -723 0
h -67 -734 0
h -68 -745 0
h -69 -756 0
h -70 -767 0
h -71 -778 0
h -72 -789 0
h -73 -800 0
h -74 -811 0
h -75 -822 0
h -76 -833 0
h -39 -427 0
h -40 -438 0
h -41 -449 0
h -42 -460 0
h -43 -471 0
h -44 -482 0
h -45 -493 0
h -46 -504 0
h -47 -515 0
h -48 -526 0
h -49 -537 0
h -50 -548 0
h -51 -559 0
h -52 -570 0
h -53 -581 0
h -54 -592 0
h -55 -603 0
h -56 -614 0
h -57 -625 0
h -58 -636 0
h -59 -647 0
h -60 -658 0
h -61 -669 0
h -62 -680 0
h -63 -691 0
h -64 -702 0
h -65 -713 0
h -66 -724 0
h -67 -735 0
h -68 -746 0
h -69 -757 0
h -70 -768 0
h -71 -779 0
h -72 -790 0
h -73 -801 0
h -74 -812 0
h -75 -823 0
h -76 -834 0
h -39 -428 0
h -40 -439 0
h -41 -450 0
h -42 -461 0
h -43 -472 0
h -44 -483 0
h -45 -494 0
h -46 -505 0
h -47 -516 0
h -48 -527 0
h -49 -538 0
h -50 -549 0
h -51 -560 0
h -52 -571 0
h -53 -582 0
h -54 -593 0
h -55 -604 0
h -56 -615 0
h -57 -626 0
h -58 -637 0
h -59 -648 0
h -60 -659 0
h -61 -670 0
h -62 -681 0
h -63 -692 0
h -64 -703 0
h -65 -714 0
h -66 -725 0
h -67 -736 0
h -68 -747 0
h -69 -758 0
h -70 -769 0
h -71 -780 0
h -72 -791 0
h -73 -802 0
h -74 -813 0
h -75 -824 0
h -76 -835 0
h -39 -429 0
h -40 -440 0
h -41 -451 0
h -42 -462 0
h -43 -473 0
h -44 -484 0
h -45 -495 0
h -46 -506 0
h -47 -517 0
h -48 -528 0
h -49 -539 0
h -50 -550 0
h -51 -561 0
h -52 -572 0
h -53 -583 0
h -54 -594 0
h -55 -605 0
h -56 -616 0
h -57 -627 0
h -58 -638 0
h -59 -649 0
h -60 -660 0
h -61 -671 0
h -62 -682 0
h -63 -693 0
h -64 -704 0
h -65 -715 0
h -66 -726 0
h -67 -737 0
h -68 -748 0
h -69 -759 0
h -70 -770 0
h -71 -781 0
h -72 -792 0
h -73 -803 0
h -74 -814 0
h -75 -825 0
h -76 -836 0
h 1217 1218 1219 1220 1221 1222 1223 1224 1225 1226 1227 1228 1229 1230 1231 1232 1233 1234 1235 1236 1237 1238 1239 1240 1241 1242 1243 1244 1245 1246 1247 1248 1249 1250 1251 1252 1253 1254 0
h -1217 77 0
h -1217 419 0
h 1217 -77 -419 0
h -1218 78 0
h -1218 430 0
h 1218 -78 -430 0
h -1219 79 0
h -1219 441 0
h 1219 -79 -441 0
h -1220 80 0
h -1220 452 0
h 1220 -80 -452 0
h -1221 81 0
h -1221 463 0
h 1221 -81 -463 0
h -1222 82 0
h -1222 474 0
h 1222 -82 -474 0
h -1223 83 0
h -1223 485 0
h 1223 -83 -485 0
h -1224 84 0
h -1224 496 0
h 1224 -84 -496 0
h -1225 85 0
h -1225 507 0
h 1225 -85 -507 0
h -1226 86 0
h -1226 518 0
h 1226 -86 -518 0
h -1227 87 0
h -1227 529 0
h 1227 -87 -529 0
h -1228 88 0
h -1228 540 0
h 1228 -88 -540 0
h -1229 89 0
h -1229 551 0
h 1229 -89 -551 0
h -1230 90 0
h -1230 562 0
h 1230 -90 -562 0
h -1231 91 0
h -1231 573 0
h 1231 -91 -573 0
h -1232 92 0
h -1232 584 0
h 1232 -92 -584 0
h -1233 93 0
h -1233 595 0
h 1233 -93 -595 0
h -1234 94 0
h -1234 606 0
h 1234 -94 -606 0
h -1235 95 0
h -1235 617 0
h 1235 -95 -617 0
h -1236 96 0
h -1236 628 0
h 1236 -96 -628 0
h -1237 97 0
h -1237 639 0
h 1237 -97 -639 0
h -1238 98 0
h -1238 650 0
h 1238 -98 -650 0
h -1239 99 0
h -1239 661 0
h 1239 -99 -661 0
h -1240 100 0
h -1240 672 0
h 1240 -100 -672 0
h -1241 101 0
h -1241 683 0
h 1241 -101 -683 0
h -1242 102 0
h -1242 694 0
h 1242 -102 -694 0
h -1243 103 0
h -1243 705 0
h 1243 -103 -705 0
h -1244 104 0
h -1244 716 0
h 1244 -104 -716 0
h -1245 105 0
h -1245 727 0
h 1245 -105 -727 0
h -1246 106 0
h -1246 738 0
h 1246 -106 -738 0
h -1247 107 0
h -1247 749 0
h 1247 -107 -749 0
h -1248 108 0
h -1248 760 0
h 1248 -108 -760 0
h -1249 109 0
h -1249 771 0
h 1249 -109 -771 0
h -1250 110 0
h -1250 782 0
h 1250 -110 -782 0
h -1251 111 0
h -1251 793 0
h 1251 -111 -793 0
h -1252 112 0
h -1252 804 0
h 1252 -112 -804 0
h -1253 113 0
h -1253 815 0
h 1253 -113 -815 0
h -1254 114 0
h -1254 826 0
h 1254 -114 -826 0
h 1255 1256 1257 1258 1259 1260 1261 1262 1263 1264 1265 1266 1267 1268 1269 1270 1271 1272 1273 1274 1275 1276 1277 1278 1279 1280 1281 1282 1283 1284 1285 1286 1287 1288 1289 1290 1291 1292 0
h -1255 77 0
h -1255 420 0
h 1255 -77 -420 0
h -1256 78 0
h -1256 431 0
h 1256 -78 -431 0
h -1257 79 0
h -1257 442 0
h 1257 -79 -442 0
h -1258 80 0
h -1258 453 0
h 1258 -80 -453 0
h -1259 81 0
h -1259 464 0
h 1259 -81 -464 0
h -1260 82 0
h -1260 475 0
h 1260 -82 -475 0
h -1261 83 0
h -1261 486 0
h 1261 -83 -486 0
h -1262 84 0
h -1262 497 0
h 1262 -84 -497 0
h -1263 85 0
h -1263 508 0
h 1263 -85 -508 0
h -1264 86 0
h -1264 519 0
h 1264 -86 -519 0
h -1265 87 0
h -1265 530 0
h 1265 -87 -530 0
h -1266 88 0
h -1266 541 0
h 1266 -88 -541 0
h -1267 89 0
h -1267 552 0
h 1267 -89 -552 0
h -1268 90 0
h -1268 563 0
h 1268 -90 -563 0
h -1269 91 0
h -1269 574 0
h 1269 -91 -574 0
h -1270 92 0
h -1270 585 0
h 1270 -92 -585 0
h -1271 93 0
h -1271 596 0
h 1271 -93 -596 0
h -1272 94 0
h -1272 607 0
h 1272 -94 -607 0
h -1273 95 0
h -1273 618 0
h 1273 -95 -618 0
h -1274 96 0
h -1274 629 0
h 1274 -96 -629 0
h -1275 97 0
h -1275 640 0
h 1275 -97 -640 0
h -1276 98 0
h -1276 651 0
h 1276 -98 -651 0
h -1277 99 0
h -1277 662 0
h 1277 -99 -662 0
h -1278 100 0
h -1278 673 0
h 1278 -100 -673 0
h -1279 101 0
h -1279 684 0
h 1279 -101 -684 0
h -1280 102 0
h -1280 695 0
h 1280 -102 -695 0
h -1281 103 0
h -1281 706 0
h 1281 -103 -706 0
h -1282 104 0
h -1282 717 0
h 1282 -104 -717 0
h -1283 105 0
h -1283 728 0
h 1283 -105 -728 0
h -1284 106 0
h -1284 739 0
h 1284 -106 -739 0
h -1285 107 0
h -1285 750 0
h 1285 -107 -750 0
h -1286 108 0
h -1286 761 0
h 1286 -108 -761 0
h -1287 109 0
h -1287 772 0
h 1287 -109 -772 0
h -1288 110 0
h -1288 783 0
h 1288 -110 -783 0
h -1289 111 0
h -1289 794 0
h 1289 -111 -794 0
h -1290 112 0
h -1290 805 0
h 1290 -112 -805 0
h -1291 113 0
h -1291 816 0
h 1291 -113 -816 0
h -1292 114 0
h -1292 827 0
h 1292 -114 -827 0
h 1293 1294 1295 1296 1297 1298 1299 1300 1301 1302 1303 1304 1305 1306 1307 1308 1309 1310 1311 1312 1313 1314 1315 1316 1317 1318 1319 1320 1321 1322 1323 1324 1325 1326 1327 1328 1329 1330 0
h -1293 77 0
h -1293 421 0
h 1293 -77 -421 0
h -1294 78 0
h -1294 432 0
h 1294 -78 -432 0
h -1295 79 0
h -1295 443 0
h 1295 -79 -443 0
h -1296 80 0
h -1296 454 0
h 1296 -80 -454 0
h -1297 81 0
h -1297 465 0
h 1297 -81 -465 0
h -1298 82 0
h -1298 476 0
h 1298 -82 -476 0
h -1299 83 0
h -1299 487 0
h 1299 -83 -487 0
h -1300 84 0
h -1300 498 0
h 1300 -84 -498 0
h -1301 85 0
h -1301 509 0
h 1301 -85 -509 0
h -1302 86 0
h -1302 520 0
h 1302 -86 -520 0
h -1303 87 0
h -1303 531 0
h 1303 -87 -531 0
h -1304 88 0
h -1304 542 0
h 1304 -88 -542 0
h -1305 89 0
h -1305 553 0
h 1305 -89 -553 0
h -1306 90 0
h -1306 564 0
h 1306 -90 -564 0
h -1307 91 0
h -1307 575 0
h 1307 -91 -575 0
h -1308 92 0
h -1308 586 0
h 1308 -92 -586 0
h -1309 93 0
h -1309 597 0
h 1309 -93 -597 0
h -1310 94 0
h -1310 608 0
h 1310 -94 -608 0
h -1311 95 0
h -1311 619 0
h 1311 -95 -619 0
h -1312 96 0
h -1312 630 0
h 1312 -96 -630 0
h -1313 97 0
h -1313 641 0
h 1313 -97 -641 0
h -1314 98 0
h -1314 652 0
h 1314 -98 -652 0
h -1315 99 0
h -1315 663 0
h 1315 -99 -663 0
h -1316 100 0
h -1316 674 0
h 1316 -100 -674 0
h -1317 101 0
h -1317 685 0
h 1317 -101 -685 0
h -1318 102 0
h -1318 696 0
h 1318 -102 -696 0
h -1319 103 0
h -1319 707 0
h 1319 -103 -707 0
h -1320 104 0
h -1320 718 0
h 1320 -104 -718 0
h -1321 105 0
h -1321 729 0
h 1321 -105 -729 0
h -1322 106 0
h -1322 740 0
h 1322 -106 -740 0
h -1323 107 0
h -1323 751 0
h 1323 -107 -751 0
h -1324 108 0
h -1324 762 0
h 1324 -108 -762 0
h -1325 109 0
h -1325 773 0
h 1325 -109 -773 0
h -1326 110 0
h -1326 784 0
h 1326 -110 -784 0
h -1327 111 0
h -1327 795 0
h 1327 -111 -795 0
h -1328 112 0
h -1328 806 0
h 1328 -112 -806 0
h -1329 113 0
h -1329 817 0
h 1329 -113 -817 0
h -1330 114 0
h -1330 828 0
h 1330 -114 -828 0
h 1331 1332 1333 1334 1335 1336 1337 1338 1339 1340 1341 1342 1343 1344 1345 1346 1347 1348 1349 1350 1351 1352 1353 1354 1355 1356 1357 1358 1359 1360 1361 1362 1363 1364 1365 1366 1367 1368 0
h -1331 77 0
h -1331 422 0
h 1331 -77 -422 0
h -1332 78 0
h -1332 433 0
h 1332 -78 -433 0
h -1333 79 0
h -1333 444 0
h 1333 -79 -444 0
h -1334 80 0
h -1334 455 0
h 1334 -80 -455 0
h -1335 81 0
h -1335 466 0
h 1335 -81 -466 0
h -1336 82 0
h -1336 477 0
h 1336 -82 -477 0
h -1337 83 0
h -1337 488 0
h 1337 -83 -488 0
h -1338 84 0
h -1338 499 0
h 1338 -84 -499 0
h -1339 85 0
h -1339 510 0
h 1339 -85 -510 0
h -1340 86 0
h -1340 521 0
h 1340 -86 -521 0
h -1341 87 0
h -1341 532 0
h 1341 -87 -532 0
h -1342 88 0
h -1342 543 0
h 1342 -88 -543 0
h -1343 89 0
h -1343 554 0
h 1343 -89 -554 0
h -1344 90 0
h -1344 565 0
h 1344 -90 -565 0
h -1345 91 0
h -1345 576 0
h 1345 -91 -576 0
h -1346 92 0
h -1346 587 0
h 1346 -92 -587 0
h -1347 93 0
h -1347 598 0
h 1347 -93 -598 0
h -1348 94 0
h -1348 609 0
h 1348 -94 -609 0
h -1349 95 0
h -1349 620 0
h 1349 -95 -620 0
h -1350 96 0
h -1350 631 0
h 1350 -96 -631 0
h -1351 97 0
h -1351 642 0
h 1351 -97 -642 0
h -1352 98 0
h -1352 653 0
h 1352 -98 -653 0
h -1353 99 0
h -1353 664 0
h 1353 -99 -664 0
h -1354 100 0
h -1354 675 0
h 1354 -100 -675 0
h -1355 101 0
h -1355 686 0
h 1355 -101 -686 0
h -1356 102 0
h -1356 697 0
h 1356 -102 -697 0
h -1357 103 0
h -1357 708 0
h 1357 -103 -708 0
h -1358 104 0
h -1358 719 0
h 1358 -104 -719 0
h -1359 105 0
h -1359 730 0
h 1359 -105 -730 0
h -1360 106 0
h -1360 741 0
h 1360 -106 -741 0
h -1361 107 0
h -1361 752 0
h 1361 -107 -752 0
h -1362 108 0
h -1362 763 0
h 1362 -108 -763 0
h -1363 109 0
h -1363 774 0
h 1363 -109 -774 0
h -1364 110 0
h -1364 785 0
h 1364 -110 -785 0
h -1365 111 0
h -1365 796 0
h 1365 -111 -796 0
h -1366 112 0
h -1366 807 0
h 1366 -112 -807 0
h -1367 113 0
h -1367 818 0
h 1367 -113 -818 0
h -1368 114 0
h -1368 829 0
h 1368 -114 -829 0
h 1369 1370 1371 1372 1373 1374 1375 1376 1377 1378 1379 1380 1381 1382 1383 1384 1385 1386 1387 1388 1389 1390 1391 1392 1393 1394 1395 1396 1397 1398 1399 1400 1401 1402 1403 1404 1405 1406 0
h -1369 77 0
h -1369 423 0
h 1369 -77 -423 0
h -1370 78 0
h -1370 434 0
h 1370 -78 -434 0
h -1371 79 0
h -1371 445 0
h 1371 -79 -445 0
h -1372 80 0
h -1372 456 0
h 1372 -80 -456 0
h -1373 81 0
h -1373 467 0
h 1373 -81 -467 0
h -1374 82 0
h -1374 478 0
h 1374 -82 -478 0
h -1375 83 0
h -1375 489 0
h 1375 -83 -489 0
h -1376 84 0
h -1376 500 0
h 1376 -84 -500 0
h -1377 85 0
h -1377 511 0
h 1377 -85 -511 0
h -1378 86 0
h -1378 522 0
h 1378 -86 -522 0
h -1379 87 0
h -1379 533 0
h 1379 -87 -533 0
h -1380 88 0
h -1380 544 0
h 1380 -88 -544 0
h -1381 89 0
h -1381 555 0
h 1381 -89 -555 0
h -1382 90 0
h -1382 566 0
h 1382 -90 -566 0
h -1383 91 0
h -1383 577 0
h 1383 -91 -577 0
h -1384 92 0
h -1384 588 0
h 1384 -92 -588 0
h -1385 93 0
h -1385 599 0
h 1385 -93 -599 0
h -1386 94 0
h -1386 610 0
h 1386 -94 -610 0
h -1387 95 0
h -1387 621 0
h 1387 -95 -621 0
h -1388 96 0
h -1388 632 0
h 1388 -96 -632 0
h -1389 97 0
h -1389 643 0
h 1389 -97 -643 0
h -1390 98 0
h -1390 654 0
h 1390 -98 -654 0
h -1391 99 0
h -1391 665 0
h 1391 -99 -665 0
h -1392 100 0
h -1392 676 0
h 1392 -100 -676 0
h -1393 101 0
h -1393 687 0
h 1393 -101 -687 0
h -1394 102 0
h -1394 698 0
h 1394 -102 -698 0
h -1395 103 0
h -1395 709 0
h 1395 -103 -709 0
h -1396 104 0
h -1396 720 0
h 1396 -104 -720 0
h -1397 105 0
h -1397 731 0
h 1397 -105 -731 0
h -1398 106 0
h -1398 742 0
h 1398 -106 -742 0
h -1399 107 0
h -1399 753 0
h 1399 -107 -753 0
h -1400 108 0
h -1400 764 0
h 1400 -108 -764 0
h -1401 109 0
h -1401 775 0
h 1401 -109 -775 0
h -1402 110 0
h -1402 786 0
h 1402 -110 -786 0
h -1403 111 0
h -1403 797 0
h 1403 -111 -797 0
h -1404 112 0
h -1404 808 0
h 1404 -112 -808 0
h -1405 113 0
h -1405 819 0
h 1405 -113 -819 0
h -1406 114 0
h -1406 830 0
h 1406 -114 -830 0
h -77 -424 0
h -78 -435 0
h -79 -446 0
h -80 -457 0
h -81 -468 0
h -82 -479 0
h -83 -490 0
h -84 -501 0
h -85 -512 0
h -86 -523 0
h -87 -534 0
h -88 -545 0
h -89 -556 0
h -90 -567 0
h -91 -578 0
h -92 -589 0
h -93 -600 0
h -94 -611 0
h -95 -622 0
h -96 -633 0
h -97 -644 0
h -98 -655 0
h -99 -666 0
h -100 -677 0
h -101 -688 0
h -102 -699 0
h -103 -710 0
h -104 -721 0
h -105 -732 0
h -106 -743 0
h -107 -754 0
h -108 -765 0
h -109 -776 0
h -110 -787 0
h -111 -798 0
h -112 -809 0
h -113 -820 0
h -114 -831 0
h -77 -425 0
h -78 -436 0
h -79 -447 0
h -80 -458 0
h -81 -469 0
h -82 -480 0
h -83 -491 0
h -84 -502 0
h -85 -513 0
h -86 -524 0
h -87 -535 0
h -88 -546 0
h -89 -557 0
h -90 -568 0
h -91 -579 0
h -92 -590 0
h -93 -601 0
h -94 -612 0
h -95 -623 0
h -96 -634 0
h -97 -645 0
h -98 -656 0
h -99 -667 0
h -100 -678 0
h -101 -689 0
h -102 -700 0
h -103 -711 0
h -104 -722 0
h -105 -733 0
h -106 -744 0
h -107 -755 0
h -108 -766 0
h -109 -777 0
h -110 -788 0
h -111 -799 0
h -112 -810 0
h -113 -821 0
h -114 -832 0
h -77 -426 0
h -78 -437 0
h -79 -448 0
h -80 -459 0
h -81 -470 0
h -82 -481 0
h -83 -492 0
h -84 -503 0
h -85 -514 0
h -86 -525 0
h -87 -536 0
h -88 -547 0
h -89 -558 0
h -90 -569 0
h -91 -580 0
h -92 -591 0
h -93 -602 0
h -94 -613 0
h -95 -624 0
h -96 -635 0
h -97 -646 0
h -98 -657 0
h -99 -668 0
h -100 -679 0
h -101 -690 0
h -102 -701 0
h -103 -712 0
h -104 -723 0
h -105 -734 0
h -106 -745 0
h -107 -756 0
h -108 -767 0
h -109 -778 0
h -110 -789 0
h -111 -800 0
h -112 -811 0
h -113 -822 0
h -114 -833 0
h -77 -427 0
h -78 -438 0
h -79 -449 0
h -80 -460 0
h -81 -471 0
h -82 -482 0
h -83 -493 0
h -84 -504 0
h -85 -515 0
h -86 -526 0
h -87 -537 0
h -88 -548 0
h -89 -559 0
h -90 -570 0
h -91 -581 0
h -92 -592 0
h -93 -603 0
h -94 -614 0
h -95 -625 0
h -96 -636 0
h -97 -647 0
h -98 -658 0
h -99 -669 0
h -100 -680 0
h -101 -691 0
h -102 -702 0
h -103 -713 0
h -104 -724 0
h -105 -735 0
h -106 -746 0
h -107 -757 0
h -108 -768 0
h -109 -779 0
h -110 -790 0
h -111 -801 0
h -112 -812 0
h -113 -823 0
h -114 -834 0
h -77 -428 0
h -78 -439 0
h -79 -450 0
h -80 -461 0
h -81 -472 0
h -82 -483 0
h -83 -494 0
h -84 -505 0
h -85 -516 0
h -86 -527 0
h -87 -538 0
h -88 -549 0
h -89 -560 0
h -90 -571 0
h -91 -582 0
h -92 -593 0
h -93 -604 0
h -94 -615 0
h -95 -626 0
h -96 -637 0
h -97 -648 0
h -98 -659 0
h -99 -670 0
h -100 -681 0
h -101 -692 0
h -102 -703 0
h -103 -714 0
h -104 -725 0
h -105 -736 0
h -106 -747 0
h -107 -758 0
h -108 -769 0
h -109 -780 0
h -110 -791 0
h -111 -802 0
h -112 -813 0
h -113 -824 0
h -114 -835 0
h -77 -429 0
h -78 -440 0
h -79 -451 0
h -80 -462 0
h -81 -473 0
h -82 -484 0
h -83 -495 0
h -84 -506 0
h -85 -517 0
h -86 -528 0
h -87 -539 0
h -88 -550 0
h -89 -561 0
h -90 -572 0
h -91 -583 0
h -92 -594 0
h -93 -605 0
h -94 -616 0
h -95 -627 0
h -96 -638 0
h -97 -649 0
h -98 -660 0
h -99 -671 0
h -100 -682 0
h -101 -693 0
h -102 -704 0
h -103 -715 0
h -104 -726 0
h -105 -737 0
h -106 -748 0
h -107 -759 0
h -108 -770 0
h -109 -781 0
h -110 -792 0
h -111 -803 0
h -112 -814 0
h -113 -825 0
h -114 -836 0
h 1407 1408 1409 1410 1411 1412 1413 1414 1415 1416 1417 1418 1419 1420 1421 1422 1423 1424 1425 1426 1427 1428 1429 1430 1431 1432 1433 1434 1435 1436 1437 1438 1439 1440 1441 1442 1443 1444 0
h -1407 115 0
h -1407 419 0
h 1407 -115 -419 0
h -1408 116 0
h -1408 430 0
h 1408 -116 -430 0
h -1409 117 0
h -1409 441 0
h 1409 -117 -441 0
h -1410 118 0
h -1410 452 0
h 1410 -118 -452 0
h -1411 119 0
h -1411 463 0
h 1411 -119 -463 0
h -1412 120 0
h -1412 474 0
h 1412 -120 -474 0
h -1413 121 0
h -1413 485 0
h 1413 -121 -485 0
h -1414 122 0
h -1414 496 0
h 1414 -122 -496 0
h -1415 123 0
h -1415 507 0
h 1415 -123 -507 0
h -1416 124 0
h -1416 518 0
h 1416 -124 -518 0
h -1417 125 0
h -1417 529 0
h 1417 -125 -529 0
h -1418 126 0
h -1418 540 0
h 1418 -126 -540 0
h -1419 127 0
h -1419 551 0
h 1419 -127 -551 0
h -1420 128 0
h -1420 562 0
h 1420 -128 -562 0
h -1421 129 0
h -1421 573 0
h 1421 -129 -573 0
h -1422 130 0
h -1422 584 0
h 1422 -130 -584 0
h -1423 131 0
h -1423 595 0
h 1423 -131 -595 0
h -1424 132 0
h -1424 606 0
h 1424 -132 -606 0
h -1425 133 0
h -1425 617 0
h 1425 -133 -617 0
h -1426 134 0
h -1426 628 0
h 1426 -134 -628 0
h -1427 135 0
h -1427 639 0
h 1427 -135 -639 0
h -1428 136 0
h -1428 650 0
h 1428 -136 -650 0
h -1429 137 0
h -1429 661 0
h 1429 -137 -661 0
h -1430 138 0
h -1430 672 0
h 1430 -138 -672 0
h -1431 139 0
h -1431 683 0
h 1431 -139 -683 0
h -1432 140 0
h -1432 694 0
h 1432 -140 -694 0
h -1433 141 0
h -1433 705 0
h 1433 -141 -705 0
h -1434 142 0
h -1434 716 0
h 1434 -142 -716 0
h -1435 143 0
h -1435 727 0
h 1435 -143 -727 0
h -1436 144 0
h -1436 738 0
h 1436 -144 -738 0
h -1437 145 0
h -1437 749 0
h 1437 -145 -749 0
h -1438 146 0
h -1438 760 0
h 1438 -146 -760 0
h -1439 147 0
h -1439 771 0
h 1439 -147 -771 0
h -1440 148 0
h -1440 782 0
h 1440 -148 -782 0
h -1441 149 0
h -1441 793 0
h 1441 -149 -793 0
h -1442 150 0
h -1442 804 0
h 1442 -150 -804 0
h -1443 151 0
h -1443 815 0
h 1443 -151 -815 0
h -1444 152 0
h -1444 826 0
h 1444 -152 -826 0
h 1445 1446 1447 1448 1449 1450 1451 1452 1453 1454 1455 1456 1457 1458 1459 1460 1461 1462 1463 1464 1465 1466 1467 1468 1469 1470 1471 1472 1473 1474 1475 1476 1477 1478 1479 1480 1481 1482 0
h -1445 115 0
h -1445 420 0
h 1445 -115 -420 0
h -1446 116 0
h -1446 431 0
h 1446 -116 -431 0
h -1447 117 0
h -1447 442 0
h 1447 -117 -442 0
h -1448 118 0
h -1448 453 0
h 1448 -118 -453 0
h -1449 119 0
h -1449 464 0
h 1449 -119 -464 0
h -1450 120 0
h -1450 475 0
h 1450 -120 -475 0
h -1451 121 0
h -1451 486 0
h 1451 -121 -486 0
h -1452 122 0
h -1452 497 0
h 1452 -122 -497 0
h -1453 123 0
h -1453 508 0
h 1453 -123 -508 0
h -1454 124 0
h -1454 519 0
h 1454 -124 -519 0
h -1455 125 0
h -1455 530 0
h 1455 -125 -530 0
h -1456 126 0
h -1456 541 0
h 1456 -126 -541 0
h -1457 127 0
h -1457 552 0
h 1457 -127 -552 0
h -1458 128 0
h -1458 563 0
h 1458 -128 -563 0
h -1459 129 0
h -1459 574 0
h 1459 -129 -574 0
h -1460 130 0
h -1460 585 0
h 1460 -130 -585 0
h -1461 131 0
h -1461 596 0
h 1461 -131 -596 0
h -1462 132 0
h -1462 607 0
h 1462 -132 -607 0
h -1463 133 0
h -1463 618 0
h 1463 -133 -618 0
h -1464 134 0
h -1464 629 0
h 1464 -134 -629 0
h -1465 135 0
h -1465 640 0
h 1465 -135 -640 0
h -1466 136 0
h -1466 651 0
h 1466 -136 -651 0
h -1467 137 0
h -1467 662 0
h 1467 -137 -662 0
h -1468 138 0
h -1468 673 0
h 1468 -138 -673 0
h -1469 139 0
h -1469 684 0
h 1469 -139 -684 0
h -1470 140 0
h -1470 695 0
h 1470 -140 -695 0
h -1471 141 0
h -1471 706 0
h 1471 -141 -706 0
h -1472 142 0
h -1472 717 0
h 1472 -142 -717 0
h -1473 143 0
h -1473 728 0
h 1473 -143 -728 0
h -1474 144 0
h -1474 739 0
h 1474 -144 -739 0
h -1475 145 0
h -1475 750 0
h 1475 -145 -750 0
h -1476 146 0
h -1476 761 0
h 1476 -146 -761 0
h -1477 147 0
h -1477 772 0
h 1477 -147 -772 0
h -1478 148 0
h -1478 783 0
h 1478 -148 -783 0
h -1479 149 0
h -1479 794 0
h 1479 -149 -794 0
h -1480 150 0
h -1480 805 0
h 1480 -150 -805 0
h -1481 151 0
h -1481 816 0
h 1481 -151 -816 0
h -1482 152 0
h -1482 827 0
h 1482 -152 -827 0
h 1483 1484 1485 1486 1487 1488 1489 1490 1491 1492 1493 1494 1495 1496 1497 1498 1499 1500 1501 1502 1503 1504 1505 1506 1507 1508 1509 1510 1511 1512 1513 1514 1515 1516 1517 1518 1519 1520 0
h -1483 115 0
h -1483 421 0
h 1483 -115 -421 0
h -1484 116 0
h -1484 432 0
h 1484 -116 -432 0
h -1485 117 0
h -1485 443 0
h 1485 -117 -443 0
h -1486 118 0
h -1486 454 0
h 1486 -118 -454 0
h -1487 119 0
h -1487 465 0
h 1487 -119 -465 0
h -1488 120 0
h -1488 476 0
h 1488 -120 -476 0
h -1489 121 0
h -1489 487 0
h 1489 -121 -487 0
h -1490 122 0
h -1490 498 0
h 1490 -122 -498 0
h -1491 123 0
h -1491 509 0
h 1491 -123 -509 0
h -1492 124 0
h -1492 520 0
h 1492 -124 -520 0
h -1493 125 0
h -1493 531 0
h 1493 -125 -531 0
h -1494 126 0
h -1494 542 0
h 1494 -126 -542 0
h -1495 127 0
h -1495 553 0
h 1495 -127 -553 0
h -1496 128 0
h -1496 564 0
h 1496 -128 -564 0
h -1497 129 0
h -1497 575 0
h 1497 -129 -575 0
h -1498 130 0
h -1498 586 0
h 1498 -130 -586 0
h -1499 131 0
h -1499 597 0
h 1499 -131 -597 0
h -1500 132 0
h -1500 608 0
h 1500 -132 -608 0
h -1501 133 0
h -1501 619 0
h 1501 -133 -619 0
h -1502 134 0
h -1502 630 0
h 1502 -134 -630 0
h -1503 135 0
h -1503 641 0
h 1503 -135 -641 0
h -1504 136 0
h -1504 652 0
h 1504 -136 -652 0
h -1505 137 0
h -1505 663 0
h 1505 -137 -663 0
h -1506 138 0
h -1506 674 0
h 1506 -138 -674 0
h -1507 139 0
h -1507 685 0
h 1507 -139 -685 0
h -1508 140 0
h -1508 696 0
h 1508 -140 -696 0
h -1509 141 0
h -1509 707 0
h 1509 -141 -707 0
h -1510 142 0
h -1510 718 0
h 1510 -142 -718 0
h -1511 143 0
h -1511 729 0
h 1511 -143 -729 0
h -1512 144 0
h -1512 740 0
h 1512 -144 -740 0
h -1513 145 0
h -1513 751 0
h 1513 -145 -751 0
h -1514 146 0
h -1514 762 0
h 1514 -146 -762 0
h -1515 147 0
h -1515 773 0
h 1515 -147 -773 0
h -1516 148 0
h -1516 784 0
h 1516 -148 -784 0
h -1517 149 0
h -1517 795 0
h 1517 -149 -795 0
h -1518 150 0
h -1518 806 0
h 1518 -150 -806 0
h -1519 151 0
h -1519 817 0
h 1519 -151 -817 0
h -1520 152 0
h -1520 828 0
h 1520 -152 -828 0
h 1521 1522 1523 1524 1525 1526 1527 1528 1529 1530 1531 1532 1533 1534 1535 1536 1537 1538 1539 1540 1541 1542 1543 1544 1545 1546 1547 1548 1549 1550 1551 1552 1553 1554 1555 1556 1557 1558 0
h -1521 115 0
h -1521 422 0
h 1521 -115 -422 0
h -1522 116 0
h -1522 433 0
h 1522 -116 -433 0
h -1523 117 0
h -1523 444 0
h 1523 -117 -444 0
h -1524 118 0
h -1524 455 0
h 1524 -118 -455 0
h -1525 119 0
h -1525 466 0
h 1525 -119 -466 0
h -1526 120 0
h -1526 477 0
h 1526 -120 -477 0
h -1527 121 0
h -1527 488 0
h 1527 -121 -488 0
h -1528 122 0
h -1528 499 0
h 1528 -122 -499 0
h -1529 123 0
h -1529 510 0
h 1529 -123 -510 0
h -1530 124 0
h -1530 521 0
h 1530 -124 -521 0
h -1531 125 0
h -1531 532 0
h 1531 -125 -532 0
h -1532 126 0
h -1532 543 0
h 1532 -126 -543 0
h -1533 127 0
h -1533 554 0
h 1533 -127 -554 0
h -1534 128 0
h -1534 565 0
h 1534 -128 -565 0
h -1535 129 0
h -1535 576 0
h 1535 -129 -576 0
h -1536 130 0
h -1536 587 0
h 1536 -130 -587 0
h -1537 131 0
h -1537 598 0
h 1537 -131 -598 0
h -1538 132 0
h -1538 609 0
h 1538 -132 -609 0
h -1539 133 0
h -1539 620 0
h 1539 -133 -620 0
h -1540 134 0
h -1540 631 0
h 1540 -134 -631 0
h -1541 135 0
h -1541 642 0
h 1541 -135 -642 0
h -1542 136 0
h -1542 653 0
h 1542 -136 -653 0
h -1543 137 0
h -1543 664 0
h 1543 -137 -664 0
h -1544 138 0
h -1544 675 0
h 1544 -138 -675 0
h -1545 139 0
h -1545 686 0
h 1545 -139 -686 0
h -1546 140 0
h -1546 697 0
h 1546 -140 -697 0
h -1547 141 0
h -1547 708 0
h 1547 -141 -708 0
h -1548 142 0
h -1548 719 0
h 1548 -142 -719 0
h -1549 143 0
h -1549 730 0
h 1549 -143 -730 0
h -1550 144 0
h -1550 741 0
h 1550 -144 -741 0
h -1551 145 0
h -1551 752 0
h 1551 -145 -752 0
h -1552 146 0
h -1552 763 0
h 1552 -146 -763 0
h -1553 147 0
h -1553 774 0
h 1553 -147 -774 0
h -1554 148 0
h -1554 785 0
h 1554 -148 -785 0
h -1555 149 0
h -1555 796 0
h 1555 -149 -796 0
h -1556 150 0
h -1556 807 0
h 1556 -150 -807 0
h -1557 151 0
h -1557 818 0
h 1557 -151 -818 0
h -1558 152 0
h -1558 829 0
h 1558 -152 -829 0
h -115 -423 0
h -116 -434 0
h -117 -445 0
h -118 -456 0
h -119 -467 0
h -120 -478 0
h -121 -489 0
h -122 -500 0
h -123 -511 0
h -124 -522 0
h -125 -533 0
h -126 -544 0
h -127 -555 0
h -128 -566 0
h -129 -577 0
h -130 -588 0
h -131 -599 0
h -132 -610 0
h -133 -621 0
h -134 -632 0
h -135 -643 0
h -136 -654 0
h -137 -665 0
h -138 -676 0
h -139 -687 0
h -140 -698 0
h -141 -709 0
h -142 -720 0
h -143 -731 0
h -144 -742 0
h -145 -753 0
h -146 -764 0
h -147 -775 0
h -148 -786 0
h -149 -797 0
h -150 -808 0
h -151 -819 0
h -152 -830 0
h 1559 1560 1561 1562 1563 1564 1565 1566 1567 1568 1569 1570 1571 1572 1573 1574 1575 1576 1577 1578 1579 1580 1581 1582 1583 1584 1585 1586 1587 1588 1589 1590 1591 1592 1593 1594 1595 1596 0
h -1559 115 0
h -1559 424 0
h 1559 -115 -424 0
h -1560 116 0
h -1560 435 0
h 1560 -116 -435 0
h -1561 117 0
h -1561 446 0
h 1561 -117 -446 0
h -1562 118 0
h -1562 457 0
h 1562 -118 -457 0
h -1563 119 0
h -1563 468 0
h 1563 -119 -468 0
h -1564 120 0
h -1564 479 0
h 1564 -120 -479 0
h -1565 121 0
h -1565 490 0
h 1565 -121 -490 0
h -1566 122 0
h -1566 501 0
h 1566 -122 -501 0
h -1567 123 0
h -1567 512 0
h 1567 -123 -512 0
h -1568 124 0
h -1568 523 0
h 1568 -124 -523 0
h -1569 125 0
h -1569 534 0
h 1569 -125 -534 0
h -1570 126 0
h -1570 545 0
h 1570 -126 -545 0
h -1571 127 0
h -1571 556 0
h 1571 -127 -556 0
h -1572 128 0
h -1572 567 0
h 1572 -128 -567 0
h -1573 129 0
h -1573 578 0
h 1573 -129 -578 0
h -1574 130 0
h -1574 589 0
h 1574 -130 -589 0
h -1575 131 0
h -1575 600 0
h 1575 -131 -600 0
h -1576 132 0
h -1576 611 0
h 1576 -132 -611 0
h -1577 133 0
h -1577 622 0
h 1577 -133 -622 0
h -1578 134 0
h -1578 633 0
h 1578 -134 -633 0
h -1579 135 0
h -1579 644 0
h 1579 -135 -644 0
h -1580 136 0
h -1580 655 0
h 1580 -136 -655 0
h -1581 137 0
h -1581 666 0
h 1581 -137 -666 0
h -1582 138 0
h -1582 677 0
h 1582 -138 -677 0
h -1583 139 0
h -1583 688 0
h 1583 -139 -688 0
h -1584 140 0
h -1584 699 0
h 1584 -140 -699 0
h -1585 141 0
h -1585 710 0
h 1585 -141 -710 0
h -1586 142 0
h -1586 721 0
h 1586 -142 -721 0
h -1587 143 0
h -1587 732 0
h 1587 -143 -732 0
h -1588 144 0
h -1588 743 0
h 1588 -144 -743 0
h -1589 145 0
h -1589 754 0
h 1589 -145 -754 0
h -1590 146 0
h -1590 765 0
h 1590 -146 -765 0
h -1591 147 0
h -1591 776 0
h 1591 -147 -776 0
h -1592 148 0
h -1592 787 0
h 1592 -148 -787 0
h -1593 149 0
h -1593 798 0
h 1593 -149 -798 0
h -1594 150 0
h -1594 809 0
h 1594 -150 -809 0
h -1595 151 0
h -1595 820 0
h 1595 -151 -820 0
h -1596 152 0
h -1596 831 0
h 1596 -152 -831 0
h -115 -425 0
h -116 -436 0
h -117 -447 0
h -118 -458 0
h -119 -469 0
h -120 -480 0
h -121 -491 0
h -122 -502 0
h -123 -513 0
h -124 -524 0
h -125 -535 0
h -126 -546 0
h -127 -557 0
h -128 -568 0
h -129 -579 0
h -130 -590 0
h -131 -601 0
h -132 -612 0
h -133 -623 0
h -134 -634 0
h -135 -645 0
h -136 -656 0
h -137 -667 0
h -138 -678 0
h -139 -689 0
h -140 -700 0
h -141 -711 0
h -142 -722 0
h -143 -733 0
h -144 -744 0
h -145 -755 0
h -146 -766 0
h -147 -777 0
h -148 -788 0
h -149 -799 0
h -150 -810 0
h -151 -821 0
h -152 -832 0
h -115 -426 0
h -116 -437 0
h -117 -448 0
h -118 -459 0
h -119 -470 0
h -120 -481 0
h -121 -492 0
h -122 -503 0
h -123 -514 0
h -124 -525 0
h -125 -536 0
h -126 -547 0
h -127 -558 0
h -128 -569 0
h -129 -580 0
h -130 -591 0
h -131 -602 0
h -132 -613 0
h -133 -624 0
h -134 -635 0
h -135 -646 0
h -136 -657 0
h -137 -668 0
h -138 -679 0
h -139 -690 0
h -140 -701 0
h -141 -712 0
h -142 -723 0
h -143 -734 0
h -144 -745 0
h -145 -756 0
h -146 -767 0
h -147 -778 0
h -148 -789 0
h -149 -800 0
h -150 -811 0
h -151 -822 0
h -152 -833 0
h -115 -427 0
h -116 -438 0
h -117 -449 0
h -118 -460 0
h -119 -471 0
h -120 -482 0
h -121 -493 0
h -122 -504 0
h -123 -515 0
h -124 -526 0
h -125 -537 0
h -126 -548 0
h -127 -559 0
h -128 -570 0
h -129 -581 0
h -130 -592 0
h -131 -603 0
h -132 -614 0
h -133 -625 0
h -134 -636 0
h -135 -647 0
h -136 -658 0
h -137 -669 0
h -138 -680 0
h -139 -691 0
h -140 -702 0
h -141 -713 0
h -142 -724 0
h -143 -735 0
h -144 -746 0
h -145 -757 0
h -146 -768 0
h -147 -779 0
h -148 -790 0
h -149 -801 0
h -150 -812 0
h -151 -823 0
h -152 -834 0
h -115 -428 0
h -116 -439 0
h -117 -450 0
h -118 -461 0
h -119 -472 0
h -120 -483 0
h -121 -494 0
h -122 -505 0
h -123 -516 0
h -124 -527 0
h -125 -538 0
h -126 -549 0
h -127 -560 0
h -128 -571 0
h -129 -582 0
h -130 -593 0
h -131 -604 0
h -132 -615 0
h -133 -626 0
h -134 -637 0
h -135 -648 0
h -136 -659 0
h -137 -670 0
h -138 -681 0
h -139 -692 0
h -140 -703 0
h -141 -714 0
h -142 -725 0
h -143 -736 0
h -144 -747 0
h -145 -758 0
h -146 -769 0
h -147 -780 0
h -148 -791 0
h -149 -802 0
h -150 -813 0
h -151 -824 0
h -152 -835 0
h -115 -429 0
h -116 -440 0
h -117 -451 0
h -118 -462 0
h -119 -473 0
h -120 -484 0
h -121 -495 0
h -122 -506 0
h -123 -517 0
h -124 -528 0
h -125 -539 0
h -126 -550 0
h -127 -561 0
h -128 -572 0
h -129 -583 0
h -130 -594 0
h -131 -605 0
h -132 -616 0
h -133 -627 0
h -134 -638 0
h -135 -649 0
h -136 -660 0
h -137 -671 0
h -138 -682 0
h -139 -693 0
h -140 -704 0
h -141 -715 0
h -142 -726 0
h -143 -737 0
h -144 -748 0
h -145 -759 0
h -146 -770 0
h -147 -781 0
h -148 -792 0
h -149 -803 0
h -150 -814 0
h -151 -825 0
h -152 -836 0
h -153 -419 0
h -154 -430 0
h -155 -441 0
h -156 -452 0
h -157 -463 0
h -158 -474 0
h -159 -485 0
h -160 -496 0
h -161 -507 0
h -162 -518 0
h -163 -529 0
h -164 -540 0
h -165 -551 0
h -166 -562 0
h -167 -573 0
h -168 -584 0
h -169 -595 0
h -170 -606 0
h -171 -617 0
h -172 -628 0
h -173 -639 0
h -174 -650 0
h -175 -661 0
h -176 -672 0
h -177 -683 0
h -178 -694 0
h -179 -705 0
h -180 -716 0
h -181 -727 0
h -182 -738 0
h -183 -749 0
h -184 -760 0
h -185 -771 0
h -186 -782 0
h -187 -793 0
h -188 -804 0
h -189 -815 0
h -190 -826 0
h 1597 1598 1599 1600 1601 1602 1603 1604 1605 1606 1607 1608 1609 1610 1611 1612 1613 1614 1615 1616 1617 1618 1619 1620 1621 1622 1623 1624 1625 1626 1627 1628 1629 1630 1631 1632 1633 1634 0
h -1597 153 0
h -1597 420 0
h 1597 -153 -420 0
h -1598 154 0
h -1598 431 0
h 1598 -154 -431 0
h -1599 155 0
h -1599 442 0
h 1599 -155 -442 0
h -1600 156 0
h -1600 453 0
h 1600 -156 -453 0
h -1601 157 0
h -1601 464 0
h 1601 -157 -464 0
h -1602 158 0
h -1602 475 0
h 1602 -158 -475 0
h -1603 159 0
h -1603 486 0
h 1603 -159 -486 0
h -1604 160 0
h -1604 497 0
h 1604 -160 -497 0
h -1605 161 0
h -1605 508 0
h 1605 -161 -508 0
h -1606 162 0
h -1606 519 0
h 1606 -162 -519 0
h -1607 163 0
h -1607 530 0
h 1607 -163 -530 0
h -1608 164 0
h -1608 541 0
h 1608 -164 -541 0
h -1609 165 0
h -1609 552 0
h 1609 -165 -552 0
h -1610 166 0
h -1610 563 0
h 1610 -166 -563 0
h -1611 167 0
h -1611 574 0
h 1611 -167 -574 0
h -1612 168 0
h -1612 585 0
h 1612 -168 -585 0
h -1613 169 0
h -1613 596 0
h 1613 -169 -596 0
h -1614 170 0
h -1614 607 0
h 1614 -170 -607 0
h -1615 171 0
h -1615 618 0
h 1615 -171 -618 0
h -1616 172 0
h -1616 629 0
h 1616 -172 -629 0
h -1617 173 0
h -1617 640 0
h 1617 -173 -640 0
h -1618 174 0
h -1618 651 0
h 1618 -174 -651 0
h -1619 175 0
h -1619 662 0
h 1619 -175 -662 0
h -1620 176 0
h -1620 673 0
h 1620 -176 -673 0
h -1621 177 0
h -1621 684 0
h 1621 -177 -684 0
h -1622 178 0
h -1622 695 0
h 1622 -178 -695 0
h -1623 179 0
h -1623 706 0
h 1623 -179 -706 0
h -1624 180 0
h -1624 717 0
h 1624 -180 -717 0
h -1625 181 0
h -1625 728 0
h 1625 -181 -728 0
h -1626 182 0
h -1626 739 0
h 1626 -182 -739 0
h -1627 183 0
h -1627 750 0
h 1627 -183 -750 0
h -1628 184 0
h -1628 761 0
h 1628 -184 -761 0
h -1629 185 0
h -1629 772 0
h 1629 -185 -772 0
h -1630 186 0
h -1630 783 0
h 1630 -186 -783 0
h -1631 187 0
h -1631 794 0
h 1631 -187 -794 0
h -1632 188 0
h -1632 805 0
h 1632 -188 -805 0
h -1633 189 0
h -1633 816 0
h 1633 -189 -816 0
h -1634 190 0
h -1634 827 0
h 1634 -190 -827 0
h -153 -421 0
h -154 -432 0
h -155 -443 0
h -156 -454 0
h -157 -465 0
h -158 -476 0
h -159 -487 0
h -160 -498 0
h -161 -509 0
h -162 -520 0
h -163 -531 0
h -164 -542 0
h -165 -553 0
h -166 -564 0
h -167 -575 0
h -168 -586 0
h -169 -597 0
h -170 -608 0
h -171 -619 0
h -172 -630 0
h -173 -641 0
h -174 -652 0
h -175 -663 0
h -176 -674 0
h -177 -685 0
h -178 -696 0
h -179 -707 0
h -180 -718 0
h -181 -729 0
h -182 -740 0
h -183 -751 0
h -184 -762 0
h -185 -773 0
h -186 -784 0
h -187 -795 0
h -188 -806 0
h -189 -817 0
h -190 -828 0
h 1635 1636 1637 1638 1639 1640 1641 1642 1643 1644 1645 1646 1647 1648 1649 1650 1651 1652 1653 1654 1655 1656 1657 1658 1659 1660 1661 1662 1663 1664 1665 1666 1667 1668 1669 1670 1671 1672 0
h -1635 153 0
h -1635 422 0
h 1635 -153 -422 0
h -1636 154 0
h -1636 433 0
h 1636 -154 -433 0
h -1637 155 0
h -1637 444 0
h 1637 -155 -444 0
h -1638 156 0
h -1638 455 0
h 1638 -156 -455 0
h -1639 157 0
h -1639 466 0
h 1639 -157 -466 0
h -1640 158 0
h -1640 477 0
h 1640 -158 -477 0
h -1641 159 0
h -1641 488 0
h 1641 -159 -488 0
h -1642 160 0
h -1642 499 0
h 1642 -160 -499 0
h -1643 161 0
h -1643 510 0
h 1643 -161 -510 0
h -1644 162 0
h -1644 521 0
h 1644 -162 -521 0
h -1645 163 0
h -1645 532 0
h 1645 -163 -532 0
h -1646 164 0
h -1646 543 0
h 1646 -164 -543 0
h -1647 165 0
h -1647 554 0
h 1647 -165 -554 0
h -1648 166 0
h -1648 565 0
h 1648 -166 -565 0
h -1649 167 0
h -1649 576 0
h 1649 -167 -576 0
h -1650 168 0
h -1650 587 0
h 1650 -168 -587 0
h -1651 169 0
h -1651 598 0
h 1651 -169 -598 0
h -1652 170 0
h -1652 609 0
h 1652 -170 -609 0
h -1653 171 0
h -1653 620 0
h 1653 -171 -620 0
h -1654 172 0
h -1654 631 0
h 1654 -172 -631 0
h -1655 173 0
h -1655 642 0
h 1655 -173 -642 0
h -1656 174 0
h -1656 653 0
h 1656 -174 -653 0
h -1657 175 0
h -1657 664 0
h 1657 -175 -664 0
h -1658 176 0
h -1658 675 0
h 1658 -176 -675 0
h -1659 177 0
h -1659 686 0
h 1659 -177 -686 0
h -1660 178 0
h -1660 697 0
h 1660 -178 -697 0
h -1661 179 0
h -1661 708 0
h 1661 -179 -708 0
h -1662 180 0
h -1662 719 0
h 1662 -180 -719 0
h -1663 181 0
h -1663 730 0
h 1663 -181 -730 0
h -1664 182 0
h -1664 741 0
h 1664 -182 -741 0
h -1665 183 0
h -1665 752 0
h 1665 -183 -752 0
h -1666 184 0
h -1666 763 0
h 1666 -184 -763 0
h -1667 185 0
h -1667 774 0
h 1667 -185 -774 0
h -1668 186 0
h -1668 785 0
h 1668 -186 -785 0
h -1669 187 0
h -1669 796 0
h 1669 -187 -796 0
h -1670 188 0
h -1670 807 0
h 1670 -188 -807 0
h -1671 189 0
h -1671 818 0
h 1671 -189 -818 0
h -1672 190 0
h -1672 829 0
h 1672 -190 -829 0
h -153 -423 0
h -154 -434 0
h -155 -445 0
h -156 -456 0
h -157 -467 0
h -158 -478 0
h -159 -489 0
h -160 -500 0
h -161 -511 0
h -162 -522 0
h -163 -533 0
h -164 -544 0
h -165 -555 0
h -166 -566 0
h -167 -577 0
h -168 -588 0
h -169 -599 0
h -170 -610 0
h -171 -621 0
h -172 -632 0
h -173 -643 0
h -174 -654 0
h -175 -665 0
h -176 -676 0
h -177 -687 0
h -178 -698 0
h -179 -709 0
h -180 -720 0
h -181 -731 0
h -182 -742 0
h -183 -753 0
h -184 -764 0
h -185 -775 0
h -186 -786 0
h -187 -797 0
h -188 -808 0
h -189 -819 0
h -190 -830 0
h 1673 1674 1675 1676 1677 1678 1679 1680 1681 1682 1683 1684 1685 1686 1687 1688 1689 1690 1691 1692 1693 1694 1695 1696 1697 1698 1699 1700 1701 1702 1703 1704 1705 1706 1707 1708 1709 1710 0
h -1673 153 0
h -1673 424 0
h 1673 -153 -424 0
h -1674 154 0
h -1674 435 0
h 1674 -154 -435 0
h -1675 155 0
h -1675 446 0
h 1675 -155 -446 0
h -1676 156 0
h -1676 457 0
h 1676 -156 -457 0
h -1677 157 0
h -1677 468 0
h 1677 -157 -468 0
h -1678 158 0
h -1678 479 0
h 1678 -158 -479 0
h -1679 159 0
h -1679 490 0
h 1679 -159 -490 0
h -1680 160 0
h -1680 501 0
h 1680 -160 -501 0
h -1681 161 0
h -1681 512 0
h 1681 -161 -512 0
h -1682 162 0
h -1682 523 0
h 1682 -162 -523 0
h -1683 163 0
h -1683 534 0
h 1683 -163 -534 0
h -1684 164 0
h -1684 545 0
h 1684 -164 -545 0
h -1685 165 0
h -1685 556 0
h 1685 -165 -556 0
h -1686 166 0
h -1686 567 0
h 1686 -166 -567 0
h -1687 167 0
h -1687 578 0
h 1687 -167 -578 0
h -1688 168 0
h -1688 589 0
h 1688 -168 -589 0
h -1689 169 0
h -1689 600 0
h 1689 -169 -600 0
h -1690 170 0
h -1690 611 0
h 1690 -170 -611 0
h -1691 171 0
h -1691 622 0
h 1691 -171 -622 0
h -1692 172 0
h -1692 633 0
h 1692 -172 -633 0
h -1693 173 0
h -1693 644 0
h 1693 -173 -644 0
h -1694 174 0
h -1694 655 0
h 1694 -174 -655 0
h -1695 175 0
h -1695 666 0
h 1695 -175 -666 0
h -1696 176 0
h -1696 677 0
h 1696 -176 -677 0
h -1697 177 0
h -1697 688 0
h 1697 -177 -688 0
h -1698 178 0
h -1698 699 0
h 1698 -178 -699 0
h -1699 179 0
h -1699 710 0
h 1699 -179 -710 0
h -1700 180 0
h -1700 721 0
h 1700 -180 -721 0
h -1701 181 0
h -1701 732 0
h 1701 -181 -732 0
h -1702 182 0
h -1702 743 0
h 1702 -182 -743 0
h -1703 183 0
h -1703 754 0
h 1703 -183 -754 0
h -1704 184 0
h -1704 765 0
h 1704 -184 -765 0
h -1705 185 0
h -1705 776 0
h 1705 -185 -776 0
h -1706 186 0
h -1706 787 0
h 1706 -186 -787 0
h -1707 187 0
h -1707 798 0
h 1707 -187 -798 0
h -1708 188 0
h -1708 809 0
h 1708 -188 -809 0
h -1709 189 0
h -1709 820 0
h 1709 -189 -820 0
h -1710 190 0
h -1710 831 0
h 1710 -190 -831 0
h -153 -425 0
h -154 -436 0
h -155 -447 0
h -156 -458 0
h -157 -469 0
h -158 -480 0
h -159 -491 0
h -160 -502 0
h -161 -513 0
h -162 -524 0
h -163 -535 0
h -164 -546 0
h -165 -557 0
h -166 -568 0
h -167 -579 0
h -168 -590 0
h -169 -601 0
h -170 -612 0
h -171 -623 0
h -172 -634 0
h -173 -645 0
h -174 -656 0
h -175 -667 0
h -176 -678 0
h -177 -689 0
h -178 -700 0
h -179 -711 0
h -180 -722 0
h -181 -733 0
h -182 -744 0
h -183 -755 0
h -184 -766 0
h -185 -777 0
h -186 -788 0
h -187 -799 0
h -188 -810 0
h -189 -821 0
h -190 -832 0
h -153 -426 0
h -154 -437 0
h -155 -448 0
h -156 -459 0
h -157 -470 0
h -158 -481 0
h -159 -492 0
h -160 -503 0
h -161 -514 0
h -162 -525 0
h -163 -536 0
h -164 -547 0
h -165 -558 0
h -166 -569 0
h -167 -580 0
h -168 -591 0
h -169 -602 0
h -170 -613 0
h -171 -624 0
h -172 -635 0
h -173 -646 0
h -174 -657 0
h -175 -668 0
h -176 -679 0
h -177 -690 0
h -178 -701 0
h -179 -712 0
h -180 -723 0
h -181 -734 0
h -182 -745 0
h -183 -756 0
h -184 -767 0
h -185 -778 0
h -186 -789 0
h -187 -800 0
h -188 -811 0
h -189 -822 0
h -190 -833 0
h -153 -427 0
h -154 -438 0
h -155 -449 0
h -156 -460 0
h -157 -471 0
h -158 -482 0
h -159 -493 0
h -160 -504 0
h -161 -515 0
h -162 -526 0
h -163 -537 0
h -164 -548 0
h -165 -559 0
h -166 -570 0
h -167 -581 0
h -168 -592 0
h -169 -603 0
h -170 -614 0
h -171 -625 0
h -172 -636 0
h -173 -647 0
h -174 -658 0
h -175 -669 0
h -176 -680 0
h -177 -691 0
h -178 -702 0
h -179 -713 0
h -180 -724 0
h -181 -735 0
h -182 -746 0
h -183 -757 0
h -184 -768 0
h -185 -779 0
h -186 -790 0
h -187 -801 0
h -188 -812 0
h -189 -823 0
h -190 -834 0
h -153 -428 0
h -154 -439 0
h -155 -450 0
h -156 -461 0
h -157 -472 0
h -158 -483 0
h -159 -494 0
h -160 -505 0
h -161 -516 0
h -162 -527 0
h -163 -538 0
h -164 -549 0
h -165 -560 0
h -166 -571 0
h -167 -582 0
h -168 -593 0
h -169 -604 0
h -170 -615 0
h -171 -626 0
h -172 -637 0
h -173 -648 0
h -174 -659 0
h -175 -670 0
h -176 -681 0
h -177 -692 0
h -178 -703 0
h -179 -714 0
h -180 -725 0
h -181 -736 0
h -182 -747 0
h -183 -758 0
h -184 -769 0
h -185 -780 0
h -186 -791 0
h -187 -802 0
h -188 -813 0
h -189 -824 0
h -190 -835 0
h -153 -429 0
h -154 -440 0
h -155 -451 0
h -156 -462 0
h -157 -473 0
h -158 -484 0
h -159 -495 0
h -160 -506 0
h -161 -517 0
h -162 -528 0
h -163 -539 0
h -164 -550 0
h -165 -561 0
h -166 -572 0
h -167 -583 0
h -168 -594 0
h -169 -605 0
h -170 -616 0
h -171 -627 0
h -172 -638 0
h -173 -649 0
h -174 -660 0
h -175 -671 0
h -176 -682 0
h -177 -693 0
h -178 -704 0
h -179 -715 0
h -180 -726 0
h -181 -737 0
h -182 -748 0
h -183 -759 0
h -184 -770 0
h -185 -781 0
h -186 -792 0
h -187 -803 0
h -188 -814 0
h -189 -825 0
h -190 -836 0
h -191 -419 0
h -192 -430 0
h -193 -441 0
h -194 -452 0
h -195 -463 0
h -196 -474 0
h -197 -485 0
h -198 -496 0
h -199 -507 0
h -200 -518 0
h -201 -529 0
h -202 -540 0
h -203 -551 0
h -204 -562 0
h -205 -573 0
h -206 -584 0
h -207 -595 0
h -208 -606 0
h -209 -617 0
h -210 -628 0
h -211 -639 0
h -212 -650 0
h -213 -661 0
h -214 -672 0
h -215 -683 0
h -216 -694 0
h -217 -705 0
h -218 -716 0
h -219 -727 0
h -220 -738 0
h -221 -749 0
h -222 -760 0
h -223 -771 0
h -224 -782 0
h -225 -793 0
h -226 -804 0
h -227 -815 0
h -228 -826 0
h -191 -420 0
h -192 -431 0
h -193 -442 0
h -194 -453 0
h -195 -464 0
h -196 -475 0
h -197 -486 0
h -198 -497 0
h -199 -508 0
h -200 -519 0
h -201 -530 0
h -202 -541 0
h -203 -552 0
h -204 -563 0
h -205 -574 0
h -206 -585 0
h -207 -596 0
h -208 -607 0
h -209 -618 0
h -210 -629 0
h -211 -640 0
h -212 -651 0
h -213 -662 0
h -214 -673 0
h -215 -684 0
h -216 -695 0
h -217 -706 0
h -218 -717 0
h -219 -728 0
h -220 -739 0
h -221 -750 0
h -222 -761 0
h -223 -772 0
h -224 -783 0
h -225 -794 0
h -226 -805 0
h -227 -816 0
h -228 -827 0
h -191 -421 0
h -192 -432 0
h -193 -443 0
h -194 -454 0
h -195 -465 0
h -196 -476 0
h -197 -487 0
h -198 -498 0
h -199 -509 0
h -200 -520 0
h -201 -531 0
h -202 -542 0
h -203 -553 0
h -204 -564 0
h -205 -575 0
h -206 -586 0
h -207 -597 0
h -208 -608 0
h -209 -619 0
h -210 -630 0
h -211 -641 0
h -212 -652 0
h -213 -663 0
h -214 -674 0
h -215 -685 0
h -216 -696 0
h -217 -707 0
h -218 -718 0
h -219 -729 0
h -220 -740 0
h -221 -751 0
h -222 -762 0
h -223 -773 0
h -224 -784 0
h -225 -795 0
h -226 -806 0
h -227 -817 0
h -228 -828 0
h -191 -422 0
h -192 -433 0
h -193 -444 0
h -194 -455 0
h -195 -466 0
h -196 -477 0
h -197 -488 0
h -198 -499 0
h -199 -510 0
h -200 -521 0
h -201 -532 0
h -202 -543 0
h -203 -554 0
h -204 -565 0
h -205 -576 0
h -206 -587 0
h -207 -598 0
h -208 -609 0
h -209 -620 0
h -210 -631 0
h -211 -642 0
h -212 -653 0
h -213 -664 0
h -214 -675 0
h -215 -686 0
h -216 -697 0
h -217 -708 0
h -218 -719 0
h -219 -730 0
h -220 -741 0
h -221 -752 0
h -222 -763 0
h -223 -774 0
h -224 -785 0
h -225 -796 0
h -226 -807 0
h -227 -818 0
h -228 -829 0
h -191 -423 0
h -192 -434 0
h -193 -445 0
h -194 -456 0
h -195 -467 0
h -196 -478 0
h -197 -489 0
h -198 -500 0
h -199 -511 0
h -200 -522 0
h -201 -533 0
h -202 -544 0
h -203 -555 0
h -204 -566 0
h -205 -577 0
h -206 -588 0
h -207 -599 0
h -208 -610 0
h -209 -621 0
h -210 -632 0
h -211 -643 0
h -212 -654 0
h -213 -665 0
h -214 -676 0
h -215 -687 0
h -216 -698 0
h -217 -709 0
h -218 -720 0
h -219 -731 0
h -220 -742 0
h -221 -753 0
h -222 -764 0
h -223 -775 0
h -224 -786 0
h -225 -797 0
h -226 -808 0
h -227 -819 0
h -228 -830 0
h -191 -424 0
h -192 -435 0
h -193 -446 0
h -194 -457 0
h -195 -468 0
h -196 -479 0
h -197 -490 0
h -198 -501 0
h -199 -512 0
h -200 -523 0
h -201 -534 0
h -202 -545 0
h -203 -556 0
h -204 -567 0
h -205 -578 0
h -206 -589 0
h -207 -600 0
h -208 -611 0
h -209 -622 0
h -210 -633 0
h -211 -644 0
h -212 -655 0
h -213 -666 0
h -214 -677 0
h -215 -688 0
h -216 -699 0
h -217 -710 0
h -218 -721 0
h -219 -732 0
h -220 -743 0
h -221 -754 0
h -222 -765 0
h -223 -776 0
h -224 -787 0
h -225 -798 0
h -226 -809 0
h -227 -820 0
h -228 -831 0
h -191 -425 0
h -192 -436 0
h -193 -447 0
h -194 -458 0
h -195 -469 0
h -196 -480 0
h -197 -491 0
h -198 -502 0
h -199 -513 0
h -200 -524 0
h -201 -535 0
h -202 -546 0
h -203 -557 0
h -204 -568 0
h -205 -579 0
h -206 -590 0
h -207 -601 0
h -208 -612 0
h -209 -623 0
h -210 -634 0
h -211 -645 0
h -212 -656 0
h -213 -667 0
h -214 -678 0
h -215 -689 0
h -216 -700 0
h -217 -711 0
h -218 -722 0
h -219 -733 0
h -220 -744 0
h -221 -755 0
h -222 -766 0
h -223 -777 0
h -224 -788 0
h -225 -799 0
h -226 -810 0
h -227 -821 0
h -228 -832 0
h -191 -426 0
h -192 -437 0
h -193 -448 0
h -194 -459 0
h -195 -470 0
h -196 -481 0
h -197 -492 0
h -198 -503 0
h -199 -514 0
h -200 -525 0
h -201 -536 0
h -202 -547 0
h -203 -558 0
h -204 -569 0
h -205 -580 0
h -206 -591 0
h -207 -602 0
h -208 -613 0
h -209 -624 0
h -210 -635 0
h -211 -646 0
h -212 -657 0
h -213 -668 0
h -214 -679 0
h -215 -690 0
h -216 -701 0
h -217 -712 0
h -218 -723 0
h -219 -734 0
h -220 -745 0
h -221 -756 0
h -222 -767 0
h -223 -778 0
h -224 -789 0
h -225 -800 0
h -226 -811 0
h -227 -822 0
h -228 -833 0
h -191 -427 0
h -192 -438 0
h -193 -449 0
h -194 -460 0
h -195 -471 0
h -196 -482 0
h -197 -493 0
h -198 -504 0
h -199 -515 0
h -200 -526 0
h -201 -537 0
h -202 -548 0
h -203 -559 0
h -204 -570 0
h -205 -581 0
h -206 -592 0
h -207 -603 0
h -208 -614 0
h -209 -625 0
h -210 -636 0
h -211 -647 0
h -212 -658 0
h -213 -669 0
h -214 -680 0
h -215 -691 0
h -216 -702 0
h -217 -713 0
h -218 -724 0
h -219 -735 0
h -220 -746 0
h -221 -757 0
h -222 -768 0
h -223 -779 0
h -224 -790 0
h -225 -801 0
h -226 -812 0
h -227 -823 0
h -228 -834 0
h -191 -428 0
h -192 -439 0
h -193 -450 0
h -194 -461 0
h -195 -472 0
h -196 -483 0
h -197 -494 0
h -198 -505 0
h -199 -516 0
h -200 -527 0
h -201 -538 0
h -202 -549 0
h -203 -560 0
h -204 -571 0
h -205 -582 0
h -206 -593 0
h -207 -604 0
h -208 -615 0
h -209 -626 0
h -210 -637 0
h -211 -648 0
h -212 -659 0
h -213 -670 0
h -214 -681 0
h -215 -692 0
h -216 -703 0
h -217 -714 0
h -218 -725 0
h -219 -736 0
h -220 -747 0
h -221 -758 0
h -222 -769 0
h -223 -780 0
h -224 -791 0
h -225 -802 0
h -226 -813 0
h -227 -824 0
h -228 -835 0
h -191 -429 0
h -192 -440 0
h -193 -451 0
h -194 -462 0
h -195 -473 0
h -196 -484 0
h -197 -495 0
h -198 -506 0
h -199 -517 0
h -200 -528 0
h -201 -539 0
h -202 -550 0
h -203 -561 0
h -204 -572 0
h -205 -583 0
h -206 -594 0
h -207 -605 0
h -208 -616 0
h -209 -627 0
h -210 -638 0
h -211 -649 0
h -212 -660 0
h -213 -671 0
h -214 -682 0
h -215 -693 0
h -216 -704 0
h -217 -715 0
h -218 -726 0
h -219 -737 0
h -220 -748 0
h -221 -759 0
h -222 -770 0
h -223 -781 0
h -224 -792 0
h -225 -803 0
h -226 -814 0
h -227 -825 0
h -228 -836 0
h -229 -419 0
h -230 -430 0
h -231 -441 0
h -232 -452 0
h -233 -463 0
h -234 -474 0
h -235 -485 0
h -236 -496 0
h -237 -507 0
h -238 -518 0
h -239 -529 0
h -240 -540 0
h -241 -551 0
h -242 -562 0
h -243 -573 0
h -244 -584 0
h -245 -595 0
h -246 -606 0
h -247 -617 0
h -248 -628 0
h -249 -639 0
h -250 -650 0
h -251 -661 0
h -252 -672 0
h -253 -683 0
h -254 -694 0
h -255 -705 0
h -256 -716 0
h -257 -727 0
h -258 -738 0
h -259 -749 0
h -260 -760 0
h -261 -771 0
h -262 -782 0
h -263 -793 0
h -264 -804 0
h -265 -815 0
h -266 -826 0
h -229 -420 0
h -230 -431 0
h -231 -442 0
h -232 -453 0
h -233 -464 0
h -234 -475 0
h -235 -486 0
h -236 -497 0
h -237 -508 0
h -238 -519 0
h -239 -530 0
h -240 -541 0
h -241 -552 0
h -242 -563 0
h -243 -574 0
h -244 -585 0
h -245 -596 0
h -246 -607 0
h -247 -618 0
h -248 -629 0
h -249 -640 0
h -250 -651 0
h -251 -662 0
h -252 -673 0
h -253 -684 0
h -254 -695 0
h -255 -706 0
h -256 -717 0
h -257 -728 0
h -258 -739 0
h -259 -750 0
h -260 -761 0
h -261 -772 0
h -262 -783 0
h -263 -794 0
h -264 -805 0
h -265 -816 0
h -266 -827 0
h -229 -421 0
h -230 -432 0
h -231 -443 0
h -232 -454 0
h -233 -465 0
h -234 -476 0
h -235 -487 0
h -236 -498 0
h -237 -509 0
h -238 -520 0
h -239 -531 0
h -240 -542 0
h -241 -553 0
h -242 -564 0
h -243 -575 0
h -244 -586 0
h -245 -597 0
h -246 -608 0
h -247 -619 0
h -248 -630 0
h -249 -641 0
h -250 -652 0
h -251 -663 0
h -252 -674 0
h -253 -685 0
h -254 -696 0
h -255 -707 0
h -256 -718 0
h -257 -729 0
h -258 -740 0
h -259 -751 0
h -260 -762 0
h -261 -773 0
h -262 -784 0
h -263 -795 0
h -264 -806 0
h -265 -817 0
h -266 -828 0
h -229 -422 0
h -230 -433 0
h -231 -444 0
h -232 -455 0
h -233 -466 0
h -234 -477 0
h -235 -488 0
h -236 -499 0
h -237 -510 0
h -238 -521 0
h -239 -532 0
h -240 -543 0
h -241 -554 0
h -242 -565 0
h -243 -576 0
h -244 -587 0
h -245 -598 0
h -246 -609 0
h -247 -620 0
h -248 -631 0
h -249 -642 0
h -250 -653 0
h -251 -664 0
h -252 -675 0
h -253 -686 0
h -254 -697 0
h -255 -708 0
h -256 -719 0
h -257 -730 0
h -258 -741 0
h -259 -752 0
h -260 -763 0
h -261 -774 0
h -262 -785 0
h -263 -796 0
h -264 -807 0
h -265 -818 0
h -266 -829 0
h -229 -423 0
h -230 -434 0
h -231 -445 0
h -232 -456 0
h -233 -467 0
h -234 -478 0
h -235 -489 0
h -236 -500 0
h -237 -511 0
h -238 -522 0
h -239 -533 0
h -240 -544 0
h -241 -555 0
h -242 -566 0
h -243 -577 0
h -244 -588 0
h -245 -599 0
h -246 -610 0
h -247 -621 0
h -248 -632 0
h -249 -643 0
h -250 -654 0
h -251 -665 0
h -252 -676 0
h -253 -687 0
h -254 -698 0
h -255 -709 0
h -256 -720 0
h -257 -731 0
h -258 -742 0
h -259 -753 0
h -260 -764 0
h -261 -775 0
h -262 -786 0
h -263 -797 0
h -264 -808 0
h -265 -819 0
h -266 -830 0
h -229 -424 0
h -230 -435 0
h -231 -446 0
h -232 -457 0
h -233 -468 0
h -234 -479 0
h -235 -490 0
h -236 -501 0
h -237 -512 0
h -238 -523 0
h -239 -534 0
h -240 -545 0
h -241 -556 0
h -242 -567 0
h -243 -578 0
h -244 -589 0
h -245 -600 0
h -246 -611 0
h -247 -622 0
h -248 -633 0
h -249 -644 0
h -250 -655 0
h -251 -666 0
h -252 -677 0
h -253 -688 0
h -254 -699 0
h -255 -710 0
h -256 -721 0
h -257 -732 0
h -258 -743 0
h -259 -754 0
h -260 -765 0
h -261 -776 0
h -262 -787 0
h -263 -798 0
h -264 -809 0
h -265 -820 0
h -266 -831 0
h -229 -425 0
h -230 -436 0
h -231 -447 0
h -232 -458 0
h -233 -469 0
h -234 -480 0
h -235 -491 0
h -236 -502 0
h -237 -513 0
h -238 -524 0
h -239 -535 0
h -240 -546 0
h -241 -557 0
h -242 -568 0
h -243 -579 0
h -244 -590 0
h -245 -601 0
h -246 -612 0
h -247 -623 0
h -248 -634 0
h -249 -645 0
h -250 -656 0
h -251 -667 0
h -252 -678 0
h -253 -689 0
h -254 -700 0
h -255 -711 0
h -256 -722 0
h -257 -733 0
h -258 -744 0
h -259 -755 0
h -260 -766 0
h -261 -777 0
h -262 -788 0
h -263 -799 0
h -264 -810 0
h -265 -821 0
h -266 -832 0
h -229 -426 0
h -230 -437 0
h -231 -448 0
h -232 -459 0
h -233 -470 0
h -234 -481 0
h -235 -492 0
h -236 -503 0
h -237 -514 0
h -238 -525 0
h -239 -536 0
h -240 -547 0
h -241 -558 0
h -242 -569 0
h -243 -580 0
h -244 -591 0
h -245 -602 0
h -246 -613 0
h -247 -624 0
h -248 -635 0
h -249 -646 0
h -250 -657 0
h -251 -668 0
h -252 -679 0
h -253 -690 0
h -254 -701 0
h -255 -712 0
h -256 -723 0
h -257 -734 0
h -258 -745 0
h -259 -756 0
h -260 -767 0
h -261 -778 0
h -262 -789 0
h -263 -800 0
h -264 -811 0
h -265 -822 0
h -266 -833 0
h -229 -427 0
h -230 -438 0
h -231 -449 0
h -232 -460 0
h -233 -471 0
h -234 -482 0
h -235 -493 0
h -236 -504 0
h -237 -515 0
h -238 -526 0
h -239 -537 0
h -240 -548 0
h -241 -559 0
h -242 -570 0
h -243 -581 0
h -244 -592 0
h -245 -603 0
h -246 -614 0
h -247 -625 0
h -248 -636 0
h -249 -647 0
h -250 -658 0
h -251 -669 0
h -252 -680 0
h -253 -691 0
h -254 -702 0
h -255 -713 0
h -256 -724 0
h -257 -735 0
h -258 -746 0
h -259 -757 0
h -260 -768 0
h -261 -779 0
h -262 -790 0
h -263 -801 0
h -264 -812 0
h -265 -823 0
h -266 -834 0
h -229 -428 0
h -230 -439 0
h -231 -450 0
h -232 -461 0
h -233 -472 0
h -234 -483 0
h -235 -494 0
h -236 -505 0
h -237 -516 0
h -238 -527 0
h -239 -538 0
h -240 -549 0
h -241 -560 0
h -242 -571 0
h -243 -582 0
h -244 -593 0
h -245 -604 0
h -246 -615 0
h -247 -626 0
h -248 -637 0
h -249 -648 0
h -250 -659 0
h -251 -670 0
h -252 -681 0
h -253 -692 0
h -254 -703 0
h -255 -714 0
h -256 -725 0
h -257 -736 0
h -258 -747 0
h -259 -758 0
h -260 -769 0
h -261 -780 0
h -262 -791 0
h -263 -802 0
h -264 -813 0
h -265 -824 0
h -266 -835 0
h -229 -429 0
h -230 -440 0
h -231 -451 0
h -232 -462 0
h -233 -473 0
h -234 -484 0
h -235 -495 0
h -236 -506 0
h -237 -517 0
h -238 -528 0
h -239 -539 0
h -240 -550 0
h -241 -561 0
h -242 -572 0
h -243 -583 0
h -244 -594 0
h -245 -605 0
h -246 -616 0
h -247 -627 0
h -248 -638 0
h -249 -649 0
h -250 -660 0
h -251 -671 0
h -252 -682 0
h -253 -693 0
h -254 -704 0
h -255 -715 0
h -256 -726 0
h -257 -737 0
h -258 -748 0
h -259 -759 0
h -260 -770 0
h -261 -781 0
h -262 -792 0
h -263 -803 0
h -264 -814 0
h -265 -825 0
h -266 -836 0
h -267 -419 0
h -268 -430 0
h -269 -441 0
h -270 -452 0
h -271 -463 0
h -272 -474 0
h -273 -485 0
h -274 -496 0
h -275 -507 0
h -276 -518 0
h -277 -529 0
h -278 -540 0
h -279 -551 0
h -280 -562 0
h -281 -573 0
h -282 -584 0
h -283 -595 0
h -284 -606 0
h -285 -617 0
h -286 -628 0
h -287 -639 0
h -288 -650 0
h -289 -661 0
h -290 -672 0
h -291 -683 0
h -292 -694 0
h -293 -705 0
h -294 -716 0
h -295 -727 0
h -296 -738 0
h -297 -749 0
h -298 -760 0
h -299 -771 0
h -300 -782 0
h -301 -793 0
h -302 -804 0
h -303 -815 0
h -304 -826 0
h 1711 1712 1713 1714 1715 1716 1717 1718 1719 1720 1721 1722 1723 1724 1725 1726 1727 1728 1729 1730 1731 1732 1733 1734 1735 1736 1737 1738 1739 1740 1741 1742 1743 1744 1745 1746 1747 1748 0
h -1711 267 0
h -1711 420 0
h 1711 -267 -420 0
h -1712 268 0
h -1712 431 0
h 1712 -268 -431 0
h -1713 269 0
h -1713 442 0
h 1713 -269 -442 0
h -1714 270 0
h -1714 453 0
h 1714 -270 -453 0
h -1715 271 0
h -1715 464 0
h 1715 -271 -464 0
h -1716 272 0
h -1716 475 0
h 1716 -272 -475 0
h -1717 273 0
h -1717 486 0
h 1717 -273 -486 0
h -1718 274 0
h -1718 497 0
h 1718 -274 -497 0
h -1719 275 0
h -1719 508 0
h 1719 -275 -508 0
h -1720 276 0
h -1720 519 0
h 1720 -276 -519 0
h -1721 277 0
h -1721 530 0
h 1721 -277 -530 0
h -1722 278 0
h -1722 541 0
h 1722 -278 -541 0
h -1723 279 0
h -1723 552 0
h 1723 -279 -552 0
h -1724 280 0
h -1724 563 0
h 1724 -280 -563 0
h -1725 281 0
h -1725 574 0
h 1725 -281 -574 0
h -1726 282 0
h -1726 585 0
h 1726 -282 -585 0
h -1727 283 0
h -1727 596 0
h 1727 -283 -596 0
h -1728 284 0
h -1728 607 0
h 1728 -284 -607 0
h -1729 285 0
h -1729 618 0
h 1729 -285 -618 0
h -1730 286 0
h -1730 629 0
h 1730 -286 -629 0
h -1731 287 0
h -1731 640 0
h 1731 -287 -640 0
h -1732 288 0
h -1732 651 0
h 1732 -288 -651 0
h -1733 289 0
h -1733 662 0
h 1733 -289 -662 0
h -1734 290 0
h -1734 673 0
h 1734 -290 -673 0
h -1735 291 0
h -1735 684 0
h 1735 -291 -684 0
h -1736 292 0
h -1736 695 0
h 1736 -292 -695 0
h -1737 293 0
h -1737 706 0
h 1737 -293 -706 0
h -1738 294 0
h -1738 717 0
h 1738 -294 -717 0
h -1739 295 0
h -1739 728 0
h 1739 -295 -728 0
h -1740 296 0
h -1740 739 0
h 1740 -296 -739 0
h -1741 297 0
h -1741 750 0
h 1741 -297 -750 0
h -1742 298 0
h -1742 761 0
h 1742 -298 -761 0
h -1743 299 0
h -1743 772 0
h 1743 -299 -772 0
h -1744 300 0
h -1744 783 0
h 1744 -300 -783 0
h -1745 301 0
h -1745 794 0
h 1745 -301 -794 0
h -1746 302 0
h -1746 805 0
h 1746 -302 -805 0
h -1747 303 0
h -1747 816 0
h 1747 -303 -816 0
h -1748 304 0
h -1748 827 0
h 1748 -304 -827 0
h -267 -421 0
h -268 -432 0
h -269 -443 0
h -270 -454 0
h -271 -465 0
h -272 -476 0
h -273 -487 0
h -274 -498 0
h -275 -509 0
h -276 -520 0
h -277 -531 0
h -278 -542 0
h -279 -553 0
h -280 -564 0
h -281 -575 0
h -282 -586 0
h -283 -597 0
h -284 -608 0
h -285 -619 0
h -286 -630 0
h -287 -641 0
h -288 -652 0
h -289 -663 0
h -290 -674 0
h -291 -685 0
h -292 -696 0
h -293 -707 0
h -294 -718 0
h -295 -729 0
h -296 -740 0
h -297 -751 0
h -298 -762 0
h -299 -773 0
h -300 -784 0
h -301 -795 0
h -302 -806 0
h -303 -817 0
h -304 -828 0
h 1749 1750 1751 1752 1753 1754 1755 1756 1757 1758 1759 1760 1761 1762 1763 1764 1765 1766 1767 1768 1769 1770 1771 1772 1773 1774 1775 1776 1777 1778 1779 1780 1781 1782 1783 1784 1785 1786 0
h -1749 267 0
h -1749 422 0
h 1749 -267 -422 0
h -1750 268 0
h -1750 433 0
h 1750 -268 -433 0
h -1751 269 0
h -1751 444 0
h 1751 -269 -444 0
h -1752 270 0
h -1752 455 0
h 1752 -270 -455 0
h -1753 271 0
h -1753 466 0
h 1753 -271 -466 0
h -1754 272 0
h -1754 477 0
h 1754 -272 -477 0
h -1755 273 0
h -1755 488 0
h 1755 -273 -488 0
h -1756 274 0
h -1756 499 0
h 1756 -274 -499 0
h -1757 275 0
h -1757 510 0
h 1757 -275 -510 0
h -1758 276 0
h -1758 521 0
h 1758 -276 -521 0
h -1759 277 0
h -1759 532 0
h 1759 -277 -532 0
h -1760 278 0
h -1760 543 0
h 1760 -278 -543 0
h -1761 279 0
h -1761 554 0
h 1761 -279 -554 0
h -1762 280 0
h -1762 565 0
h 1762 -280 -565 0
h -1763 281 0
h -1763 576 0
h 1763 -281 -576 0
h -1764 282 0
h -1764 587 0
h 1764 -282 -587 0
h -1765 283 0
h -1765 598 0
h 1765 -283 -598 0
h -1766 284 0
h -1766 609 0
h 1766 -284 -609 0
h -1767 285 0
h -1767 620 0
h 1767 -285 -620 0
h -1768 286 0
h -1768 631 0
h 1768 -286 -631 0
h -1769 287 0
h -1769 642 0
h 1769 -287 -642 0
h -1770 288 0
h -1770 653 0
h 1770 -288 -653 0
h -1771 289 0
h -1771 664 0
h 1771 -289 -664 0
h -1772 290 0
h -1772 675 0
h 1772 -290 -675 0
h -1773 291 0
h -1773 686 0
h 1773 -291 -686 0
h -1774 292 0
h -1774 697 0
h 1774 -292 -697 0
h -1775 293 0
h -1775 708 0
h 1775 -293 -708 0
h -1776 294 0
h -1776 719 0
h 1776 -294 -719 0
h -1777 295 0
h -1777 730 0
h 1777 -295 -730 0
h -1778 296 0
h -1778 741 0
h 1778 -296 -741 0
h -1779 297 0
h -1779 752 0
h 1779 -297 -752 0
h -1780 298 0
h -1780 763 0
h 1780 -298 -763 0
h -1781 299 0
h -1781 774 0
h 1781 -299 -774 0
h -1782 300 0
h -1782 785 0
h 1782 -300 -785 0
h -1783 301 0
h -1783 796 0
h 1783 -301 -796 0
h -1784 302 0
h -1784 807 0
h 1784 -302 -807 0
h -1785 303 0
h -1785 818 0
h 1785 -303 -818 0
h -1786 304 0
h -1786 829 0
h 1786 -304 -829 0
h -267 -423 0
h -268 -434 0
h -269 -445 0
h -270 -456 0
h -271 -467 0
h -272 -478 0
h -273 -489 0
h -274 -500 0
h -275 -511 0
h -276 -522 0
h -277 -533 0
h -278 -544 0
h -279 -555 0
h -280 -566 0
h -281 -577 0
h -282 -588 0
h -283 -599 0
h -284 -610 0
h -285 -621 0
h -286 -632 0
h -287 -643 0
h -288 -654 0
h -289 -665 0
h -290 -676 0
h -291 -687 0
h -292 -698 0
h -293 -709 0
h -294 -720 0
h -295 -731 0
h -296 -742 0
h -297 -753 0
h -298 -764 0
h -299 -775 0
h -300 -786 0
h -301 -797 0
h -302 -808 0
h -303 -819 0
h -304 -830 0
h -267 -424 0
h -268 -435 0
h -269 -446 0
h -270 -457 0
h -271 -468 0
h -272 -479 0
h -273 -490 0
h -274 -501 0
h -275 -512 0
h -276 -523 0
h -277 -534 0
h -278 -545 0
h -279 -556 0
h -280 -567 0
h -281 -578 0
h -282 -589 0
h -283 -600 0
h -284 -611 0
h -285 -622 0
h -286 -633 0
h -287 -644 0
h -288 -655 0
h -289 -666 0
h -290 -677 0
h -291 -688 0
h -292 -699 0
h -293 -710 0
h -294 -721 0
h -295 -732 0
h -296 -743 0
h -297 -754 0
h -298 -765 0
h -299 -776 0
h -300 -787 0
h -301 -798 0
h -302 -809 0
h -303 -820 0
h -304 -831 0
h 1787 1788 1789 1790 1791 1792 1793 1794 1795 1796 1797 1798 1799 1800 1801 1802 1803 1804 1805 1806 1807 1808 1809 1810 1811 1812 1813 1814 1815 1816 1817 1818 1819 1820 1821 1822 1823 1824 0
h -1787 267 0
h -1787 425 0
h 1787 -267 -425 0
h -1788 268 0
h -1788 436 0
h 1788 -268 -436 0
h -1789 269 0
h -1789 447 0
h 1789 -269 -447 0
h -1790 270 0
h -1790 458 0
h 1790 -270 -458 0
h -1791 271 0
h -1791 469 0
h 1791 -271 -469 0
h -1792 272 0
h -1792 480 0
h 1792 -272 -480 0
h -1793 273 0
h -1793 491 0
h 1793 -273 -491 0
h -1794 274 0
h -1794 502 0
h 1794 -274 -502 0
h -1795 275 0
h -1795 513 0
h 1795 -275 -513 0
h -1796 276 0
h -1796 524 0
h 1796 -276 -524 0
h -1797 277 0
h -1797 535 0
h 1797 -277 -535 0
h -1798 278 0
h -1798 546 0
h 1798 -278 -546 0
h -1799 279 0
h -1799 557 0
h 1799 -279 -557 0
h -1800 280 0
h -1800 568 0
h 1800 -280 -568 0
h -1801 281 0
h -1801 579 0
h 1801 -281 -579 0
h -1802 282 0
h -1802 590 0
h 1802 -282 -590 0
h -1803 283 0
h -1803 601 0
h 1803 -283 -601 0
h -1804 284 0
h -1804 612 0
h 1804 -284 -612 0
h -1805 285 0
h -1805 623 0
h 1805 -285 -623 0
h -1806 286 0
h -1806 634 0
h 1806 -286 -634 0
h -1807 287 0
h -1807 645 0
h 1807 -287 -645 0
h -1808 288 0
h -1808 656 0
h 1808 -288 -656 0
h -1809 289 0
h -1809 667 0
h 1809 -289 -667 0
h -1810 290 0
h -1810 678 0
h 1810 -290 -678 0
h -1811 291 0
h -1811 689 0
h 1811 -291 -689 0
h -1812 292 0
h -1812 700 0
h 1812 -292 -700 0
h -1813 293 0
h -1813 711 0
h 1813 -293 -711 0
h -1814 294 0
h -1814 722 0
h 1814 -294 -722 0
h -1815 295 0
h -1815 733 0
h 1815 -295 -733 0
h -1816 296 0
h -1816 744 0
h 1816 -296 -744 0
h -1817 297 0
h -1817 755 0
h 1817 -297 -755 0
h -1818 298 0
h -1818 766 0
h 1818 -298 -766 0
h -1819 299 0
h -1819 777 0
h 1819 -299 -777 0
h -1820 300 0
h -1820 788 0
h 1820 -300 -788 0
h -1821 301 0
h -1821 799 0
h 1821 -301 -799 0
h -1822 302 0
h -1822 810 0
h 1822 -302 -810 0
h -1823 303 0
h -1823 821 0
h 1823 -303 -821 0
h -1824 304 0
h -1824 832 0
h 1824 -304 -832 0
h 1825 1826 1827 1828 1829 1830 1831 1832 1833 1834 1835 1836 1837 1838 1839 1840 1841 1842 1843 1844 1845 1846 1847 1848 1849 1850 1851 1852 1853 1854 1855 1856 1857 1858 1859 1860 1861 1862 0
h -1825 267 0
h -1825 426 0
h 1825 -267 -426 0
h -1826 268 0
h -1826 437 0
h 1826 -268 -437 0
h -1827 269 0
h -1827 448 0
h 1827 -269 -448 0
h -1828 270 0
h -1828 459 0
h 1828 -270 -459 0
h -1829 271 0
h -1829 470 0
h 1829 -271 -470 0
h -1830 272 0
h -1830 481 0
h 1830 -272 -481 0
h -1831 273 0
h -1831 492 0
h 1831 -273 -492 0
h -1832 274 0
h -1832 503 0
h 1832 -274 -503 0
h -1833 275 0
h -1833 514 0
h 1833 -275 -514 0
h -1834 276 0
h -1834 525 0
h 1834 -276 -525 0
h -1835 277 0
h -1835 536 0
h 1835 -277 -536 0
h -1836 278 0
h -1836 547 0
h 1836 -278 -547 0
h -1837 279 0
h -1837 558 0
h 1837 -279 -558 0
h -1838 280 0
h -1838 569 0
h 1838 -280 -569 0
h -1839 281 0
h -1839 580 0
h 1839 -281 -580 0
h -1840 282 0
h -1840 591 0
h 1840 -282 -591 0
h -1841 283 0
h -1841 602 0
h 1841 -283 -602 0
h -1842 284 0
h -1842 613 0
h 1842 -284 -613 0
h -1843 285 0
h -1843 624 0
h 1843 -285 -624 0
h -1844 286 0
h -1844 635 0
h 1844 -286 -635 0
h -1845 287 0
h -1845 646 0
h 1845 -287 -646 0
h -1846 288 0
h -1846 657 0
h 1846 -288 -657 0
h -1847 289 0
h -1847 668 0
h 1847 -289 -668 0
h -1848 290 0
h -1848 679 0
h 1848 -290 -679 0
h -1849 291 0
h -1849 690 0
h 1849 -291 -690 0
h -1850 292 0
h -1850 701 0
h 1850 -292 -701 0
h -1851 293 0
h -1851 712 0
h 1851 -293 -712 0
h -1852 294 0
h -1852 723 0
h 1852 -294 -723 0
h -1853 295 0
h -1853 734 0
h 1853 -295 -734 0
h -1854 296 0
h -1854 745 0
h 1854 -296 -745 0
h -1855 297 0
h -1855 756 0
h 1855 -297 -756 0
h -1856 298 0
h -1856 767 0
h 1856 -298 -767 0
h -1857 299 0
h -1857 778 0
h 1857 -299 -778 0
h -1858 300 0
h -1858 789 0
h 1858 -300 -789 0
h -1859 301 0
h -1859 800 0
h 1859 -301 -800 0
h -1860 302 0
h -1860 811 0
h 1860 -302 -811 0
h -1861 303 0
h -1861 822 0
h 1861 -303 -822 0
h -1862 304 0
h -1862 833 0
h 1862 -304 -833 0
h -267 -427 0
h -268 -438 0
h -269 -449 0
h -270 -460 0
h -271 -471 0
h -272 -482 0
h -273 -493 0
h -274 -504 0
h -275 -515 0
h -276 -526 0
h -277 -537 0
h -278 -548 0
h -279 -559 0
h -280 -570 0
h -281 -581 0
h -282 -592 0
h -283 -603 0
h -284 -614 0
h -285 -625 0
h -286 -636 0
h -287 -647 0
h -288 -658 0
h -289 -669 0
h -290 -680 0
h -291 -691 0
h -292 -702 0
h -293 -713 0
h -294 -724 0
h -295 -735 0
h -296 -746 0
h -297 -757 0
h -298 -768 0
h -299 -779 0
h -300 -790 0
h -301 -801 0
h -302 -812 0
h -303 -823 0
h -304 -834 0
h -267 -428 0
h -268 -439 0
h -269 -450 0
h -270 -461 0
h -271 -472 0
h -272 -483 0
h -273 -494 0
h -274 -505 0
h -275 -516 0
h -276 -527 0
h -277 -538 0
h -278 -549 0
h -279 -560 0
h -280 -571 0
h -281 -582 0
h -282 -593 0
h -283 -604 0
h -284 -615 0
h -285 -626 0
h -286 -637 0
h -287 -648 0
h -288 -659 0
h -289 -670 0
h -290 -681 0
h -291 -692 0
h -292 -703 0
h -293 -714 0
h -294 -725 0
h -295 -736 0
h -296 -747 0
h -297 -758 0
h -298 -769 0
h -299 -780 0
h -300 -791 0
h -301 -802 0
h -302 -813 0
h -303 -824 0
h -304 -835 0
h -267 -429 0
h -268 -440 0
h -269 -451 0
h -270 -462 0
h -271 -473 0
h -272 -484 0
h -273 -495 0
h -274 -506 0
h -275 -517 0
h -276 -528 0
h -277 -539 0
h -278 -550 0
h -279 -561 0
h -280 -572 0
h -281 -583 0
h -282 -594 0
h -283 -605 0
h -284 -616 0
h -285 -627 0
h -286 -638 0
h -287 -649 0
h -288 -660 0
h -289 -671 0
h -290 -682 0
h -291 -693 0
h -292 -704 0
h -293 -715 0
h -294 -726 0
h -295 -737 0
h -296 -748 0
h -297 -759 0
h -298 -770 0
h -299 -781 0
h -300 -792 0
h -301 -803 0
h -302 -814 0
h -303 -825 0
h -304 -836 0
h 1863 1864 1865 1866 1867 1868 1869 1870 1871 1872 1873 1874 1875 1876 1877 1878 1879 1880 1881 1882 1883 1884 1885 1886 1887 1888 1889 1890 1891 1892 1893 1894 1895 1896 1897 1898 1899 1900 0
h -1863 305 0
h -1863 419 0
h 1863 -305 -419 0
h -1864 306 0
h -1864 430 0
h 1864 -306 -430 0
h -1865 307 0
h -1865 441 0
h 1865 -307 -441 0
h -1866 308 0
h -1866 452 0
h 1866 -308 -452 0
h -1867 309 0
h -1867 463 0
h 1867 -309 -463 0
h -1868 310 0
h -1868 474 0
h 1868 -310 -474 0
h -1869 311 0
h -1869 485 0
h 1869 -311 -485 0
h -1870 312 0
h -1870 496 0
h 1870 -312 -496 0
h -1871 313 0
h -1871 507 0
h 1871 -313 -507 0
h -1872 314 0
h -1872 518 0
h 1872 -314 -518 0
h -1873 315 0
h -1873 529 0
h 1873 -315 -529 0
h -1874 316 0
h -1874 540 0
h 1874 -316 -540 0
h -1875 317 0
h -1875 551 0
h 1875 -317 -551 0
h -1876 318 0
h -1876 562 0
h 1876 -318 -562 0
h -1877 319 0
h -1877 573 0
h 1877 -319 -573 0
h -1878 320 0
h -1878 584 0
h 1878 -320 -584 0
h -1879 321 0
h -1879 595 0
h 1879 -321 -595 0
h -1880 322 0
h -1880 606 0
h 1880 -322 -606 0
h -1881 323 0
h -1881 617 0
h 1881 -323 -617 0
h -1882 324 0
h -1882 628 0
h 1882 -324 -628 0
h -1883 325 0
h -1883 639 0
h 1883 -325 -639 0
h -1884 326 0
h -1884 650 0
h 1884 -326 -650 0
h -1885 327 0
h -1885 661 0
h 1885 -327 -661 0
h -1886 328 0
h -1886 672 0
h 1886 -328 -672 0
h -1887 329 0
h -1887 683 0
h 1887 -329 -683 0
h -1888 330 0
h -1888 694 0
h 1888 -330 -694 0
h -1889 331 0
h -1889 705 0
h 1889 -331 -705 0
h -1890 332 0
h -1890 716 0
h 1890 -332 -716 0
h -1891 333 0
h -1891 727 0
h 1891 -333 -727 0
h -1892 334 0
h -1892 738 0
h 1892 -334 -738 0
h -1893 335 0
h -1893 749 0
h 1893 -335 -749 0
h -1894 336 0
h -1894 760 0
h 1894 -336 -760 0
h -1895 337 0
h -1895 771 0
h 1895 -337 -771 0
h -1896 338 0
h -1896 782 0
h 1896 -338 -782 0
h -1897 339 0
h -1897 793 0
h 1897 -339 -793 0
h -1898 340 0
h -1898 804 0
h 1898 -340 -804 0
h -1899 341 0
h -1899 815 0
h 1899 -341 -815 0
h -1900 342 0
h -1900 826 0
h 1900 -342 -826 0
h 1901 1902 1903 1904 1905 1906 1907 1908 1909 1910 1911 1912 1913 1914 1915 1916 1917 1918 1919 1920 1921 1922 1923 1924 1925 1926 1927 1928 1929 1930 1931 1932 1933 1934 1935 1936 1937 1938 0
h -1901 305 0
h -1901 420 0
h 1901 -305 -420 0
h -1902 306 0
h -1902 431 0
h 1902 -306 -431 0
h -1903 307 0
h -1903 442 0
h 1903 -307 -442 0
h -1904 308 0
h -1904 453 0
h 1904 -308 -453 0
h -1905 309 0
h -1905 464 0
h 1905 -309 -464 0
h -1906 310 0
h -1906 475 0
h 1906 -310 -475 0
h -1907 311 0
h -1907 486 0
h 1907 -311 -486 0
h -1908 312 0
h -1908 497 0
h 1908 -312 -497 0
h -1909 313 0
h -1909 508 0
h 1909 -313 -508 0
h -1910 314 0
h -1910 519 0
h 1910 -314 -519 0
h -1911 315 0
h -1911 530 0
h 1911 -315 -530 0
h -1912 316 0
h -1912 541 0
h 1912 -316 -541 0
h -1913 317 0
h -1913 552 0
h 1913 -317 -552 0
h -1914 318 0
h -1914 563 0
h 1914 -318 -563 0
h -1915 319 0
h -1915 574 0
h 1915 -319 -574 0
h -1916 320 0
h -1916 585 0
h 1916 -320 -585 0
h -1917 321 0
h -1917 596 0
h 1917 -321 -596 0
h -1918 322 0
h -1918 607 0
h 1918 -322 -607 0
h -1919 323 0
h -1919 618 0
h 1919 -323 -618 0
h -1920 324 0
h -1920 629 0
h 1920 -324 -629 0
h -1921 325 0
h -1921 640 0
h 1921 -325 -640 0
h -1922 326 0
h -1922 651 0
h 1922 -326 -651 0
h -1923 327 0
h -1923 662 0
h 1923 -327 -662 0
h -1924 328 0
h -1924 673 0
h 1924 -328 -673 0
h -1925 329 0
h -1925 684 0
h 1925 -329 -684 0
h -1926 330 0
h -1926 695 0
h 1926 -330 -695 0
h -1927 331 0
h -1927 706 0
h 1927 -331 -706 0
h -1928 332 0
h -1928 717 0
h 1928 -332 -717 0
h -1929 333 0
h -1929 728 0
h 1929 -333 -728 0
h -1930 334 0
h -1930 739 0
h 1930 -334 -739 0
h -1931 335 0
h -1931 750 0
h 1931 -335 -750 0
h -1932 336 0
h -1932 761 0
h 1932 -336 -761 0
h -1933 337 0
h -1933 772 0
h 1933 -337 -772 0
h -1934 338 0
h -1934 783 0
h 1934 -338 -783 0
h -1935 339 0
h -1935 794 0
h 1935 -339 -794 0
h -1936 340 0
h -1936 805 0
h 1936 -340 -805 0
h -1937 341 0
h -1937 816 0
h 1937 -341 -816 0
h -1938 342 0
h -1938 827 0
h 1938 -342 -827 0
h -305 -421 0
h -306 -432 0
h -307 -443 0
h -308 -454 0
h -309 -465 0
h -310 -476 0
h -311 -487 0
h -312 -498 0
h -313 -509 0
h -314 -520 0
h -315 -531 0
h -316 -542 0
h -317 -553 0
h -318 -564 0
h -319 -575 0
h -320 -586 0
h -321 -597 0
h -322 -608 0
h -323 -619 0
h -324 -630 0
h -325 -641 0
h -326 -652 0
h -327 -663 0
h -328 -674 0
h -329 -685 0
h -330 -696 0
h -331 -707 0
h -332 -718 0
h -333 -729 0
h -334 -740 0
h -335 -751 0
h -336 -762 0
h -337 -773 0
h -338 -784 0
h -339 -795 0
h -340 -806 0
h -341 -817 0
h -342 -828 0
h 1939 1940 1941 1942 1943 1944 1945 1946 1947 1948 1949 1950 1951 1952 1953 1954 1955 1956 1957 1958 1959 1960 1961 1962 1963 1964 1965 1966 1967 1968 1969 1970 1971 1972 1973 1974 1975 1976 0
h -1939 305 0
h -1939 422 0
h 1939 -305 -422 0
h -1940 306 0
h -1940 433 0
h 1940 -306 -433 0
h -1941 307 0
h -1941 444 0
h 1941 -307 -444 0
h -1942 308 0
h -1942 455 0
h 1942 -308 -455 0
h -1943 309 0
h -1943 466 0
h 1943 -309 -466 0
h -1944 310 0
h -1944 477 0
h 1944 -310 -477 0
h -1945 311 0
h -1945 488 0
h 1945 -311 -488 0
h -1946 312 0
h -1946 499 0
h 1946 -312 -499 0
h -1947 313 0
h -1947 510 0
h 1947 -313 -510 0
h -1948 314 0
h -1948 521 0
h 1948 -314 -521 0
h -1949 315 0
h -1949 532 0
h 1949 -315 -532 0
h -1950 316 0
h -1950 543 0
h 1950 -316 -543 0
h -1951 317 0
h -1951 554 0
h 1951 -317 -554 0
h -1952 318 0
h -1952 565 0
h 1952 -318 -565 0
h -1953 319 0
h -1953 576 0
h 1953 -319 -576 0
h -1954 320 0
h -1954 587 0
h 1954 -320 -587 0
h -1955 321 0
h -1955 598 0
h 1955 -321 -598 0
h -1956 322 0
h -1956 609 0
h 1956 -322 -609 0
h -1957 323 0
h -1957 620 0
h 1957 -323 -620 0
h -1958 324 0
h -1958 631 0
h 1958 -324 -631 0
h -1959 325 0
h -1959 642 0
h 1959 -325 -642 0
h -1960 326 0
h -1960 653 0
h 1960 -326 -653 0
h -1961 327 0
h -1961 664 0
h 1961 -327 -664 0
h -1962 328 0
h -1962 675 0
h 1962 -328 -675 0
h -1963 329 0
h -1963 686 0
h 1963 -329 -686 0
h -1964 330 0
h -1964 697 0
h 1964 -330 -697 0
h -1965 331 0
h -1965 708 0
h 1965 -331 -708 0
h -1966 332 0
h -1966 719 0
h 1966 -332 -719 0
h -1967 333 0
h -1967 730 0
h 1967 -333 -730 0
h -1968 334 0
h -1968 741 0
h 1968 -334 -741 0
h -1969 335 0
h -1969 752 0
h 1969 -335 -752 0
h -1970 336 0
h -1970 763 0
h 1970 -336 -763 0
h -1971 337 0
h -1971 774 0
h 1971 -337 -774 0
h -1972 338 0
h -1972 785 0
h 1972 -338 -785 0
h -1973 339 0
h -1973 796 0
h 1973 -339 -796 0
h -1974 340 0
h -1974 807 0
h 1974 -340 -807 0
h -1975 341 0
h -1975 818 0
h 1975 -341 -818 0
h -1976 342 0
h -1976 829 0
h 1976 -342 -829 0
h 1977 1978 1979 1980 1981 1982 1983 1984 1985 1986 1987 1988 1989 1990 1991 1992 1993 1994 1995 1996 1997 1998 1999 2000 2001 2002 2003 2004 2005 2006 2007 2008 2009 2010 2011 2012 2013 2014 0
h -1977 305 0
h -1977 423 0
h 1977 -305 -423 0
h -1978 306 0
h -1978 434 0
h 1978 -306 -434 0
h -1979 307 0
h -1979 445 0
h 1979 -307 -445 0
h -1980 308 0
h -1980 456 0
h 1980 -308 -456 0
h -1981 309 0
h -1981 467 0
h 1981 -309 -467 0
h -1982 310 0
h -1982 478 0
h 1982 -310 -478 0
h -1983 311 0
h -1983 489 0
h 1983 -311 -489 0
h -1984 312 0
h -1984 500 0
h 1984 -312 -500 0
h -1985 313 0
h -1985 511 0
h 1985 -313 -511 0
h -1986 314 0
h -1986 522 0
h 1986 -314 -522 0
h -1987 315 0
h -1987 533 0
h 1987 -315 -533 0
h -1988 316 0
h -1988 544 0
h 1988 -316 -544 0
h -1989 317 0
h -1989 555 0
h 1989 -317 -555 0
h -1990 318 0
h -1990 566 0
h 1990 -318 -566 0
h -1991 319 0
h -1991 577 0
h 1991 -319 -577 0
h -1992 320 0
h -1992 588 0
h 1992 -320 -588 0
h -1993 321 0
h -1993 599 0
h 1993 -321 -599 0
h -1994 322 0
h -1994 610 0
h 1994 -322 -610 0
h -1995 323 0
h -1995 621 0
h 1995 -323 -621 0
h -1996 324 0
h -1996 632 0
h 1996 -324 -632 0
h -1997 325 0
h -1997 643 0
h 1997 -325 -643 0
h -1998 326 0
h -1998 654 0
h 1998 -326 -654 0
h -1999 327 0
h -1999 665 0
h 1999 -327 -665 0
h -2000 328 0
h -2000 676 0
h 2000 -328 -676 0
h -2001 329 0
h -2001 687 0
h 2001 -329 -687 0
h -2002 330 0
h -2002 698 0
h 2002 -330 -698 0
h -2003 331 0
h -2003 709 0
h 2003 -331 -709 0
h -2004 332 0
h -2004 720 0
h 2004 -332 -720 0
h -2005 333 0
h -2005 731 0
h 2005 -333 -731 0
h -2006 334 0
h -2006 742 0
h 2006 -334 -742 0
h -2007 335 0
h -2007 753 0
h 2007 -335 -753 0
h -2008 336 0
h -2008 764 0
h 2008 -336 -764 0
h -2009 337 0
h -2009 775 0
h 2009 -337 -775 0
h -2010 338 0
h -2010 786 0
h 2010 -338 -786 0
h -2011 339 0
h -2011 797 0
h 2011 -339 -797 0
h -2012 340 0
h -2012 808 0
h 2012 -340 -808 0
h -2013 341 0
h -2013 819 0
h 2013 -341 -819 0
h -2014 342 0
h -2014 830 0
h 2014 -342 -830 0
h -305 -424 0
h -306 -435 0
h -307 -446 0
h -308 -457 0
h -309 -468 0
h -310 -479 0
h -311 -490 0
h -312 -501 0
h -313 -512 0
h -314 -523 0
h -315 -534 0
h -316 -545 0
h -317 -556 0
h -318 -567 0
h -319 -578 0
h -320 -589 0
h -321 -600 0
h -322 -611 0
h -323 -622 0
h -324 -633 0
h -325 -644 0
h -326 -655 0
h -327 -666 0
h -328 -677 0
h -329 -688 0
h -330 -699 0
h -331 -710 0
h -332 -721 0
h -333 -732 0
h -334 -743 0
h -335 -754 0
h -336 -765 0
h -337 -776 0
h -338 -787 0
h -339 -798 0
h -340 -809 0
h -341 -820 0
h -342 -831 0
h -305 -425 0
h -306 -436 0
h -307 -447 0
h -308 -458 0
h -309 -469 0
h -310 -480 0
h -311 -491 0
h -312 -502 0
h -313 -513 0
h -314 -524 0
h -315 -535 0
h -316 -546 0
h -317 -557 0
h -318 -568 0
h -319 -579 0
h -320 -590 0
h -321 -601 0
h -322 -612 0
h -323 -623 0
h -324 -634 0
h -325 -645 0
h -326 -656 0
h -327 -667 0
h -328 -678 0
h -329 -689 0
h -330 -700 0
h -331 -711 0
h -332 -722 0
h -333 -733 0
h -334 -744 0
h -335 -755 0
h -336 -766 0
h -337 -777 0
h -338 -788 0
h -339 -799 0
h -340 -810 0
h -341 -821 0
h -342 -832 0
h -305 -426 0
h -306 -437 0
h -307 -448 0
h -308 -459 0
h -309 -470 0
h -310 -481 0
h -311 -492 0
h -312 -503 0
h -313 -514 0
h -314 -525 0
h -315 -536 0
h -316 -547 0
h -317 -558 0
h -318 -569 0
h -319 -580 0
h -320 -591 0
h -321 -602 0
h -322 -613 0
h -323 -624 0
h -324 -635 0
h -325 -646 0
h -326 -657 0
h -327 -668 0
h -328 -679 0
h -329 -690 0
h -330 -701 0
h -331 -712 0
h -332 -723 0
h -333 -734 0
h -334 -745 0
h -335 -756 0
h -336 -767 0
h -337 -778 0
h -338 -789 0
h -339 -800 0
h -340 -811 0
h -341 -822 0
h -342 -833 0
h 2015 2016 2017 2018 2019 2020 2021 2022 2023 2024 2025 2026 2027 2028 2029 2030 2031 2032 2033 2034 2035 2036 2037 2038 2039 2040 2041 2042 2043 2044 2045 2046 2047 2048 2049 2050 2051 2052 0
h -2015 305 0
h -2015 427 0
h 2015 -305 -427 0
h -2016 306 0
h -2016 438 0
h 2016 -306 -438 0
h -2017 307 0
h -2017 449 0
h 2017 -307 -449 0
h -2018 308 0
h -2018 460 0
h 2018 -308 -460 0
h -2019 309 0
h -2019 471 0
h 2019 -309 -471 0
h -2020 310 0
h -2020 482 0
h 2020 -310 -482 0
h -2021 311 0
h -2021 493 0
h 2021 -311 -493 0
h -2022 312 0
h -2022 504 0
h 2022 -312 -504 0
h -2023 313 0
h -2023 515 0
h 2023 -313 -515 0
h -2024 314 0
h -2024 526 0
h 2024 -314 -526 0
h -2025 315 0
h -2025 537 0
h 2025 -315 -537 0
h -2026 316 0
h -2026 548 0
h 2026 -316 -548 0
h -2027 317 0
h -2027 559 0
h 2027 -317 -559 0
h -2028 318 0
h -2028 570 0
h 2028 -318 -570 0
h -2029 319 0
h -2029 581 0
h 2029 -319 -581 0
h -2030 320 0
h -2030 592 0
h 2030 -320 -592 0
h -2031 321 0
h -2031 603 0
h 2031 -321 -603 0
h -2032 322 0
h -2032 614 0
h 2032 -322 -614 0
h -2033 323 0
h -2033 625 0
h 2033 -323 -625 0
h -2034 324 0
h -2034 636 0
h 2034 -324 -636 0
h -2035 325 0
h -2035 647 0
h 2035 -325 -647 0
h -2036 326 0
h -2036 658 0
h 2036 -326 -658 0
h -2037 327 0
h -2037 669 0
h 2037 -327 -669 0
h -2038 328 0
h -2038 680 0
h 2038 -328 -680 0
h -2039 329 0
h -2039 691 0
h 2039 -329 -691 0
h -2040 330 0
h -2040 702 0
h 2040 -330 -702 0
h -2041 331 0
h -2041 713 0
h 2041 -331 -713 0
h -2042 332 0
h -2042 724 0
h 2042 -332 -724 0
h -2043 333 0
h -2043 735 0
h 2043 -333 -735 0
h -2044 334 0
h -2044 746 0
h 2044 -334 -746 0
h -2045 335 0
h -2045 757 0
h 2045 -335 -757 0
h -2046 336 0
h -2046 768 0
h 2046 -336 -768 0
h -2047 337 0
h -2047 779 0
h 2047 -337 -779 0
h -2048 338 0
h -2048 790 0
h 2048 -338 -790 0
h -2049 339 0
h -2049 801 0
h 2049 -339 -801 0
h -2050 340 0
h -2050 812 0
h 2050 -340 -812 0
h -2051 341 0
h -2051 823 0
h 2051 -341 -823 0
h -2052 342 0
h -2052 834 0
h 2052 -342 -834 0
h -305 -428 0
h -306 -439 0
h -307 -450 0
h -308 -461 0
h -309 -472 0
h -310 -483 0
h -311 -494 0
h -312 -505 0
h -313 -516 0
h -314 -527 0
h -315 -538 0
h -316 -549 0
h -317 -560 0
h -318 -571 0
h -319 -582 0
h -320 -593 0
h -321 -604 0
h -322 -615 0
h -323 -626 0
h -324 -637 0
h -325 -648 0
h -326 -659 0
h -327 -670 0
h -328 -681 0
h -329 -692 0
h -330 -703 0
h -331 -714 0
h -332 -725 0
h -333 -736 0
h -334 -747 0
h -335 -758 0
h -336 -769 0
h -337 -780 0
h -338 -791 0
h -339 -802 0
h -340 -813 0
h -341 -824 0
h -342 -835 0
h -305 -429 0
h -306 -440 0
h -307 -451 0
h -308 -462 0
h -309 -473 0
h -310 -484 0
h -311 -495 0
h -312 -506 0
h -313 -517 0
h -314 -528 0
h -315 -539 0
h -316 -550 0
h -317 -561 0
h -318 -572 0
h -319 -583 0
h -320 -594 0
h -321 -605 0
h -322 -616 0
h -323 -627 0
h -324 -638 0
h -325 -649 0
h -326 -660 0
h -327 -671 0
h -328 -682 0
h -329 -693 0
h -330 -704 0
h -331 -715 0
h -332 -726 0
h -333 -737 0
h -334 -748 0
h -335 -759 0
h -336 -770 0
h -337 -781 0
h -338 -792 0
h -339 -803 0
h -340 -814 0
h -341 -825 0
h -342 -836 0
h 2053 2054 2055 2056 2057 2058 2059 2060 2061 2062 2063 2064 2065 2066 2067 2068 2069 2070 2071 2072 2073 2074 2075 2076 2077 2078 2079 2080 2081 2082 2083 2084 2085 2086 2087 2088 2089 2090 0
h -2053 343 0
h -2053 419 0
h 2053 -343 -419 0
h -2054 344 0
h -2054 430 0
h 2054 -344 -430 0
h -2055 345 0
h -2055 441 0
h 2055 -345 -441 0
h -2056 346 0
h -2056 452 0
h 2056 -346 -452 0
h -2057 347 0
h -2057 463 0
h 2057 -347 -463 0
h -2058 348 0
h -2058 474 0
h 2058 -348 -474 0
h -2059 349 0
h -2059 485 0
h 2059 -349 -485 0
h -2060 350 0
h -2060 496 0
h 2060 -350 -496 0
h -2061 351 0
h -2061 507 0
h 2061 -351 -507 0
h -2062 352 0
h -2062 518 0
h 2062 -352 -518 0
h -2063 353 0
h -2063 529 0
h 2063 -353 -529 0
h -2064 354 0
h -2064 540 0
h 2064 -354 -540 0
h -2065 355 0
h -2065 551 0
h 2065 -355 -551 0
h -2066 356 0
h -2066 562 0
h 2066 -356 -562 0
h -2067 357 0
h -2067 573 0
h 2067 -357 -573 0
h -2068 358 0
h -2068 584 0
h 2068 -358 -584 0
h -2069 359 0
h -2069 595 0
h 2069 -359 -595 0
h -2070 360 0
h -2070 606 0
h 2070 -360 -606 0
h -2071 361 0
h -2071 617 0
h 2071 -361 -617 0
h -2072 362 0
h -2072 628 0
h 2072 -362 -628 0
h -2073 363 0
h -2073 639 0
h 2073 -363 -639 0
h -2074 364 0
h -2074 650 0
h 2074 -364 -650 0
h -2075 365 0
h -2075 661 0
h 2075 -365 -661 0
h -2076 366 0
h -2076 672 0
h 2076 -366 -672 0
h -2077 367 0
h -2077 683 0
h 2077 -367 -683 0
h -2078 368 0
h -2078 694 0
h 2078 -368 -694 0
h -2079 369 0
h -2079 705 0
h 2079 -369 -705 0
h -2080 370 0
h -2080 716 0
h 2080 -370 -716 0
h -2081 371 0
h -2081 727 0
h 2081 -371 -727 0
h -2082 372 0
h -2082 738 0
h 2082 -372 -738 0
h -2083 373 0
h -2083 749 0
h 2083 -373 -749 0
h -2084 374 0
h -2084 760 0
h 2084 -374 -760 0
h -2085 375 0
h -2085 771 0
h 2085 -375 -771 0
h -2086 376 0
h -2086 782 0
h 2086 -376 -782 0
h -2087 377 0
h -2087 793 0
h 2087 -377 -793 0
h -2088 378 0
h -2088 804 0
h 2088 -378 -804 0
h -2089 379 0
h -2089 815 0
h 2089 -379 -815 0
h -2090 380 0
h -2090 826 0
h 2090 -380 -826 0
h 2091 2092 2093 2094 2095 2096 2097 2098 2099 2100 2101 2102 2103 2104 2105 2106 2107 2108 2109 2110 2111 2112 2113 2114 2115 2116 2117 2118 2119 2120 2121 2122 2123 2124 2125 2126 2127 2128 0
h -2091 343 0
h -2091 420 0
h 2091 -343 -420 0
h -2092 344 0
h -2092 431 0
h 2092 -344 -431 0
h -2093 345 0
h -2093 442 0
h 2093 -345 -442 0
h -2094 346 0
h -2094 453 0
h 2094 -346 -453 0
h -2095 347 0
h -2095 464 0
h 2095 -347 -464 0
h -2096 348 0
h -2096 475 0
h 2096 -348 -475 0
h -2097 349 0
h -2097 486 0
h 2097 -349 -486 0
h -2098 350 0
h -2098 497 0
h 2098 -350 -497 0
h -2099 351 0
h -2099 508 0
h 2099 -351 -508 0
h -2100 352 0
h -2100 519 0
h 2100 -352 -519 0
h -2101 353 0
h -2101 530 0
h 2101 -353 -530 0
h -2102 354 0
h -2102 541 0
h 2102 -354 -541 0
h -2103 355 0
h -2103 552 0
h 2103 -355 -552 0
h -2104 356 0
h -2104 563 0
h 2104 -356 -563 0
h -2105 357 0
h -2105 574 0
h 2105 -357 -574 0
h -2106 358 0
h -2106 585 0
h 2106 -358 -585 0
h -2107 359 0
h -2107 596 0
h 2107 -359 -596 0
h -2108 360 0
h -2108 607 0
h 2108 -360 -607 0
h -2109 361 0
h -2109 618 0
h 2109 -361 -618 0
h -2110 362 0
h -2110 629 0
h 2110 -362 -629 0
h -2111 363 0
h -2111 640 0
h 2111 -363 -640 0
h -2112 364 0
h -2112 651 0
h 2112 -364 -651 0
h -2113 365 0
h -2113 662 0
h 2113 -365 -662 0
h -2114 366 0
h -2114 673 0
h 2114 -366 -673 0
h -2115 367 0
h -2115 684 0
h 2115 -367 -684 0
h -2116 368 0
h -2116 695 0
h 2116 -368 -695 0
h -2117 369 0
h -2117 706 0
h 2117 -369 -706 0
h -2118 370 0
h -2118 717 0
h 2118 -370 -717 0
h -2119 371 0
h -2119 728 0
h 2119 -371 -728 0
h -2120 372 0
h -2120 739 0
h 2120 -372 -739 0
h -2121 373 0
h -2121 750 0
h 2121 -373 -750 0
h -2122 374 0
h -2122 761 0
h 2122 -374 -761 0
h -2123 375 0
h -2123 772 0
h 2123 -375 -772 0
h -2124 376 0
h -2124 783 0
h 2124 -376 -783 0
h -2125 377 0
h -2125 794 0
h 2125 -377 -794 0
h -2126 378 0
h -2126 805 0
h 2126 -378 -805 0
h -2127 379 0
h -2127 816 0
h 2127 -379 -816 0
h -2128 380 0
h -2128 827 0
h 2128 -380 -827 0
h 2129 2130 2131 2132 2133 2134 2135 2136 2137 2138 2139 2140 2141 2142 2143 2144 2145 2146 2147 2148 2149 2150 2151 2152 2153 2154 2155 2156 2157 2158 2159 2160 2161 2162 2163 2164 2165 2166 0
h -2129 343 0
h -2129 421 0
h 2129 -343 -421 0
h -2130 344 0
h -2130 432 0
h 2130 -344 -432 0
h -2131 345 0
h -2131 443 0
h 2131 -345 -443 0
h -2132 346 0
h -2132 454 0
h 2132 -346 -454 0
h -2133 347 0
h -2133 465 0
h 2133 -347 -465 0
h -2134 348 0
h -2134 476 0
h 2134 -348 -476 0
h -2135 349 0
h -2135 487 0
h 2135 -349 -487 0
h -2136 350 0
h -2136 498 0
h 2136 -350 -498 0
h -2137 351 0
h -2137 509 0
h 2137 -351 -509 0
h -2138 352 0
h -2138 520 0
h 2138 -352 -520 0
h -2139 353 0
h -2139 531 0
h 2139 -353 -531 0
h -2140 354 0
h -2140 542 0
h 2140 -354 -542 0
h -2141 355 0
h -2141 553 0
h 2141 -355 -553 0
h -2142 356 0
h -2142 564 0
h 2142 -356 -564 0
h -2143 357 0
h -2143 575 0
h 2143 -357 -575 0
h -2144 358 0
h -2144 586 0
h 2144 -358 -586 0
h -2145 359 0
h -2145 597 0
h 2145 -359 -597 0
h -2146 360 0
h -2146 608 0
h 2146 -360 -608 0
h -2147 361 0
h -2147 619 0
h 2147 -361 -619 0
h -2148 362 0
h -2148 630 0
h 2148 -362 -630 0
h -2149 363 0
h -2149 641 0
h 2149 -363 -641 0
h -2150 364 0
h -2150 652 0
h 2150 -364 -652 0
h -2151 365 0
h -2151 663 0
h 2151 -365 -663 0
h -2152 366 0
h -2152 674 0
h 2152 -366 -674 0
h -2153 367 0
h -2153 685 0
h 2153 -367 -685 0
h -2154 368 0
h -2154 696 0
h 2154 -368 -696 0
h -2155 369 0
h -2155 707 0
h 2155 -369 -707 0
h -2156 370 0
h -2156 718 0
h 2156 -370 -718 0
h -2157 371 0
h -2157 729 0
h 2157 -371 -729 0
h -2158 372 0
h -2158 740 0
h 2158 -372 -740 0
h -2159 373 0
h -2159 751 0
h 2159 -373 -751 0
h -2160 374 0
h -2160 762 0
h 2160 -374 -762 0
h -2161 375 0
h -2161 773 0
h 2161 -375 -773 0
h -2162 376 0
h -2162 784 0
h 2162 -376 -784 0
h -2163 377 0
h -2163 795 0
h 2163 -377 -795 0
h -2164 378 0
h -2164 806 0
h 2164 -378 -806 0
h -2165 379 0
h -2165 817 0
h 2165 -379 -817 0
h -2166 380 0
h -2166 828 0
h 2166 -380 -828 0
h 2167 2168 2169 2170 2171 2172 2173 2174 2175 2176 2177 2178 2179 2180 2181 2182 2183 2184 2185 2186 2187 2188 2189 2190 2191 2192 2193 2194 2195 2196 2197 2198 2199 2200 2201 2202 2203 2204 0
h -2167 343 0
h -2167 422 0
h 2167 -343 -422 0
h -2168 344 0
h -2168 433 0
h 2168 -344 -433 0
h -2169 345 0
h -2169 444 0
h 2169 -345 -444 0
h -2170 346 0
h -2170 455 0
h 2170 -346 -455 0
h -2171 347 0
h -2171 466 0
h 2171 -347 -466 0
h -2172 348 0
h -2172 477 0
h 2172 -348 -477 0
h -2173 349 0
h -2173 488 0
h 2173 -349 -488 0
h -2174 350 0
h -2174 499 0
h 2174 -350 -499 0
h -2175 351 0
h -2175 510 0
h 2175 -351 -510 0
h -2176 352 0
h -2176 521 0
h 2176 -352 -521 0
h -2177 353 0
h -2177 532 0
h 2177 -353 -532 0
h -2178 354 0
h -2178 543 0
h 2178 -354 -543 0
h -2179 355 0
h -2179 554 0
h 2179 -355 -554 0
h -2180 356 0
h -2180 565 0
h 2180 -356 -565 0
h -2181 357 0
h -2181 576 0
h 2181 -357 -576 0
h -2182 358 0
h -2182 587 0
h 2182 -358 -587 0
h -2183 359 0
h -2183 598 0
h 2183 -359 -598 0
h -2184 360 0
h -2184 609 0
h 2184 -360 -609 0
h -2185 361 0
h -2185 620 0
h 2185 -361 -620 0
h -2186 362 0
h -2186 631 0
h 2186 -362 -631 0
h -2187 363 0
h -2187 642 0
h 2187 -363 -642 0
h -2188 364 0
h -2188 653 0
h 2188 -364 -653 0
h -2189 365 0
h -2189 664 0
h 2189 -365 -664 0
h -2190 366 0
h -2190 675 0
h 2190 -366 -675 0
h -2191 367 0
h -2191 686 0
h 2191 -367 -686 0
h -2192 368 0
h -2192 697 0
h 2192 -368 -697 0
h -2193 369 0
h -2193 708 0
h 2193 -369 -708 0
h -2194 370 0
h -2194 719 0
h 2194 -370 -719 0
h -2195 371 0
h -2195 730 0
h 2195 -371 -730 0
h -2196 372 0
h -2196 741 0
h 2196 -372 -741 0
h -2197 373 0
h -2197 752 0
h 2197 -373 -752 0
h -2198 374 0
h -2198 763 0
h 2198 -374 -763 0
h -2199 375 0
h -2199 774 0
h 2199 -375 -774 0
h -2200 376 0
h -2200 785 0
h 2200 -376 -785 0
h -2201 377 0
h -2201 796 0
h 2201 -377 -796 0
h -2202 378 0
h -2202 807 0
h 2202 -378 -807 0
h -2203 379 0
h -2203 818 0
h 2203 -379 -818 0
h -2204 380 0
h -2204 829 0
h 2204 -380 -829 0
h -343 -423 0
h -344 -434 0
h -345 -445 0
h -346 -456 0
h -347 -467 0
h -348 -478 0
h -349 -489 0
h -350 -500 0
h -351 -511 0
h -352 -522 0
h -353 -533 0
h -354 -544 0
h -355 -555 0
h -356 -566 0
h -357 -577 0
h -358 -588 0
h -359 -599 0
h -360 -610 0
h -361 -621 0
h -362 -632 0
h -363 -643 0
h -364 -654 0
h -365 -665 0
h -366 -676 0
h -367 -687 0
h -368 -698 0
h -369 -709 0
h -370 -720 0
h -371 -731 0
h -372 -742 0
h -373 -753 0
h -374 -764 0
h -375 -775 0
h -376 -786 0
h -377 -797 0
h -378 -808 0
h -379 -819 0
h -380 -830 0
h -343 -424 0
h -344 -435 0
h -345 -446 0
h -346 -457 0
h -347 -468 0
h -348 -479 0
h -349 -490 0
h -350 -501 0
h -351 -512 0
h -352 -523 0
h -353 -534 0
h -354 -545 0
h -355 -556 0
h -356 -567 0
h -357 -578 0
h -358 -589 0
h -359 -600 0
h -360 -611 0
h -361 -622 0
h -362 -633 0
h -363 -644 0
h -364 -655 0
h -365 -666 0
h -366 -677 0
h -367 -688 0
h -368 -699 0
h -369 -710 0
h -370 -721 0
h -371 -732 0
h -372 -743 0
h -373 -754 0
h -374 -765 0
h -375 -776 0
h -376 -787 0
h -377 -798 0
h -378 -809 0
h -379 -820 0
h -380 -831 0
h -343 -425 0
h -344 -436 0
h -345 -447 0
h -346 -458 0
h -347 -469 0
h -348 -480 0
h -349 -491 0
h -350 -502 0
h -351 -513 0
h -352 -524 0
h -353 -535 0
h -354 -546 0
h -355 -557 0
h -356 -568 0
h -357 -579 0
h -358 -590 0
h -359 -601 0
h -360 -612 0
h -361 -623 0
h -362 -634 0
h -363 -645 0
h -364 -656 0
h -365 -667 0
h -366 -678 0
h -367 -689 0
h -368 -700 0
h -369 -711 0
h -370 -722 0
h -371 -733 0
h -372 -744 0
h -373 -755 0
h -374 -766 0
h -375 -777 0
h -376 -788 0
h -377 -799 0
h -378 -810 0
h -379 -821 0
h -380 -832 0
h -343 -426 0
h -344 -437 0
h -345 -448 0
h -346 -459 0
h -347 -470 0
h -348 -481 0
h -349 -492 0
h -350 -503 0
h -351 -514 0
h -352 -525 0
h -353 -536 0
h -354 -547 0
h -355 -558 0
h -356 -569 0
h -357 -580 0
h -358 -591 0
h -359 -602 0
h -360 -613 0
h -361 -624 0
h -362 -635 0
h -363 -646 0
h -364 -657 0
h -365 -668 0
h -366 -679 0
h -367 -690 0
h -368 -701 0
h -369 -712 0
h -370 -723 0
h -371 -734 0
h -372 -745 0
h -373 -756 0
h -374 -767 0
h -375 -778 0
h -376 -789 0
h -377 -800 0
h -378 -811 0
h -379 -822 0
h -380 -833 0
h -343 -427 0
h -344 -438 0
h -345 -449 0
h -346 -460 0
h -347 -471 0
h -348 -482 0
h -349 -493 0
h -350 -504 0
h -351 -515 0
h -352 -526 0
h -353 -537 0
h -354 -548 0
h -355 -559 0
h -356 -570 0
h -357 -581 0
h -358 -592 0
h -359 -603 0
h -360 -614 0
h -361 -625 0
h -362 -636 0
h -363 -647 0
h -364 -658 0
h -365 -669 0
h -366 -680 0
h -367 -691 0
h -368 -702 0
h -369 -713 0
h -370 -724 0
h -371 -735 0
h -372 -746 0
h -373 -757 0
h -374 -768 0
h -375 -779 0
h -376 -790 0
h -377 -801 0
h -378 -812 0
h -379 -823 0
h -380 -834 0
h 2205 2206 2207 2208 2209 2210 2211 2212 2213 2214 2215 2216 2217 2218 2219 2220 2221 2222 2223 2224 2225 2226 2227 2228 2229 2230 2231 2232 2233 2234 2235 2236 2237 2238 2239 2240 2241 2242 0
h -2205 343 0
h -2205 428 0
h 2205 -343 -428 0
h -2206 344 0
h -2206 439 0
h 2206 -344 -439 0
h -2207 345 0
h -2207 450 0
h 2207 -345 -450 0
h -2208 346 0
h -2208 461 0
h 2208 -346 -461 0
h -2209 347 0
h -2209 472 0
h 2209 -347 -472 0
h -2210 348 0
h -2210 483 0
h 2210 -348 -483 0
h -2211 349 0
h -2211 494 0
h 2211 -349 -494 0
h -2212 350 0
h -2212 505 0
h 2212 -350 -505 0
h -2213 351 0
h -2213 516 0
h 2213 -351 -516 0
h -2214 352 0
h -2214 527 0
h 2214 -352 -527 0
h -2215 353 0
h -2215 538 0
h 2215 -353 -538 0
h -2216 354 0
h -2216 549 0
h 2216 -354 -549 0
h -2217 355 0
h -2217 560 0
h 2217 -355 -560 0
h -2218 356 0
h -2218 571 0
h 2218 -356 -571 0
h -2219 357 0
h -2219 582 0
h 2219 -357 -582 0
h -2220 358 0
h -2220 593 0
h 2220 -358 -593 0
h -2221 359 0
h -2221 604 0
h 2221 -359 -604 0
h -2222 360 0
h -2222 615 0
h 2222 -360 -615 0
h -2223 361 0
h -2223 626 0
h 2223 -361 -626 0
h -2224 362 0
h -2224 637 0
h 2224 -362 -637 0
h -2225 363 0
h -2225 648 0
h 2225 -363 -648 0
h -2226 364 0
h -2226 659 0
h 2226 -364 -659 0
h -2227 365 0
h -2227 670 0
h 2227 -365 -670 0
h -2228 366 0
h -2228 681 0
h 2228 -366 -681 0
h -2229 367 0
h -2229 692 0
h 2229 -367 -692 0
h -2230 368 0
h -2230 703 0
h 2230 -368 -703 0
h -2231 369 0
h -2231 714 0
h 2231 -369 -714 0
h -2232 370 0
h -2232 725 0
h 2232 -370 -725 0
h -2233 371 0
h -2233 736 0
h 2233 -371 -736 0
h -2234 372 0
h -2234 747 0
h 2234 -372 -747 0
h -2235 373 0
h -2235 758 0
h 2235 -373 -758 0
h -2236 374 0
h -2236 769 0
h 2236 -374 -769 0
h -2237 375 0
h -2237 780 0
h 2237 -375 -780 0
h -2238 376 0
h -2238 791 0
h 2238 -376 -791 0
h -2239 377 0
h -2239 802 0
h 2239 -377 -802 0
h -2240 378 0
h -2240 813 0
h 2240 -378 -813 0
h -2241 379 0
h -2241 824 0
h 2241 -379 -824 0
h -2242 380 0
h -2242 835 0
h 2242 -380 -835 0
h -343 -429 0
h -344 -440 0
h -345 -451 0
h -346 -462 0
h -347 -473 0
h -348 -484 0
h -349 -495 0
h -350 -506 0
h -351 -517 0
h -352 -528 0
h -353 -539 0
h -354 -550 0
h -355 -561 0
h -356 -572 0
h -357 -583 0
h -358 -594 0
h -359 -605 0
h -360 -616 0
h -361 -627 0
h -362 -638 0
h -363 -649 0
h -364 -660 0
h -365 -671 0
h -366 -682 0
h -367 -693 0
h -368 -704 0
h -369 -715 0
h -370 -726 0
h -371 -737 0
h -372 -748 0
h -373 -759 0
h -374 -770 0
h -375 -781 0
h -376 -792 0
h -377 -803 0
h -378 -814 0
h -379 -825 0
h -380 -836 0
h -381 -419 0
h -382 -430 0
h -383 -441 0
h -384 -452 0
h -385 -463 0
h -386 -474 0
h -387 -485 0
h -388 -496 0
h -389 -507 0
h -390 -518 0
h -391 -529 0
h -392 -540 0
h -393 -551 0
h -394 -562 0
h -395 -573 0
h -396 -584 0
h -397 -595 0
h -398 -606 0
h -399 -617 0
h -400 -628 0
h -401 -639 0
h -402 -650 0
h -403 -661 0
h -404 -672 0
h -405 -683 0
h -406 -694 0
h -407 -705 0
h -408 -716 0
h -409 -727 0
h -410 -738 0
h -411 -749 0
h -412 -760 0
h -413 -771 0
h -414 -782 0
h -415 -793 0
h -416 -804 0
h -417 -815 0
h -418 -826 0
h 2243 2244 2245 2246 2247 2248 2249 2250 2251 2252 2253 2254 2255 2256 2257 2258 2259 2260 2261 2262 2263 2264 2265 2266 2267 2268 2269 2270 2271 2272 2273 2274 2275 2276 2277 2278 2279 2280 0
h -2243 381 0
h -2243 420 0
h 2243 -381 -420 0
h -2244 382 0
h -2244 431 0
h 2244 -382 -431 0
h -2245 383 0
h -2245 442 0
h 2245 -383 -442 0
h -2246 384 0
h -2246 453 0
h 2246 -384 -453 0
h -2247 385 0
h -2247 464 0
h 2247 -385 -464 0
h -2248 386 0
h -2248 475 0
h 2248 -386 -475 0
h -2249 387 0
h -2249 486 0
h 2249 -387 -486 0
h -2250 388 0
h -2250 497 0
h 2250 -388 -497 0
h -2251 389 0
h -2251 508 0
h 2251 -389 -508 0
h -2252 390 0
h -2252 519 0
h 2252 -390 -519 0
h -2253 391 0
h -2253 530 0
h 2253 -391 -530 0
h -2254 392 0
h -2254 541 0
h 2254 -392 -541 0
h -2255 393 0
h -2255 552 0
h 2255 -393 -552 0
h -2256 394 0
h -2256 563 0
h 2256 -394 -563 0
h -2257 395 0
h -2257 574 0
h 2257 -395 -574 0
h -2258 396 0
h -2258 585 0
h 2258 -396 -585 0
h -2259 397 0
h -2259 596 0
h 2259 -397 -596 0
h -2260 398 0
h -2260 607 0
h 2260 -398 -607 0
h -2261 399 0
h -2261 618 0
h 2261 -399 -618 0
h -2262 400 0
h -2262 629 0
h 2262 -400 -629 0
h -2263 401 0
h -2263 640 0
h 2263 -401 -640 0
h -2264 402 0
h -2264 651 0
h 2264 -402 -651 0
h -2265 403 0
h -2265 662 0
h 2265 -403 -662 0
h -2266 404 0
h -2266 673 0
h 2266 -404 -673 0
h -2267 405 0
h -2267 684 0
h 2267 -405 -684 0
h -2268 406 0
h -2268 695 0
h 2268 -406 -695 0
h -2269 407 0
h -2269 706 0
h 2269 -407 -706 0
h -2270 408 0
h -2270 717 0
h 2270 -408 -717 0
h -2271 409 0
h -2271 728 0
h 2271 -409 -728 0
h -2272 410 0
h -2272 739 0
h 2272 -410 -739 0
h -2273 411 0
h -2273 750 0
h 2273 -411 -750 0
h -2274 412 0
h -2274 761 0
h 2274 -412 -761 0
h -2275 413 0
h -2275 772 0
h 2275 -413 -772 0
h -2276 414 0
h -2276 783 0
h 2276 -414 -783 0
h -2277 415 0
h -2277 794 0
h 2277 -415 -794 0
h -2278 416 0
h -2278 805 0
h 2278 -416 -805 0
h -2279 417 0
h -2279 816 0
h 2279 -417 -816 0
h -2280 418 0
h -2280 827 0
h 2280 -418 -827 0
h -381 -421 0
h -382 -432 0
h -383 -443 0
h -384 -454 0
h -385 -465 0
h -386 -476 0
h -387 -487 0
h -388 -498 0
h -389 -509 0
h -390 -520 0
h -391 -531 0
h -392 -542 0
h -393 -553 0
h -394 -564 0
h -395 -575 0
h -396 -586 0
h -397 -597 0
h -398 -608 0
h -399 -619 0
h -400 -630 0
h -401 -641 0
h -402 -652 0
h -403 -663 0
h -404 -674 0
h -405 -685 0
h -406 -696 0
h -407 -707 0
h -408 -718 0
h -409 -729 0
h -410 -740 0
h -411 -751 0
h -412 -762 0
h -413 -773 0
h -414 -784 0
h -415 -795 0
h -416 -806 0
h -417 -817 0
h -418 -828 0
h 2281 2282 2283 2284 2285 2286 2287 2288 2289 2290 2291 2292 2293 2294 2295 2296 2297 2298 2299 2300 2301 2302 2303 2304 2305 2306 2307 2308 2309 2310 2311 2312 2313 2314 2315 2316 2317 2318 0
h -2281 381 0
h -2281 422 0
h 2281 -381 -422 0
h -2282 382 0
h -2282 433 0
h 2282 -382 -433 0
h -2283 383 0
h -2283 444 0
h 2283 -383 -444 0
h -2284 384 0
h -2284 455 0
h 2284 -384 -455 0
h -2285 385 0
h -2285 466 0
h 2285 -385 -466 0
h -2286 386 0
h -2286 477 0
h 2286 -386 -477 0
h -2287 387 0
h -2287 488 0
h 2287 -387 -488 0
h -2288 388 0
h -2288 499 0
h 2288 -388 -499 0
h -2289 389 0
h -2289 510 0
h 2289 -389 -510 0
h -2290 390 0
h -2290 521 0
h 2290 -390 -521 0
h -2291 391 0
h -2291 532 0
h 2291 -391 -532 0
h -2292 392 0
h -2292 543 0
h 2292 -392 -543 0
h -2293 393 0
h -2293 554 0
h 2293 -393 -554 0
h -2294 394 0
h -2294 565 0
h 2294 -394 -565 0
h -2295 395 0
h -2295 576 0
h 2295 -395 -576 0
h -2296 396 0
h -2296 587 0
h 2296 -396 -587 0
h -2297 397 0
h -2297 598 0
h 2297 -397 -598 0
h -2298 398 0
h -2298 609 0
h 2298 -398 -609 0
h -2299 399 0
h -2299 620 0
h 2299 -399 -620 0
h -2300 400 0
h -2300 631 0
h 2300 -400 -631 0
h -2301 401 0
h -2301 642 0
h 2301 -401 -642 0
h -2302 402 0
h -2302 653 0
h 2302 -402 -653 0
h -2303 403 0
h -2303 664 0
h 2303 -403 -664 0
h -2304 404 0
h -2304 675 0
h 2304 -404 -675 0
h -2305 405 0
h -2305 686 0
h 2305 -405 -686 0
h -2306 406 0
h -2306 697 0
h 2306 -406 -697 0
h -2307 407 0
h -2307 708 0
h 2307 -407 -708 0
h -2308 408 0
h -2308 719 0
h 2308 -408 -719 0
h -2309 409 0
h -2309 730 0
h 2309 -409 -730 0
h -2310 410 0
h -2310 741 0
h 2310 -410 -741 0
h -2311 411 0
h -2311 752 0
h 2311 -411 -752 0
h -2312 412 0
h -2312 763 0
h 2312 -412 -763 0
h -2313 413 0
h -2313 774 0
h 2313 -413 -774 0
h -2314 414 0
h -2314 785 0
h 2314 -414 -785 0
h -2315 415 0
h -2315 796 0
h 2315 -415 -796 0
h -2316 416 0
h -2316 807 0
h 2316 -416 -807 0
h -2317 417 0
h -2317 818 0
h 2317 -417 -818 0
h -2318 418 0
h -2318 829 0
h 2318 -418 -829 0
h -381 -423 0
h -382 -434 0
h -383 -445 0
h -384 -456 0
h -385 -467 0
h -386 -478 0
h -387 -489 0
h -388 -500 0
h -389 -511 0
h -390 -522 0
h -391 -533 0
h -392 -544 0
h -393 -555 0
h -394 -566 0
h -395 -577 0
h -396 -588 0
h -397 -599 0
h -398 -610 0
h -399 -621 0
h -400 -632 0
h -401 -643 0
h -402 -654 0
h -403 -665 0
h -404 -676 0
h -405 -687 0
h -406 -698 0
h -407 -709 0
h -408 -720 0
h -409 -731 0
h -410 -742 0
h -411 -753 0
h -412 -764 0
h -413 -775 0
h -414 -786 0
h -415 -797 0
h -416 -808 0
h -417 -819 0
h -418 -830 0
h -381 -424 0
h -382 -435 0
h -383 -446 0
h -384 -457 0
h -385 -468 0
h -386 -479 0
h -387 -490 0
h -388 -501 0
h -389 -512 0
h -390 -523 0
h -391 -534 0
h -392 -545 0
h -393 -556 0
h -394 -567 0
h -395 -578 0
h -396 -589 0
h -397 -600 0
h -398 -611 0
h -399 -622 0
h -400 -633 0
h -401 -644 0
h -402 -655 0
h -403 -666 0
h -404 -677 0
h -405 -688 0
h -406 -699 0
h -407 -710 0
h -408 -721 0
h -409 -732 0
h -410 -743 0
h -411 -754 0
h -412 -765 0
h -413 -776 0
h -414 -787 0
h -415 -798 0
h -416 -809 0
h -417 -820 0
h -418 -831 0
h -381 -425 0
h -382 -436 0
h -383 -447 0
h -384 -458 0
h -385 -469 0
h -386 -480 0
h -387 -491 0
h -388 -502 0
h -389 -513 0
h -390 -524 0
h -391 -535 0
h -392 -546 0
h -393 -557 0
h -394 -568 0
h -395 -579 0
h -396 -590 0
h -397 -601 0
h -398 -612 0
h -399 -623 0
h -400 -634 0
h -401 -645 0
h -402 -656 0
h -403 -667 0
h -404 -678 0
h -405 -689 0
h -406 -700 0
h -407 -711 0
h -408 -722 0
h -409 -733 0
h -410 -744 0
h -411 -755 0
h -412 -766 0
h -413 -777 0
h -414 -788 0
h -415 -799 0
h -416 -810 0
h -417 -821 0
h -418 -832 0
h -381 -426 0
h -382 -437 0
h -383 -448 0
h -384 -459 0
h -385 -470 0
h -386 -481 0
h -387 -492 0
h -388 -503 0
h -389 -514 0
h -390 -525 0
h -391 -536 0
h -392 -547 0
h -393 -558 0
h -394 -569 0
h -395 -580 0
h -396 -591 0
h -397 -602 0
h -398 -613 0
h -399 -624 0
h -400 -635 0
h -401 -646 0
h -402 -657 0
h -403 -668 0
h -404 -679 0
h -405 -690 0
h -406 -701 0
h -407 -712 0
h -408 -723 0
h -409 -734 0
h -410 -745 0
h -411 -756 0
h -412 -767 0
h -413 -778 0
h -414 -789 0
h -415 -800 0
h -416 -811 0
h -417 -822 0
h -418 -833 0
h -381 -427 0
h -382 -438 0
h -383 -449 0
h -384 -460 0
h -385 -471 0
h -386 -482 0
h -387 -493 0
h -388 -504 0
h -389 -515 0
h -390 -526 0
h -391 -537 0
h -392 -548 0
h -393 -559 0
h -394 -570 0
h -395 -581 0
h -396 -592 0
h -397 -603 0
h -398 -614 0
h -399 -625 0
h -400 -636 0
h -401 -647 0
h -402 -658 0
h -403 -669 0
h -404 -680 0
h -405 -691 0
h -406 -702 0
h -407 -713 0
h -408 -724 0
h -409 -735 0
h -410 -746 0
h -411 -757 0
h -412 -768 0
h -413 -779 0
h -414 -790 0
h -415 -801 0
h -416 -812 0
h -417 -823 0
h -418 -834 0
h -381 -428 0
h -382 -439 0
h -383 -450 0
h -384 -461 0
h -385 -472 0
h -386 -483 0
h -387 -494 0
h -388 -505 0
h -389 -516 0
h -390 -527 0
h -391 -538 0
h -392 -549 0
h -393 -560 0
h -394 -571 0
h -395 -582 0
h -396 -593 0
h -397 -604 0
h -398 -615 0
h -399 -626 0
h -400 -637 0
h -401 -648 0
h -402 -659 0
h -403 -670 0
h -404 -681 0
h -405 -692 0
h -406 -703 0
h -407 -714 0
h -408 -725 0
h -409 -736 0
h -410 -747 0
h -411 -758 0
h -412 -769 0
h -413 -780 0
h -414 -791 0
h -415 -802 0
h -416 -813 0
h -417 -824 0
h -418 -835 0
h -381 -429 0
h -382 -440 0
h -383 -451 0
h -384 -462 0
h -385 -473 0
h -386 -484 0
h -387 -495 0
h -388 -506 0
h -389 -517 0
h -390 -528 0
h -391 -539 0
h -392 -550 0
h -393 -561 0
h -394 -572 0
h -395 -583 0
h -396 -594 0
h -397 -605 0
h -398 -616 0
h -399 -627 0
h -400 -638 0
h -401 -649 0
h -402 -660 0
h -403 -671 0
h -404 -682 0
h -405 -693 0
h -406 -704 0
h -407 -715 0
h -408 -726 0
h -409 -737 0
h -410 -748 0
h -411 -759 0
h -412 -770 0
h -413 -781 0
h -414 -792 0
h -415 -803 0
h -416 -814 0
h -417 -825 0
h -418 -836 0
