c Standarized MaxSat Instance
c{
c "sha1sum": "cba8791b72c5294388bcb5eaf39001f46af1c293",
c "nvars": 2400,
c "ncls": 9725,
c "total_lits": 21703,
c "nhards": 8692,
c "nhard_nlits": 20670,
c "nhard_len_stats":
c    { "min": 2,
c      "max": 40,
c      "ave": 2.3780,
c      "stddev": 2.5757 },
c "nsofts": 1033,
c "nsoft_nlits": 1033,
c "nsoft_len_stats":
c    { "min": 1,
c      "max": 1,
c      "ave": 1.0000,
c      "stddev": 0.0000 },
c "nsoft_wts": 4,
c "soft_wt_stats":
c    { "min": 227,
c      "max": 37333,
c      "ave": 967.8209,
c      "stddev": 4515.7243 }
c}
c------------------------------------------------------------
c Input CNF, Input: #User=11, #Permessi=11, #ruoli=40
227 1 0
227 2 0
227 3 0
227 4 0
227 5 0
227 6 0
227 7 0
227 -8 0
227 9 0
227 10 0
227 11 0
227 -12 0
227 -13 0
227 14 0
227 -15 0
227 41 0
227 42 0
227 43 0
227 44 0
227 45 0
227 46 0
227 47 0
227 48 0
227 49 0
227 50 0
227 51 0
227 -52 0
227 -53 0
227 54 0
227 -55 0
227 -81 0
227 -82 0
227 83 0
227 84 0
227 -85 0
227 -86 0
227 -87 0
227 -88 0
227 89 0
227 -90 0
227 91 0
227 -92 0
227 -93 0
227 -94 0
227 -95 0
227 -121 0
227 -122 0
227 -123 0
227 -124 0
227 -125 0
227 -126 0
227 -127 0
227 -128 0
227 -129 0
227 130 0
227 -131 0
227 -132 0
227 -133 0
227 -134 0
227 -135 0
227 161 0
227 162 0
227 163 0
227 164 0
227 165 0
227 166 0
227 167 0
227 -168 0
227 169 0
227 170 0
227 171 0
227 -172 0
227 -173 0
227 174 0
227 -175 0
227 -201 0
227 -202 0
227 -203 0
227 -204 0
227 -205 0
227 -206 0
227 -207 0
227 -208 0
227 -209 0
227 -210 0
227 -211 0
227 -212 0
227 -213 0
227 -214 0
227 -215 0
227 -241 0
227 -242 0
227 -243 0
227 -244 0
227 -245 0
227 -246 0
227 -247 0
227 -248 0
227 -249 0
227 -250 0
227 251 0
227 -252 0
227 -253 0
227 -254 0
227 -255 0
227 281 0
227 -282 0
227 283 0
227 284 0
227 285 0
227 286 0
227 -287 0
227 -288 0
227 289 0
227 -290 0
227 291 0
227 292 0
227 -293 0
227 294 0
227 -295 0
227 -321 0
227 322 0
227 323 0
227 -324 0
227 325 0
227 326 0
227 -327 0
227 -328 0
227 -329 0
227 330 0
227 331 0
227 -332 0
227 333 0
227 -334 0
227 -335 0
227 -361 0
227 -362 0
227 -363 0
227 364 0
227 -365 0
227 366 0
227 -367 0
227 -368 0
227 -369 0
227 -370 0
227 371 0
227 -372 0
227 -373 0
227 374 0
227 -375 0
227 -401 0
227 -402 0
227 403 0
227 -404 0
227 -405 0
227 -406 0
227 -407 0
227 -408 0
227 -409 0
227 -410 0
227 411 0
227 -412 0
227 -413 0
227 -414 0
227 415 0
227 441 0
227 442 0
227 443 0
227 444 0
227 -445 0
227 -446 0
227 -447 0
227 -448 0
227 -449 0
227 -450 0
227 -451 0
227 452 0
227 453 0
227 -454 0
227 455 0
227 -456 0
227 457 0
227 -458 0
227 -459 0
227 -460 0
227 -461 0
227 -462 0
227 463 0
227 464 0
227 -465 0
227 -466 0
227 -467 0
227 -468 0
227 -469 0
227 -470 0
227 -471 0
227 -472 0
227 -473 0
227 474 0
227 -475 0
227 476 0
227 -477 0
227 -478 0
227 -479 0
227 -480 0
227 -481 0
227 -482 0
227 -483 0
227 -484 0
227 485 0
227 486 0
227 -487 0
227 488 0
227 -489 0
227 -490 0
227 -491 0
227 -492 0
227 -493 0
227 -494 0
227 -495 0
227 496 0
227 -497 0
227 -498 0
227 499 0
227 -500 0
227 -501 0
227 -502 0
227 -503 0
227 -504 0
227 -505 0
227 -506 0
227 507 0
227 508 0
227 509 0
227 510 0
227 -511 0
227 512 0
227 -513 0
227 -514 0
227 -515 0
227 -516 0
227 -517 0
227 518 0
227 519 0
227 520 0
227 521 0
227 522 0
227 523 0
227 -524 0
227 -525 0
227 -526 0
227 -527 0
227 -528 0
227 529 0
227 530 0
227 531 0
227 -532 0
227 -533 0
227 -534 0
227 -535 0
227 -536 0
227 -537 0
227 -538 0
227 -539 0
227 -540 0
227 -541 0
227 -542 0
227 -543 0
227 -544 0
227 545 0
227 -546 0
227 -547 0
227 -548 0
227 -549 0
227 -550 0
227 551 0
227 -552 0
227 -553 0
227 -554 0
227 -555 0
227 -556 0
227 -557 0
227 -558 0
227 -559 0
227 -560 0
227 -561 0
227 562 0
227 563 0
227 564 0
227 565 0
227 -566 0
227 -567 0
227 568 0
227 569 0
227 -570 0
227 -571 0
227 -572 0
227 573 0
227 574 0
227 -575 0
227 576 0
227 -577 0
227 578 0
227 -579 0
227 -580 0
227 581 0
227 -582 0
227 -583 0
227 584 0
227 -585 0
227 586 0
227 587 0
227 -588 0
227 -589 0
227 -590 0
227 -591 0
227 -592 0
227 -593 0
227 -594 0
227 595 0
227 596 0
227 -597 0
227 -598 0
227 -599 0
227 -600 0
227 -601 0
227 -602 0
227 -603 0
227 -604 0
227 605 0
227 -16 0
227 -17 0
227 -18 0
227 -19 0
227 -20 0
227 -21 0
227 -22 0
227 -23 0
227 -24 0
227 -25 0
227 -26 0
227 -27 0
227 -28 0
227 -29 0
227 -30 0
227 -31 0
227 -32 0
227 -33 0
227 -34 0
227 -35 0
227 -36 0
227 -37 0
227 -38 0
227 -39 0
227 -40 0
227 -56 0
227 -57 0
227 -58 0
227 -59 0
227 -60 0
227 -61 0
227 -62 0
227 -63 0
227 -64 0
227 -65 0
227 -66 0
227 -67 0
227 -68 0
227 -69 0
227 -70 0
227 -71 0
227 -72 0
227 -73 0
227 -74 0
227 -75 0
227 -76 0
227 -77 0
227 -78 0
227 -79 0
227 -80 0
227 -96 0
227 -97 0
227 -98 0
227 -99 0
227 -100 0
227 -101 0
227 -102 0
227 -103 0
227 -104 0
227 -105 0
227 -106 0
227 -107 0
227 -108 0
227 -109 0
227 -110 0
227 -111 0
227 -112 0
227 -113 0
227 -114 0
227 -115 0
227 -116 0
227 -117 0
227 -118 0
227 -119 0
227 -120 0
227 -136 0
227 -137 0
227 -138 0
227 -139 0
227 -140 0
227 -141 0
227 -142 0
227 -143 0
227 -144 0
227 -145 0
227 -146 0
227 -147 0
227 -148 0
227 -149 0
227 -150 0
227 -151 0
227 -152 0
227 -153 0
227 -154 0
227 -155 0
227 -156 0
227 -157 0
227 -158 0
227 -159 0
227 -160 0
227 -176 0
227 -177 0
227 -178 0
227 -179 0
227 -180 0
227 -181 0
227 -182 0
227 -183 0
227 -184 0
227 -185 0
227 -186 0
227 -187 0
227 -188 0
227 -189 0
227 -190 0
227 -191 0
227 -192 0
227 -193 0
227 -194 0
227 -195 0
227 -196 0
227 -197 0
227 -198 0
227 -199 0
227 -200 0
227 -216 0
227 -217 0
227 -218 0
227 -219 0
227 -220 0
227 -221 0
227 -222 0
227 -223 0
227 -224 0
227 -225 0
227 -226 0
227 -227 0
227 -228 0
227 -229 0
227 -230 0
227 -231 0
227 -232 0
227 -233 0
227 -234 0
227 -235 0
227 -236 0
227 -237 0
227 -238 0
227 -239 0
227 -240 0
227 -256 0
227 -257 0
227 -258 0
227 -259 0
227 -260 0
227 -261 0
227 -262 0
227 -263 0
227 -264 0
227 -265 0
227 -266 0
227 -267 0
227 -268 0
227 -269 0
227 -270 0
227 -271 0
227 -272 0
227 -273 0
227 -274 0
227 -275 0
227 -276 0
227 -277 0
227 -278 0
227 -279 0
227 -280 0
227 -296 0
227 -297 0
227 -298 0
227 -299 0
227 -300 0
227 -301 0
227 -302 0
227 -303 0
227 -304 0
227 -305 0
227 -306 0
227 -307 0
227 -308 0
227 -309 0
227 -310 0
227 -311 0
227 -312 0
227 -313 0
227 -314 0
227 -315 0
227 -316 0
227 -317 0
227 -318 0
227 -319 0
227 -320 0
227 -336 0
227 -337 0
227 -338 0
227 -339 0
227 -340 0
227 -341 0
227 -342 0
227 -343 0
227 -344 0
227 -345 0
227 -346 0
227 -347 0
227 -348 0
227 -349 0
227 -350 0
227 -351 0
227 -352 0
227 -353 0
227 -354 0
227 -355 0
227 -356 0
227 -357 0
227 -358 0
227 -359 0
227 -360 0
227 -376 0
227 -377 0
227 -378 0
227 -379 0
227 -380 0
227 -381 0
227 -382 0
227 -383 0
227 -384 0
227 -385 0
227 -386 0
227 -387 0
227 -388 0
227 -389 0
227 -390 0
227 -391 0
227 -392 0
227 -393 0
227 -394 0
227 -395 0
227 -396 0
227 -397 0
227 -398 0
227 -399 0
227 -400 0
227 -416 0
227 -417 0
227 -418 0
227 -419 0
227 -420 0
227 -421 0
227 -422 0
227 -423 0
227 -424 0
227 -425 0
227 -426 0
227 -427 0
227 -428 0
227 -429 0
227 -430 0
227 -431 0
227 -432 0
227 -433 0
227 -434 0
227 -435 0
227 -436 0
227 -437 0
227 -438 0
227 -439 0
227 -440 0
227 -606 0
227 -617 0
227 -628 0
227 -639 0
227 -650 0
227 -661 0
227 -672 0
227 -683 0
227 -694 0
227 -705 0
227 -716 0
227 -727 0
227 -738 0
227 -749 0
227 -760 0
227 -771 0
227 -782 0
227 -793 0
227 -804 0
227 -815 0
227 -826 0
227 -837 0
227 -848 0
227 -859 0
227 -870 0
227 -607 0
227 -618 0
227 -629 0
227 -640 0
227 -651 0
227 -662 0
227 -673 0
227 -684 0
227 -695 0
227 -706 0
227 -717 0
227 -728 0
227 -739 0
227 -750 0
227 -761 0
227 -772 0
227 -783 0
227 -794 0
227 -805 0
227 -816 0
227 -827 0
227 -838 0
227 -849 0
227 -860 0
227 -871 0
227 -608 0
227 -619 0
227 -630 0
227 -641 0
227 -652 0
227 -663 0
227 -674 0
227 -685 0
227 -696 0
227 -707 0
227 -718 0
227 -729 0
227 -740 0
227 -751 0
227 -762 0
227 -773 0
227 -784 0
227 -795 0
227 -806 0
227 -817 0
227 -828 0
227 -839 0
227 -850 0
227 -861 0
227 -872 0
227 -609 0
227 -620 0
227 -631 0
227 -642 0
227 -653 0
227 -664 0
227 -675 0
227 -686 0
227 -697 0
227 -708 0
227 -719 0
227 -730 0
227 -741 0
227 -752 0
227 -763 0
227 -774 0
227 -785 0
227 -796 0
227 -807 0
227 -818 0
227 -829 0
227 -840 0
227 -851 0
227 -862 0
227 -873 0
227 -610 0
227 -621 0
227 -632 0
227 -643 0
227 -654 0
227 -665 0
227 -676 0
227 -687 0
227 -698 0
227 -709 0
227 -720 0
227 -731 0
227 -742 0
227 -753 0
227 -764 0
227 -775 0
227 -786 0
227 -797 0
227 -808 0
227 -819 0
227 -830 0
227 -841 0
227 -852 0
227 -863 0
227 -874 0
227 -611 0
227 -622 0
227 -633 0
227 -644 0
227 -655 0
227 -666 0
227 -677 0
227 -688 0
227 -699 0
227 -710 0
227 -721 0
227 -732 0
227 -743 0
227 -754 0
227 -765 0
227 -776 0
227 -787 0
227 -798 0
227 -809 0
227 -820 0
227 -831 0
227 -842 0
227 -853 0
227 -864 0
227 -875 0
227 -612 0
227 -623 0
227 -634 0
227 -645 0
227 -656 0
227 -667 0
227 -678 0
227 -689 0
227 -700 0
227 -711 0
227 -722 0
227 -733 0
227 -744 0
227 -755 0
227 -766 0
227 -777 0
227 -788 0
227 -799 0
227 -810 0
227 -821 0
227 -832 0
227 -843 0
227 -854 0
227 -865 0
227 -876 0
227 -613 0
227 -624 0
227 -635 0
227 -646 0
227 -657 0
227 -668 0
227 -679 0
227 -690 0
227 -701 0
227 -712 0
227 -723 0
227 -734 0
227 -745 0
227 -756 0
227 -767 0
227 -778 0
227 -789 0
227 -800 0
227 -811 0
227 -822 0
227 -833 0
227 -844 0
227 -855 0
227 -866 0
227 -877 0
227 -614 0
227 -625 0
227 -636 0
227 -647 0
227 -658 0
227 -669 0
227 -680 0
227 -691 0
227 -702 0
227 -713 0
227 -724 0
227 -735 0
227 -746 0
227 -757 0
227 -768 0
227 -779 0
227 -790 0
227 -801 0
227 -812 0
227 -823 0
227 -834 0
227 -845 0
227 -856 0
227 -867 0
227 -878 0
227 -615 0
227 -626 0
227 -637 0
227 -648 0
227 -659 0
227 -670 0
227 -681 0
227 -692 0
227 -703 0
227 -714 0
227 -725 0
227 -736 0
227 -747 0
227 -758 0
227 -769 0
227 -780 0
227 -791 0
227 -802 0
227 -813 0
227 -824 0
227 -835 0
227 -846 0
227 -857 0
227 -868 0
227 -879 0
227 -616 0
227 -627 0
227 -638 0
227 -649 0
227 -660 0
227 -671 0
227 -682 0
227 -693 0
227 -704 0
227 -715 0
227 -726 0
227 -737 0
227 -748 0
227 -759 0
227 -770 0
227 -781 0
227 -792 0
227 -803 0
227 -814 0
227 -825 0
227 -836 0
227 -847 0
227 -858 0
227 -869 0
227 -880 0
708 -1 0
708 -2 0
708 -3 0
708 -4 0
708 -5 0
708 -6 0
708 -7 0
708 -9 0
708 -10 0
708 -11 0
708 -14 0
708 -41 0
708 -42 0
708 -43 0
708 -44 0
708 -45 0
708 -46 0
708 -47 0
708 -48 0
708 -49 0
708 -50 0
708 -51 0
708 -54 0
708 -83 0
708 -84 0
708 -89 0
708 -91 0
708 -130 0
708 -161 0
708 -162 0
708 -163 0
708 -164 0
708 -165 0
708 -166 0
708 -167 0
708 -169 0
708 -170 0
708 -171 0
708 -174 0
708 -251 0
708 -281 0
708 -283 0
708 -284 0
708 -285 0
708 -286 0
708 -289 0
708 -291 0
708 -292 0
708 -294 0
708 -322 0
708 -323 0
708 -325 0
708 -326 0
708 -330 0
708 -331 0
708 -333 0
708 -364 0
708 -366 0
708 -371 0
708 -374 0
708 -403 0
708 -411 0
708 -415 0
708 -441 0
708 -442 0
708 -443 0
708 -444 0
708 -452 0
708 -453 0
708 -455 0
708 -457 0
708 -463 0
708 -464 0
708 -474 0
708 -476 0
708 -485 0
708 -486 0
708 -488 0
708 -496 0
708 -499 0
708 -507 0
708 -508 0
708 -509 0
708 -510 0
708 -512 0
708 -518 0
708 -519 0
708 -520 0
708 -521 0
708 -522 0
708 -523 0
708 -529 0
708 -530 0
708 -531 0
708 -545 0
708 -551 0
708 -562 0
708 -563 0
708 -564 0
708 -565 0
708 -568 0
708 -569 0
708 -573 0
708 -574 0
708 -576 0
708 -578 0
708 -581 0
708 -584 0
708 -586 0
708 -587 0
708 -595 0
708 -596 0
708 -605 0
37333 881 0
37333 882 0
37333 883 0
37333 884 0
37333 885 0
37333 886 0
37333 887 0
37333 888 0
37333 889 0
37333 890 0
37333 891 0
37333 892 0
37333 893 0
37333 894 0
37333 895 0
6400 896 0
6400 897 0
6400 898 0
6400 899 0
6400 900 0
6400 901 0
6400 902 0
6400 903 0
6400 904 0
6400 905 0
6400 906 0
6400 907 0
6400 908 0
6400 909 0
6400 910 0
6400 911 0
6400 912 0
6400 913 0
6400 914 0
6400 915 0
6400 916 0
6400 917 0
6400 918 0
6400 919 0
6400 920 0
h -881 -1 0
h -881 -41 0
h -881 -81 0
h -881 -121 0
h -881 -161 0
h -881 -201 0
h -881 -241 0
h -881 -281 0
h -881 -321 0
h -881 -361 0
h -881 -401 0
h 881 1 41 81 121 161 201 241 281 321 361 401 0
h -882 -2 0
h -882 -42 0
h -882 -82 0
h -882 -122 0
h -882 -162 0
h -882 -202 0
h -882 -242 0
h -882 -282 0
h -882 -322 0
h -882 -362 0
h -882 -402 0
h 882 2 42 82 122 162 202 242 282 322 362 402 0
h -883 -3 0
h -883 -43 0
h -883 -83 0
h -883 -123 0
h -883 -163 0
h -883 -203 0
h -883 -243 0
h -883 -283 0
h -883 -323 0
h -883 -363 0
h -883 -403 0
h 883 3 43 83 123 163 203 243 283 323 363 403 0
h -884 -4 0
h -884 -44 0
h -884 -84 0
h -884 -124 0
h -884 -164 0
h -884 -204 0
h -884 -244 0
h -884 -284 0
h -884 -324 0
h -884 -364 0
h -884 -404 0
h 884 4 44 84 124 164 204 244 284 324 364 404 0
h -885 -5 0
h -885 -45 0
h -885 -85 0
h -885 -125 0
h -885 -165 0
h -885 -205 0
h -885 -245 0
h -885 -285 0
h -885 -325 0
h -885 -365 0
h -885 -405 0
h 885 5 45 85 125 165 205 245 285 325 365 405 0
h -886 -6 0
h -886 -46 0
h -886 -86 0
h -886 -126 0
h -886 -166 0
h -886 -206 0
h -886 -246 0
h -886 -286 0
h -886 -326 0
h -886 -366 0
h -886 -406 0
h 886 6 46 86 126 166 206 246 286 326 366 406 0
h -887 -7 0
h -887 -47 0
h -887 -87 0
h -887 -127 0
h -887 -167 0
h -887 -207 0
h -887 -247 0
h -887 -287 0
h -887 -327 0
h -887 -367 0
h -887 -407 0
h 887 7 47 87 127 167 207 247 287 327 367 407 0
h -888 -8 0
h -888 -48 0
h -888 -88 0
h -888 -128 0
h -888 -168 0
h -888 -208 0
h -888 -248 0
h -888 -288 0
h -888 -328 0
h -888 -368 0
h -888 -408 0
h 888 8 48 88 128 168 208 248 288 328 368 408 0
h -889 -9 0
h -889 -49 0
h -889 -89 0
h -889 -129 0
h -889 -169 0
h -889 -209 0
h -889 -249 0
h -889 -289 0
h -889 -329 0
h -889 -369 0
h -889 -409 0
h 889 9 49 89 129 169 209 249 289 329 369 409 0
h -890 -10 0
h -890 -50 0
h -890 -90 0
h -890 -130 0
h -890 -170 0
h -890 -210 0
h -890 -250 0
h -890 -290 0
h -890 -330 0
h -890 -370 0
h -890 -410 0
h 890 10 50 90 130 170 210 250 290 330 370 410 0
h -891 -11 0
h -891 -51 0
h -891 -91 0
h -891 -131 0
h -891 -171 0
h -891 -211 0
h -891 -251 0
h -891 -291 0
h -891 -331 0
h -891 -371 0
h -891 -411 0
h 891 11 51 91 131 171 211 251 291 331 371 411 0
h -892 -12 0
h -892 -52 0
h -892 -92 0
h -892 -132 0
h -892 -172 0
h -892 -212 0
h -892 -252 0
h -892 -292 0
h -892 -332 0
h -892 -372 0
h -892 -412 0
h 892 12 52 92 132 172 212 252 292 332 372 412 0
h -893 -13 0
h -893 -53 0
h -893 -93 0
h -893 -133 0
h -893 -173 0
h -893 -213 0
h -893 -253 0
h -893 -293 0
h -893 -333 0
h -893 -373 0
h -893 -413 0
h 893 13 53 93 133 173 213 253 293 333 373 413 0
h -894 -14 0
h -894 -54 0
h -894 -94 0
h -894 -134 0
h -894 -174 0
h -894 -214 0
h -894 -254 0
h -894 -294 0
h -894 -334 0
h -894 -374 0
h -894 -414 0
h 894 14 54 94 134 174 214 254 294 334 374 414 0
h -895 -15 0
h -895 -55 0
h -895 -95 0
h -895 -135 0
h -895 -175 0
h -895 -215 0
h -895 -255 0
h -895 -295 0
h -895 -335 0
h -895 -375 0
h -895 -415 0
h 895 15 55 95 135 175 215 255 295 335 375 415 0
h -896 -16 0
h -896 -56 0
h -896 -96 0
h -896 -136 0
h -896 -176 0
h -896 -216 0
h -896 -256 0
h -896 -296 0
h -896 -336 0
h -896 -376 0
h -896 -416 0
h 896 16 56 96 136 176 216 256 296 336 376 416 0
h -897 -17 0
h -897 -57 0
h -897 -97 0
h -897 -137 0
h -897 -177 0
h -897 -217 0
h -897 -257 0
h -897 -297 0
h -897 -337 0
h -897 -377 0
h -897 -417 0
h 897 17 57 97 137 177 217 257 297 337 377 417 0
h -898 -18 0
h -898 -58 0
h -898 -98 0
h -898 -138 0
h -898 -178 0
h -898 -218 0
h -898 -258 0
h -898 -298 0
h -898 -338 0
h -898 -378 0
h -898 -418 0
h 898 18 58 98 138 178 218 258 298 338 378 418 0
h -899 -19 0
h -899 -59 0
h -899 -99 0
h -899 -139 0
h -899 -179 0
h -899 -219 0
h -899 -259 0
h -899 -299 0
h -899 -339 0
h -899 -379 0
h -899 -419 0
h 899 19 59 99 139 179 219 259 299 339 379 419 0
h -900 -20 0
h -900 -60 0
h -900 -100 0
h -900 -140 0
h -900 -180 0
h -900 -220 0
h -900 -260 0
h -900 -300 0
h -900 -340 0
h -900 -380 0
h -900 -420 0
h 900 20 60 100 140 180 220 260 300 340 380 420 0
h -901 -21 0
h -901 -61 0
h -901 -101 0
h -901 -141 0
h -901 -181 0
h -901 -221 0
h -901 -261 0
h -901 -301 0
h -901 -341 0
h -901 -381 0
h -901 -421 0
h 901 21 61 101 141 181 221 261 301 341 381 421 0
h -902 -22 0
h -902 -62 0
h -902 -102 0
h -902 -142 0
h -902 -182 0
h -902 -222 0
h -902 -262 0
h -902 -302 0
h -902 -342 0
h -902 -382 0
h -902 -422 0
h 902 22 62 102 142 182 222 262 302 342 382 422 0
h -903 -23 0
h -903 -63 0
h -903 -103 0
h -903 -143 0
h -903 -183 0
h -903 -223 0
h -903 -263 0
h -903 -303 0
h -903 -343 0
h -903 -383 0
h -903 -423 0
h 903 23 63 103 143 183 223 263 303 343 383 423 0
h -904 -24 0
h -904 -64 0
h -904 -104 0
h -904 -144 0
h -904 -184 0
h -904 -224 0
h -904 -264 0
h -904 -304 0
h -904 -344 0
h -904 -384 0
h -904 -424 0
h 904 24 64 104 144 184 224 264 304 344 384 424 0
h -905 -25 0
h -905 -65 0
h -905 -105 0
h -905 -145 0
h -905 -185 0
h -905 -225 0
h -905 -265 0
h -905 -305 0
h -905 -345 0
h -905 -385 0
h -905 -425 0
h 905 25 65 105 145 185 225 265 305 345 385 425 0
h -906 -26 0
h -906 -66 0
h -906 -106 0
h -906 -146 0
h -906 -186 0
h -906 -226 0
h -906 -266 0
h -906 -306 0
h -906 -346 0
h -906 -386 0
h -906 -426 0
h 906 26 66 106 146 186 226 266 306 346 386 426 0
h -907 -27 0
h -907 -67 0
h -907 -107 0
h -907 -147 0
h -907 -187 0
h -907 -227 0
h -907 -267 0
h -907 -307 0
h -907 -347 0
h -907 -387 0
h -907 -427 0
h 907 27 67 107 147 187 227 267 307 347 387 427 0
h -908 -28 0
h -908 -68 0
h -908 -108 0
h -908 -148 0
h -908 -188 0
h -908 -228 0
h -908 -268 0
h -908 -308 0
h -908 -348 0
h -908 -388 0
h -908 -428 0
h 908 28 68 108 148 188 228 268 308 348 388 428 0
h -909 -29 0
h -909 -69 0
h -909 -109 0
h -909 -149 0
h -909 -189 0
h -909 -229 0
h -909 -269 0
h -909 -309 0
h -909 -349 0
h -909 -389 0
h -909 -429 0
h 909 29 69 109 149 189 229 269 309 349 389 429 0
h -910 -30 0
h -910 -70 0
h -910 -110 0
h -910 -150 0
h -910 -190 0
h -910 -230 0
h -910 -270 0
h -910 -310 0
h -910 -350 0
h -910 -390 0
h -910 -430 0
h 910 30 70 110 150 190 230 270 310 350 390 430 0
h -911 -31 0
h -911 -71 0
h -911 -111 0
h -911 -151 0
h -911 -191 0
h -911 -231 0
h -911 -271 0
h -911 -311 0
h -911 -351 0
h -911 -391 0
h -911 -431 0
h 911 31 71 111 151 191 231 271 311 351 391 431 0
h -912 -32 0
h -912 -72 0
h -912 -112 0
h -912 -152 0
h -912 -192 0
h -912 -232 0
h -912 -272 0
h -912 -312 0
h -912 -352 0
h -912 -392 0
h -912 -432 0
h 912 32 72 112 152 192 232 272 312 352 392 432 0
h -913 -33 0
h -913 -73 0
h -913 -113 0
h -913 -153 0
h -913 -193 0
h -913 -233 0
h -913 -273 0
h -913 -313 0
h -913 -353 0
h -913 -393 0
h -913 -433 0
h 913 33 73 113 153 193 233 273 313 353 393 433 0
h -914 -34 0
h -914 -74 0
h -914 -114 0
h -914 -154 0
h -914 -194 0
h -914 -234 0
h -914 -274 0
h -914 -314 0
h -914 -354 0
h -914 -394 0
h -914 -434 0
h 914 34 74 114 154 194 234 274 314 354 394 434 0
h -915 -35 0
h -915 -75 0
h -915 -115 0
h -915 -155 0
h -915 -195 0
h -915 -235 0
h -915 -275 0
h -915 -315 0
h -915 -355 0
h -915 -395 0
h -915 -435 0
h 915 35 75 115 155 195 235 275 315 355 395 435 0
h -916 -36 0
h -916 -76 0
h -916 -116 0
h -916 -156 0
h -916 -196 0
h -916 -236 0
h -916 -276 0
h -916 -316 0
h -916 -356 0
h -916 -396 0
h -916 -436 0
h 916 36 76 116 156 196 236 276 316 356 396 436 0
h -917 -37 0
h -917 -77 0
h -917 -117 0
h -917 -157 0
h -917 -197 0
h -917 -237 0
h -917 -277 0
h -917 -317 0
h -917 -357 0
h -917 -397 0
h -917 -437 0
h 917 37 77 117 157 197 237 277 317 357 397 437 0
h -918 -38 0
h -918 -78 0
h -918 -118 0
h -918 -158 0
h -918 -198 0
h -918 -238 0
h -918 -278 0
h -918 -318 0
h -918 -358 0
h -918 -398 0
h -918 -438 0
h 918 38 78 118 158 198 238 278 318 358 398 438 0
h -919 -39 0
h -919 -79 0
h -919 -119 0
h -919 -159 0
h -919 -199 0
h -919 -239 0
h -919 -279 0
h -919 -319 0
h -919 -359 0
h -919 -399 0
h -919 -439 0
h 919 39 79 119 159 199 239 279 319 359 399 439 0
h -920 -40 0
h -920 -80 0
h -920 -120 0
h -920 -160 0
h -920 -200 0
h -920 -240 0
h -920 -280 0
h -920 -320 0
h -920 -360 0
h -920 -400 0
h -920 -440 0
h 920 40 80 120 160 200 240 280 320 360 400 440 0
h 896 -881 0
h 896 -882 0
h 896 -883 0
h 896 -884 0
h 896 -885 0
h 896 -886 0
h 896 -887 0
h 896 -888 0
h 896 -889 0
h 896 -890 0
h 896 -891 0
h 896 -892 0
h 896 -893 0
h 896 -894 0
h 896 -895 0
h 897 -881 0
h 897 -882 0
h 897 -883 0
h 897 -884 0
h 897 -885 0
h 897 -886 0
h 897 -887 0
h 897 -888 0
h 897 -889 0
h 897 -890 0
h 897 -891 0
h 897 -892 0
h 897 -893 0
h 897 -894 0
h 897 -895 0
h 898 -881 0
h 898 -882 0
h 898 -883 0
h 898 -884 0
h 898 -885 0
h 898 -886 0
h 898 -887 0
h 898 -888 0
h 898 -889 0
h 898 -890 0
h 898 -891 0
h 898 -892 0
h 898 -893 0
h 898 -894 0
h 898 -895 0
h 899 -881 0
h 899 -882 0
h 899 -883 0
h 899 -884 0
h 899 -885 0
h 899 -886 0
h 899 -887 0
h 899 -888 0
h 899 -889 0
h 899 -890 0
h 899 -891 0
h 899 -892 0
h 899 -893 0
h 899 -894 0
h 899 -895 0
h 900 -881 0
h 900 -882 0
h 900 -883 0
h 900 -884 0
h 900 -885 0
h 900 -886 0
h 900 -887 0
h 900 -888 0
h 900 -889 0
h 900 -890 0
h 900 -891 0
h 900 -892 0
h 900 -893 0
h 900 -894 0
h 900 -895 0
h 901 -881 0
h 901 -882 0
h 901 -883 0
h 901 -884 0
h 901 -885 0
h 901 -886 0
h 901 -887 0
h 901 -888 0
h 901 -889 0
h 901 -890 0
h 901 -891 0
h 901 -892 0
h 901 -893 0
h 901 -894 0
h 901 -895 0
h 902 -881 0
h 902 -882 0
h 902 -883 0
h 902 -884 0
h 902 -885 0
h 902 -886 0
h 902 -887 0
h 902 -888 0
h 902 -889 0
h 902 -890 0
h 902 -891 0
h 902 -892 0
h 902 -893 0
h 902 -894 0
h 902 -895 0
h 903 -881 0
h 903 -882 0
h 903 -883 0
h 903 -884 0
h 903 -885 0
h 903 -886 0
h 903 -887 0
h 903 -888 0
h 903 -889 0
h 903 -890 0
h 903 -891 0
h 903 -892 0
h 903 -893 0
h 903 -894 0
h 903 -895 0
h 904 -881 0
h 904 -882 0
h 904 -883 0
h 904 -884 0
h 904 -885 0
h 904 -886 0
h 904 -887 0
h 904 -888 0
h 904 -889 0
h 904 -890 0
h 904 -891 0
h 904 -892 0
h 904 -893 0
h 904 -894 0
h 904 -895 0
h 905 -881 0
h 905 -882 0
h 905 -883 0
h 905 -884 0
h 905 -885 0
h 905 -886 0
h 905 -887 0
h 905 -888 0
h 905 -889 0
h 905 -890 0
h 905 -891 0
h 905 -892 0
h 905 -893 0
h 905 -894 0
h 905 -895 0
h 906 -881 0
h 906 -882 0
h 906 -883 0
h 906 -884 0
h 906 -885 0
h 906 -886 0
h 906 -887 0
h 906 -888 0
h 906 -889 0
h 906 -890 0
h 906 -891 0
h 906 -892 0
h 906 -893 0
h 906 -894 0
h 906 -895 0
h 907 -881 0
h 907 -882 0
h 907 -883 0
h 907 -884 0
h 907 -885 0
h 907 -886 0
h 907 -887 0
h 907 -888 0
h 907 -889 0
h 907 -890 0
h 907 -891 0
h 907 -892 0
h 907 -893 0
h 907 -894 0
h 907 -895 0
h 908 -881 0
h 908 -882 0
h 908 -883 0
h 908 -884 0
h 908 -885 0
h 908 -886 0
h 908 -887 0
h 908 -888 0
h 908 -889 0
h 908 -890 0
h 908 -891 0
h 908 -892 0
h 908 -893 0
h 908 -894 0
h 908 -895 0
h 909 -881 0
h 909 -882 0
h 909 -883 0
h 909 -884 0
h 909 -885 0
h 909 -886 0
h 909 -887 0
h 909 -888 0
h 909 -889 0
h 909 -890 0
h 909 -891 0
h 909 -892 0
h 909 -893 0
h 909 -894 0
h 909 -895 0
h 910 -881 0
h 910 -882 0
h 910 -883 0
h 910 -884 0
h 910 -885 0
h 910 -886 0
h 910 -887 0
h 910 -888 0
h 910 -889 0
h 910 -890 0
h 910 -891 0
h 910 -892 0
h 910 -893 0
h 910 -894 0
h 910 -895 0
h 911 -881 0
h 911 -882 0
h 911 -883 0
h 911 -884 0
h 911 -885 0
h 911 -886 0
h 911 -887 0
h 911 -888 0
h 911 -889 0
h 911 -890 0
h 911 -891 0
h 911 -892 0
h 911 -893 0
h 911 -894 0
h 911 -895 0
h 912 -881 0
h 912 -882 0
h 912 -883 0
h 912 -884 0
h 912 -885 0
h 912 -886 0
h 912 -887 0
h 912 -888 0
h 912 -889 0
h 912 -890 0
h 912 -891 0
h 912 -892 0
h 912 -893 0
h 912 -894 0
h 912 -895 0
h 913 -881 0
h 913 -882 0
h 913 -883 0
h 913 -884 0
h 913 -885 0
h 913 -886 0
h 913 -887 0
h 913 -888 0
h 913 -889 0
h 913 -890 0
h 913 -891 0
h 913 -892 0
h 913 -893 0
h 913 -894 0
h 913 -895 0
h 914 -881 0
h 914 -882 0
h 914 -883 0
h 914 -884 0
h 914 -885 0
h 914 -886 0
h 914 -887 0
h 914 -888 0
h 914 -889 0
h 914 -890 0
h 914 -891 0
h 914 -892 0
h 914 -893 0
h 914 -894 0
h 914 -895 0
h 915 -881 0
h 915 -882 0
h 915 -883 0
h 915 -884 0
h 915 -885 0
h 915 -886 0
h 915 -887 0
h 915 -888 0
h 915 -889 0
h 915 -890 0
h 915 -891 0
h 915 -892 0
h 915 -893 0
h 915 -894 0
h 915 -895 0
h 916 -881 0
h 916 -882 0
h 916 -883 0
h 916 -884 0
h 916 -885 0
h 916 -886 0
h 916 -887 0
h 916 -888 0
h 916 -889 0
h 916 -890 0
h 916 -891 0
h 916 -892 0
h 916 -893 0
h 916 -894 0
h 916 -895 0
h 917 -881 0
h 917 -882 0
h 917 -883 0
h 917 -884 0
h 917 -885 0
h 917 -886 0
h 917 -887 0
h 917 -888 0
h 917 -889 0
h 917 -890 0
h 917 -891 0
h 917 -892 0
h 917 -893 0
h 917 -894 0
h 917 -895 0
h 918 -881 0
h 918 -882 0
h 918 -883 0
h 918 -884 0
h 918 -885 0
h 918 -886 0
h 918 -887 0
h 918 -888 0
h 918 -889 0
h 918 -890 0
h 918 -891 0
h 918 -892 0
h 918 -893 0
h 918 -894 0
h 918 -895 0
h 919 -881 0
h 919 -882 0
h 919 -883 0
h 919 -884 0
h 919 -885 0
h 919 -886 0
h 919 -887 0
h 919 -888 0
h 919 -889 0
h 919 -890 0
h 919 -891 0
h 919 -892 0
h 919 -893 0
h 919 -894 0
h 919 -895 0
h 920 -881 0
h 920 -882 0
h 920 -883 0
h 920 -884 0
h 920 -885 0
h 920 -886 0
h 920 -887 0
h 920 -888 0
h 920 -889 0
h 920 -890 0
h 920 -891 0
h 920 -892 0
h 920 -893 0
h 920 -894 0
h 920 -895 0
h 921 922 923 924 925 926 927 928 929 930 931 932 933 934 935 936 937 938 939 940 941 942 943 944 945 946 947 948 949 950 951 952 953 954 955 956 957 958 959 960 0
h -921 1 0
h -921 441 0
h 921 -1 -441 0
h -922 2 0
h -922 452 0
h 922 -2 -452 0
h -923 3 0
h -923 463 0
h 923 -3 -463 0
h -924 4 0
h -924 474 0
h 924 -4 -474 0
h -925 5 0
h -925 485 0
h 925 -5 -485 0
h -926 6 0
h -926 496 0
h 926 -6 -496 0
h -927 7 0
h -927 507 0
h 927 -7 -507 0
h -928 8 0
h -928 518 0
h 928 -8 -518 0
h -929 9 0
h -929 529 0
h 929 -9 -529 0
h -930 10 0
h -930 540 0
h 930 -10 -540 0
h -931 11 0
h -931 551 0
h 931 -11 -551 0
h -932 12 0
h -932 562 0
h 932 -12 -562 0
h -933 13 0
h -933 573 0
h 933 -13 -573 0
h -934 14 0
h -934 584 0
h 934 -14 -584 0
h -935 15 0
h -935 595 0
h 935 -15 -595 0
h -936 16 0
h -936 606 0
h 936 -16 -606 0
h -937 17 0
h -937 617 0
h 937 -17 -617 0
h -938 18 0
h -938 628 0
h 938 -18 -628 0
h -939 19 0
h -939 639 0
h 939 -19 -639 0
h -940 20 0
h -940 650 0
h 940 -20 -650 0
h -941 21 0
h -941 661 0
h 941 -21 -661 0
h -942 22 0
h -942 672 0
h 942 -22 -672 0
h -943 23 0
h -943 683 0
h 943 -23 -683 0
h -944 24 0
h -944 694 0
h 944 -24 -694 0
h -945 25 0
h -945 705 0
h 945 -25 -705 0
h -946 26 0
h -946 716 0
h 946 -26 -716 0
h -947 27 0
h -947 727 0
h 947 -27 -727 0
h -948 28 0
h -948 738 0
h 948 -28 -738 0
h -949 29 0
h -949 749 0
h 949 -29 -749 0
h -950 30 0
h -950 760 0
h 950 -30 -760 0
h -951 31 0
h -951 771 0
h 951 -31 -771 0
h -952 32 0
h -952 782 0
h 952 -32 -782 0
h -953 33 0
h -953 793 0
h 953 -33 -793 0
h -954 34 0
h -954 804 0
h 954 -34 -804 0
h -955 35 0
h -955 815 0
h 955 -35 -815 0
h -956 36 0
h -956 826 0
h 956 -36 -826 0
h -957 37 0
h -957 837 0
h 957 -37 -837 0
h -958 38 0
h -958 848 0
h 958 -38 -848 0
h -959 39 0
h -959 859 0
h 959 -39 -859 0
h -960 40 0
h -960 870 0
h 960 -40 -870 0
h 961 962 963 964 965 966 967 968 969 970 971 972 973 974 975 976 977 978 979 980 981 982 983 984 985 986 987 988 989 990 991 992 993 994 995 996 997 998 999 1000 0
h -961 1 0
h -961 442 0
h 961 -1 -442 0
h -962 2 0
h -962 453 0
h 962 -2 -453 0
h -963 3 0
h -963 464 0
h 963 -3 -464 0
h -964 4 0
h -964 475 0
h 964 -4 -475 0
h -965 5 0
h -965 486 0
h 965 -5 -486 0
h -966 6 0
h -966 497 0
h 966 -6 -497 0
h -967 7 0
h -967 508 0
h 967 -7 -508 0
h -968 8 0
h -968 519 0
h 968 -8 -519 0
h -969 9 0
h -969 530 0
h 969 -9 -530 0
h -970 10 0
h -970 541 0
h 970 -10 -541 0
h -971 11 0
h -971 552 0
h 971 -11 -552 0
h -972 12 0
h -972 563 0
h 972 -12 -563 0
h -973 13 0
h -973 574 0
h 973 -13 -574 0
h -974 14 0
h -974 585 0
h 974 -14 -585 0
h -975 15 0
h -975 596 0
h 975 -15 -596 0
h -976 16 0
h -976 607 0
h 976 -16 -607 0
h -977 17 0
h -977 618 0
h 977 -17 -618 0
h -978 18 0
h -978 629 0
h 978 -18 -629 0
h -979 19 0
h -979 640 0
h 979 -19 -640 0
h -980 20 0
h -980 651 0
h 980 -20 -651 0
h -981 21 0
h -981 662 0
h 981 -21 -662 0
h -982 22 0
h -982 673 0
h 982 -22 -673 0
h -983 23 0
h -983 684 0
h 983 -23 -684 0
h -984 24 0
h -984 695 0
h 984 -24 -695 0
h -985 25 0
h -985 706 0
h 985 -25 -706 0
h -986 26 0
h -986 717 0
h 986 -26 -717 0
h -987 27 0
h -987 728 0
h 987 -27 -728 0
h -988 28 0
h -988 739 0
h 988 -28 -739 0
h -989 29 0
h -989 750 0
h 989 -29 -750 0
h -990 30 0
h -990 761 0
h 990 -30 -761 0
h -991 31 0
h -991 772 0
h 991 -31 -772 0
h -992 32 0
h -992 783 0
h 992 -32 -783 0
h -993 33 0
h -993 794 0
h 993 -33 -794 0
h -994 34 0
h -994 805 0
h 994 -34 -805 0
h -995 35 0
h -995 816 0
h 995 -35 -816 0
h -996 36 0
h -996 827 0
h 996 -36 -827 0
h -997 37 0
h -997 838 0
h 997 -37 -838 0
h -998 38 0
h -998 849 0
h 998 -38 -849 0
h -999 39 0
h -999 860 0
h 999 -39 -860 0
h -1000 40 0
h -1000 871 0
h 1000 -40 -871 0
h 1001 1002 1003 1004 1005 1006 1007 1008 1009 1010 1011 1012 1013 1014 1015 1016 1017 1018 1019 1020 1021 1022 1023 1024 1025 1026 1027 1028 1029 1030 1031 1032 1033 1034 1035 1036 1037 1038 1039 1040 0
h -1001 1 0
h -1001 443 0
h 1001 -1 -443 0
h -1002 2 0
h -1002 454 0
h 1002 -2 -454 0
h -1003 3 0
h -1003 465 0
h 1003 -3 -465 0
h -1004 4 0
h -1004 476 0
h 1004 -4 -476 0
h -1005 5 0
h -1005 487 0
h 1005 -5 -487 0
h -1006 6 0
h -1006 498 0
h 1006 -6 -498 0
h -1007 7 0
h -1007 509 0
h 1007 -7 -509 0
h -1008 8 0
h -1008 520 0
h 1008 -8 -520 0
h -1009 9 0
h -1009 531 0
h 1009 -9 -531 0
h -1010 10 0
h -1010 542 0
h 1010 -10 -542 0
h -1011 11 0
h -1011 553 0
h 1011 -11 -553 0
h -1012 12 0
h -1012 564 0
h 1012 -12 -564 0
h -1013 13 0
h -1013 575 0
h 1013 -13 -575 0
h -1014 14 0
h -1014 586 0
h 1014 -14 -586 0
h -1015 15 0
h -1015 597 0
h 1015 -15 -597 0
h -1016 16 0
h -1016 608 0
h 1016 -16 -608 0
h -1017 17 0
h -1017 619 0
h 1017 -17 -619 0
h -1018 18 0
h -1018 630 0
h 1018 -18 -630 0
h -1019 19 0
h -1019 641 0
h 1019 -19 -641 0
h -1020 20 0
h -1020 652 0
h 1020 -20 -652 0
h -1021 21 0
h -1021 663 0
h 1021 -21 -663 0
h -1022 22 0
h -1022 674 0
h 1022 -22 -674 0
h -1023 23 0
h -1023 685 0
h 1023 -23 -685 0
h -1024 24 0
h -1024 696 0
h 1024 -24 -696 0
h -1025 25 0
h -1025 707 0
h 1025 -25 -707 0
h -1026 26 0
h -1026 718 0
h 1026 -26 -718 0
h -1027 27 0
h -1027 729 0
h 1027 -27 -729 0
h -1028 28 0
h -1028 740 0
h 1028 -28 -740 0
h -1029 29 0
h -1029 751 0
h 1029 -29 -751 0
h -1030 30 0
h -1030 762 0
h 1030 -30 -762 0
h -1031 31 0
h -1031 773 0
h 1031 -31 -773 0
h -1032 32 0
h -1032 784 0
h 1032 -32 -784 0
h -1033 33 0
h -1033 795 0
h 1033 -33 -795 0
h -1034 34 0
h -1034 806 0
h 1034 -34 -806 0
h -1035 35 0
h -1035 817 0
h 1035 -35 -817 0
h -1036 36 0
h -1036 828 0
h 1036 -36 -828 0
h -1037 37 0
h -1037 839 0
h 1037 -37 -839 0
h -1038 38 0
h -1038 850 0
h 1038 -38 -850 0
h -1039 39 0
h -1039 861 0
h 1039 -39 -861 0
h -1040 40 0
h -1040 872 0
h 1040 -40 -872 0
h 1041 1042 1043 1044 1045 1046 1047 1048 1049 1050 1051 1052 1053 1054 1055 1056 1057 1058 1059 1060 1061 1062 1063 1064 1065 1066 1067 1068 1069 1070 1071 1072 1073 1074 1075 1076 1077 1078 1079 1080 0
h -1041 1 0
h -1041 444 0
h 1041 -1 -444 0
h -1042 2 0
h -1042 455 0
h 1042 -2 -455 0
h -1043 3 0
h -1043 466 0
h 1043 -3 -466 0
h -1044 4 0
h -1044 477 0
h 1044 -4 -477 0
h -1045 5 0
h -1045 488 0
h 1045 -5 -488 0
h -1046 6 0
h -1046 499 0
h 1046 -6 -499 0
h -1047 7 0
h -1047 510 0
h 1047 -7 -510 0
h -1048 8 0
h -1048 521 0
h 1048 -8 -521 0
h -1049 9 0
h -1049 532 0
h 1049 -9 -532 0
h -1050 10 0
h -1050 543 0
h 1050 -10 -543 0
h -1051 11 0
h -1051 554 0
h 1051 -11 -554 0
h -1052 12 0
h -1052 565 0
h 1052 -12 -565 0
h -1053 13 0
h -1053 576 0
h 1053 -13 -576 0
h -1054 14 0
h -1054 587 0
h 1054 -14 -587 0
h -1055 15 0
h -1055 598 0
h 1055 -15 -598 0
h -1056 16 0
h -1056 609 0
h 1056 -16 -609 0
h -1057 17 0
h -1057 620 0
h 1057 -17 -620 0
h -1058 18 0
h -1058 631 0
h 1058 -18 -631 0
h -1059 19 0
h -1059 642 0
h 1059 -19 -642 0
h -1060 20 0
h -1060 653 0
h 1060 -20 -653 0
h -1061 21 0
h -1061 664 0
h 1061 -21 -664 0
h -1062 22 0
h -1062 675 0
h 1062 -22 -675 0
h -1063 23 0
h -1063 686 0
h 1063 -23 -686 0
h -1064 24 0
h -1064 697 0
h 1064 -24 -697 0
h -1065 25 0
h -1065 708 0
h 1065 -25 -708 0
h -1066 26 0
h -1066 719 0
h 1066 -26 -719 0
h -1067 27 0
h -1067 730 0
h 1067 -27 -730 0
h -1068 28 0
h -1068 741 0
h 1068 -28 -741 0
h -1069 29 0
h -1069 752 0
h 1069 -29 -752 0
h -1070 30 0
h -1070 763 0
h 1070 -30 -763 0
h -1071 31 0
h -1071 774 0
h 1071 -31 -774 0
h -1072 32 0
h -1072 785 0
h 1072 -32 -785 0
h -1073 33 0
h -1073 796 0
h 1073 -33 -796 0
h -1074 34 0
h -1074 807 0
h 1074 -34 -807 0
h -1075 35 0
h -1075 818 0
h 1075 -35 -818 0
h -1076 36 0
h -1076 829 0
h 1076 -36 -829 0
h -1077 37 0
h -1077 840 0
h 1077 -37 -840 0
h -1078 38 0
h -1078 851 0
h 1078 -38 -851 0
h -1079 39 0
h -1079 862 0
h 1079 -39 -862 0
h -1080 40 0
h -1080 873 0
h 1080 -40 -873 0
h 1081 1082 1083 1084 1085 1086 1087 1088 1089 1090 1091 1092 1093 1094 1095 1096 1097 1098 1099 1100 1101 1102 1103 1104 1105 1106 1107 1108 1109 1110 1111 1112 1113 1114 1115 1116 1117 1118 1119 1120 0
h -1081 1 0
h -1081 445 0
h 1081 -1 -445 0
h -1082 2 0
h -1082 456 0
h 1082 -2 -456 0
h -1083 3 0
h -1083 467 0
h 1083 -3 -467 0
h -1084 4 0
h -1084 478 0
h 1084 -4 -478 0
h -1085 5 0
h -1085 489 0
h 1085 -5 -489 0
h -1086 6 0
h -1086 500 0
h 1086 -6 -500 0
h -1087 7 0
h -1087 511 0
h 1087 -7 -511 0
h -1088 8 0
h -1088 522 0
h 1088 -8 -522 0
h -1089 9 0
h -1089 533 0
h 1089 -9 -533 0
h -1090 10 0
h -1090 544 0
h 1090 -10 -544 0
h -1091 11 0
h -1091 555 0
h 1091 -11 -555 0
h -1092 12 0
h -1092 566 0
h 1092 -12 -566 0
h -1093 13 0
h -1093 577 0
h 1093 -13 -577 0
h -1094 14 0
h -1094 588 0
h 1094 -14 -588 0
h -1095 15 0
h -1095 599 0
h 1095 -15 -599 0
h -1096 16 0
h -1096 610 0
h 1096 -16 -610 0
h -1097 17 0
h -1097 621 0
h 1097 -17 -621 0
h -1098 18 0
h -1098 632 0
h 1098 -18 -632 0
h -1099 19 0
h -1099 643 0
h 1099 -19 -643 0
h -1100 20 0
h -1100 654 0
h 1100 -20 -654 0
h -1101 21 0
h -1101 665 0
h 1101 -21 -665 0
h -1102 22 0
h -1102 676 0
h 1102 -22 -676 0
h -1103 23 0
h -1103 687 0
h 1103 -23 -687 0
h -1104 24 0
h -1104 698 0
h 1104 -24 -698 0
h -1105 25 0
h -1105 709 0
h 1105 -25 -709 0
h -1106 26 0
h -1106 720 0
h 1106 -26 -720 0
h -1107 27 0
h -1107 731 0
h 1107 -27 -731 0
h -1108 28 0
h -1108 742 0
h 1108 -28 -742 0
h -1109 29 0
h -1109 753 0
h 1109 -29 -753 0
h -1110 30 0
h -1110 764 0
h 1110 -30 -764 0
h -1111 31 0
h -1111 775 0
h 1111 -31 -775 0
h -1112 32 0
h -1112 786 0
h 1112 -32 -786 0
h -1113 33 0
h -1113 797 0
h 1113 -33 -797 0
h -1114 34 0
h -1114 808 0
h 1114 -34 -808 0
h -1115 35 0
h -1115 819 0
h 1115 -35 -819 0
h -1116 36 0
h -1116 830 0
h 1116 -36 -830 0
h -1117 37 0
h -1117 841 0
h 1117 -37 -841 0
h -1118 38 0
h -1118 852 0
h 1118 -38 -852 0
h -1119 39 0
h -1119 863 0
h 1119 -39 -863 0
h -1120 40 0
h -1120 874 0
h 1120 -40 -874 0
h 1121 1122 1123 1124 1125 1126 1127 1128 1129 1130 1131 1132 1133 1134 1135 1136 1137 1138 1139 1140 1141 1142 1143 1144 1145 1146 1147 1148 1149 1150 1151 1152 1153 1154 1155 1156 1157 1158 1159 1160 0
h -1121 1 0
h -1121 446 0
h 1121 -1 -446 0
h -1122 2 0
h -1122 457 0
h 1122 -2 -457 0
h -1123 3 0
h -1123 468 0
h 1123 -3 -468 0
h -1124 4 0
h -1124 479 0
h 1124 -4 -479 0
h -1125 5 0
h -1125 490 0
h 1125 -5 -490 0
h -1126 6 0
h -1126 501 0
h 1126 -6 -501 0
h -1127 7 0
h -1127 512 0
h 1127 -7 -512 0
h -1128 8 0
h -1128 523 0
h 1128 -8 -523 0
h -1129 9 0
h -1129 534 0
h 1129 -9 -534 0
h -1130 10 0
h -1130 545 0
h 1130 -10 -545 0
h -1131 11 0
h -1131 556 0
h 1131 -11 -556 0
h -1132 12 0
h -1132 567 0
h 1132 -12 -567 0
h -1133 13 0
h -1133 578 0
h 1133 -13 -578 0
h -1134 14 0
h -1134 589 0
h 1134 -14 -589 0
h -1135 15 0
h -1135 600 0
h 1135 -15 -600 0
h -1136 16 0
h -1136 611 0
h 1136 -16 -611 0
h -1137 17 0
h -1137 622 0
h 1137 -17 -622 0
h -1138 18 0
h -1138 633 0
h 1138 -18 -633 0
h -1139 19 0
h -1139 644 0
h 1139 -19 -644 0
h -1140 20 0
h -1140 655 0
h 1140 -20 -655 0
h -1141 21 0
h -1141 666 0
h 1141 -21 -666 0
h -1142 22 0
h -1142 677 0
h 1142 -22 -677 0
h -1143 23 0
h -1143 688 0
h 1143 -23 -688 0
h -1144 24 0
h -1144 699 0
h 1144 -24 -699 0
h -1145 25 0
h -1145 710 0
h 1145 -25 -710 0
h -1146 26 0
h -1146 721 0
h 1146 -26 -721 0
h -1147 27 0
h -1147 732 0
h 1147 -27 -732 0
h -1148 28 0
h -1148 743 0
h 1148 -28 -743 0
h -1149 29 0
h -1149 754 0
h 1149 -29 -754 0
h -1150 30 0
h -1150 765 0
h 1150 -30 -765 0
h -1151 31 0
h -1151 776 0
h 1151 -31 -776 0
h -1152 32 0
h -1152 787 0
h 1152 -32 -787 0
h -1153 33 0
h -1153 798 0
h 1153 -33 -798 0
h -1154 34 0
h -1154 809 0
h 1154 -34 -809 0
h -1155 35 0
h -1155 820 0
h 1155 -35 -820 0
h -1156 36 0
h -1156 831 0
h 1156 -36 -831 0
h -1157 37 0
h -1157 842 0
h 1157 -37 -842 0
h -1158 38 0
h -1158 853 0
h 1158 -38 -853 0
h -1159 39 0
h -1159 864 0
h 1159 -39 -864 0
h -1160 40 0
h -1160 875 0
h 1160 -40 -875 0
h -1 -447 0
h -2 -458 0
h -3 -469 0
h -4 -480 0
h -5 -491 0
h -6 -502 0
h -7 -513 0
h -8 -524 0
h -9 -535 0
h -10 -546 0
h -11 -557 0
h -12 -568 0
h -13 -579 0
h -14 -590 0
h -15 -601 0
h -16 -612 0
h -17 -623 0
h -18 -634 0
h -19 -645 0
h -20 -656 0
h -21 -667 0
h -22 -678 0
h -23 -689 0
h -24 -700 0
h -25 -711 0
h -26 -722 0
h -27 -733 0
h -28 -744 0
h -29 -755 0
h -30 -766 0
h -31 -777 0
h -32 -788 0
h -33 -799 0
h -34 -810 0
h -35 -821 0
h -36 -832 0
h -37 -843 0
h -38 -854 0
h -39 -865 0
h -40 -876 0
h -1 -448 0
h -2 -459 0
h -3 -470 0
h -4 -481 0
h -5 -492 0
h -6 -503 0
h -7 -514 0
h -8 -525 0
h -9 -536 0
h -10 -547 0
h -11 -558 0
h -12 -569 0
h -13 -580 0
h -14 -591 0
h -15 -602 0
h -16 -613 0
h -17 -624 0
h -18 -635 0
h -19 -646 0
h -20 -657 0
h -21 -668 0
h -22 -679 0
h -23 -690 0
h -24 -701 0
h -25 -712 0
h -26 -723 0
h -27 -734 0
h -28 -745 0
h -29 -756 0
h -30 -767 0
h -31 -778 0
h -32 -789 0
h -33 -800 0
h -34 -811 0
h -35 -822 0
h -36 -833 0
h -37 -844 0
h -38 -855 0
h -39 -866 0
h -40 -877 0
h -1 -449 0
h -2 -460 0
h -3 -471 0
h -4 -482 0
h -5 -493 0
h -6 -504 0
h -7 -515 0
h -8 -526 0
h -9 -537 0
h -10 -548 0
h -11 -559 0
h -12 -570 0
h -13 -581 0
h -14 -592 0
h -15 -603 0
h -16 -614 0
h -17 -625 0
h -18 -636 0
h -19 -647 0
h -20 -658 0
h -21 -669 0
h -22 -680 0
h -23 -691 0
h -24 -702 0
h -25 -713 0
h -26 -724 0
h -27 -735 0
h -28 -746 0
h -29 -757 0
h -30 -768 0
h -31 -779 0
h -32 -790 0
h -33 -801 0
h -34 -812 0
h -35 -823 0
h -36 -834 0
h -37 -845 0
h -38 -856 0
h -39 -867 0
h -40 -878 0
h -1 -450 0
h -2 -461 0
h -3 -472 0
h -4 -483 0
h -5 -494 0
h -6 -505 0
h -7 -516 0
h -8 -527 0
h -9 -538 0
h -10 -549 0
h -11 -560 0
h -12 -571 0
h -13 -582 0
h -14 -593 0
h -15 -604 0
h -16 -615 0
h -17 -626 0
h -18 -637 0
h -19 -648 0
h -20 -659 0
h -21 -670 0
h -22 -681 0
h -23 -692 0
h -24 -703 0
h -25 -714 0
h -26 -725 0
h -27 -736 0
h -28 -747 0
h -29 -758 0
h -30 -769 0
h -31 -780 0
h -32 -791 0
h -33 -802 0
h -34 -813 0
h -35 -824 0
h -36 -835 0
h -37 -846 0
h -38 -857 0
h -39 -868 0
h -40 -879 0
h -1 -451 0
h -2 -462 0
h -3 -473 0
h -4 -484 0
h -5 -495 0
h -6 -506 0
h -7 -517 0
h -8 -528 0
h -9 -539 0
h -10 -550 0
h -11 -561 0
h -12 -572 0
h -13 -583 0
h -14 -594 0
h -15 -605 0
h -16 -616 0
h -17 -627 0
h -18 -638 0
h -19 -649 0
h -20 -660 0
h -21 -671 0
h -22 -682 0
h -23 -693 0
h -24 -704 0
h -25 -715 0
h -26 -726 0
h -27 -737 0
h -28 -748 0
h -29 -759 0
h -30 -770 0
h -31 -781 0
h -32 -792 0
h -33 -803 0
h -34 -814 0
h -35 -825 0
h -36 -836 0
h -37 -847 0
h -38 -858 0
h -39 -869 0
h -40 -880 0
h -41 -441 0
h -42 -452 0
h -43 -463 0
h -44 -474 0
h -45 -485 0
h -46 -496 0
h -47 -507 0
h -48 -518 0
h -49 -529 0
h -50 -540 0
h -51 -551 0
h -52 -562 0
h -53 -573 0
h -54 -584 0
h -55 -595 0
h -56 -606 0
h -57 -617 0
h -58 -628 0
h -59 -639 0
h -60 -650 0
h -61 -661 0
h -62 -672 0
h -63 -683 0
h -64 -694 0
h -65 -705 0
h -66 -716 0
h -67 -727 0
h -68 -738 0
h -69 -749 0
h -70 -760 0
h -71 -771 0
h -72 -782 0
h -73 -793 0
h -74 -804 0
h -75 -815 0
h -76 -826 0
h -77 -837 0
h -78 -848 0
h -79 -859 0
h -80 -870 0
h -41 -442 0
h -42 -453 0
h -43 -464 0
h -44 -475 0
h -45 -486 0
h -46 -497 0
h -47 -508 0
h -48 -519 0
h -49 -530 0
h -50 -541 0
h -51 -552 0
h -52 -563 0
h -53 -574 0
h -54 -585 0
h -55 -596 0
h -56 -607 0
h -57 -618 0
h -58 -629 0
h -59 -640 0
h -60 -651 0
h -61 -662 0
h -62 -673 0
h -63 -684 0
h -64 -695 0
h -65 -706 0
h -66 -717 0
h -67 -728 0
h -68 -739 0
h -69 -750 0
h -70 -761 0
h -71 -772 0
h -72 -783 0
h -73 -794 0
h -74 -805 0
h -75 -816 0
h -76 -827 0
h -77 -838 0
h -78 -849 0
h -79 -860 0
h -80 -871 0
h -41 -443 0
h -42 -454 0
h -43 -465 0
h -44 -476 0
h -45 -487 0
h -46 -498 0
h -47 -509 0
h -48 -520 0
h -49 -531 0
h -50 -542 0
h -51 -553 0
h -52 -564 0
h -53 -575 0
h -54 -586 0
h -55 -597 0
h -56 -608 0
h -57 -619 0
h -58 -630 0
h -59 -641 0
h -60 -652 0
h -61 -663 0
h -62 -674 0
h -63 -685 0
h -64 -696 0
h -65 -707 0
h -66 -718 0
h -67 -729 0
h -68 -740 0
h -69 -751 0
h -70 -762 0
h -71 -773 0
h -72 -784 0
h -73 -795 0
h -74 -806 0
h -75 -817 0
h -76 -828 0
h -77 -839 0
h -78 -850 0
h -79 -861 0
h -80 -872 0
h -41 -444 0
h -42 -455 0
h -43 -466 0
h -44 -477 0
h -45 -488 0
h -46 -499 0
h -47 -510 0
h -48 -521 0
h -49 -532 0
h -50 -543 0
h -51 -554 0
h -52 -565 0
h -53 -576 0
h -54 -587 0
h -55 -598 0
h -56 -609 0
h -57 -620 0
h -58 -631 0
h -59 -642 0
h -60 -653 0
h -61 -664 0
h -62 -675 0
h -63 -686 0
h -64 -697 0
h -65 -708 0
h -66 -719 0
h -67 -730 0
h -68 -741 0
h -69 -752 0
h -70 -763 0
h -71 -774 0
h -72 -785 0
h -73 -796 0
h -74 -807 0
h -75 -818 0
h -76 -829 0
h -77 -840 0
h -78 -851 0
h -79 -862 0
h -80 -873 0
h -41 -445 0
h -42 -456 0
h -43 -467 0
h -44 -478 0
h -45 -489 0
h -46 -500 0
h -47 -511 0
h -48 -522 0
h -49 -533 0
h -50 -544 0
h -51 -555 0
h -52 -566 0
h -53 -577 0
h -54 -588 0
h -55 -599 0
h -56 -610 0
h -57 -621 0
h -58 -632 0
h -59 -643 0
h -60 -654 0
h -61 -665 0
h -62 -676 0
h -63 -687 0
h -64 -698 0
h -65 -709 0
h -66 -720 0
h -67 -731 0
h -68 -742 0
h -69 -753 0
h -70 -764 0
h -71 -775 0
h -72 -786 0
h -73 -797 0
h -74 -808 0
h -75 -819 0
h -76 -830 0
h -77 -841 0
h -78 -852 0
h -79 -863 0
h -80 -874 0
h -41 -446 0
h -42 -457 0
h -43 -468 0
h -44 -479 0
h -45 -490 0
h -46 -501 0
h -47 -512 0
h -48 -523 0
h -49 -534 0
h -50 -545 0
h -51 -556 0
h -52 -567 0
h -53 -578 0
h -54 -589 0
h -55 -600 0
h -56 -611 0
h -57 -622 0
h -58 -633 0
h -59 -644 0
h -60 -655 0
h -61 -666 0
h -62 -677 0
h -63 -688 0
h -64 -699 0
h -65 -710 0
h -66 -721 0
h -67 -732 0
h -68 -743 0
h -69 -754 0
h -70 -765 0
h -71 -776 0
h -72 -787 0
h -73 -798 0
h -74 -809 0
h -75 -820 0
h -76 -831 0
h -77 -842 0
h -78 -853 0
h -79 -864 0
h -80 -875 0
h -41 -447 0
h -42 -458 0
h -43 -469 0
h -44 -480 0
h -45 -491 0
h -46 -502 0
h -47 -513 0
h -48 -524 0
h -49 -535 0
h -50 -546 0
h -51 -557 0
h -52 -568 0
h -53 -579 0
h -54 -590 0
h -55 -601 0
h -56 -612 0
h -57 -623 0
h -58 -634 0
h -59 -645 0
h -60 -656 0
h -61 -667 0
h -62 -678 0
h -63 -689 0
h -64 -700 0
h -65 -711 0
h -66 -722 0
h -67 -733 0
h -68 -744 0
h -69 -755 0
h -70 -766 0
h -71 -777 0
h -72 -788 0
h -73 -799 0
h -74 -810 0
h -75 -821 0
h -76 -832 0
h -77 -843 0
h -78 -854 0
h -79 -865 0
h -80 -876 0
h -41 -448 0
h -42 -459 0
h -43 -470 0
h -44 -481 0
h -45 -492 0
h -46 -503 0
h -47 -514 0
h -48 -525 0
h -49 -536 0
h -50 -547 0
h -51 -558 0
h -52 -569 0
h -53 -580 0
h -54 -591 0
h -55 -602 0
h -56 -613 0
h -57 -624 0
h -58 -635 0
h -59 -646 0
h -60 -657 0
h -61 -668 0
h -62 -679 0
h -63 -690 0
h -64 -701 0
h -65 -712 0
h -66 -723 0
h -67 -734 0
h -68 -745 0
h -69 -756 0
h -70 -767 0
h -71 -778 0
h -72 -789 0
h -73 -800 0
h -74 -811 0
h -75 -822 0
h -76 -833 0
h -77 -844 0
h -78 -855 0
h -79 -866 0
h -80 -877 0
h -41 -449 0
h -42 -460 0
h -43 -471 0
h -44 -482 0
h -45 -493 0
h -46 -504 0
h -47 -515 0
h -48 -526 0
h -49 -537 0
h -50 -548 0
h -51 -559 0
h -52 -570 0
h -53 -581 0
h -54 -592 0
h -55 -603 0
h -56 -614 0
h -57 -625 0
h -58 -636 0
h -59 -647 0
h -60 -658 0
h -61 -669 0
h -62 -680 0
h -63 -691 0
h -64 -702 0
h -65 -713 0
h -66 -724 0
h -67 -735 0
h -68 -746 0
h -69 -757 0
h -70 -768 0
h -71 -779 0
h -72 -790 0
h -73 -801 0
h -74 -812 0
h -75 -823 0
h -76 -834 0
h -77 -845 0
h -78 -856 0
h -79 -867 0
h -80 -878 0
h -41 -450 0
h -42 -461 0
h -43 -472 0
h -44 -483 0
h -45 -494 0
h -46 -505 0
h -47 -516 0
h -48 -527 0
h -49 -538 0
h -50 -549 0
h -51 -560 0
h -52 -571 0
h -53 -582 0
h -54 -593 0
h -55 -604 0
h -56 -615 0
h -57 -626 0
h -58 -637 0
h -59 -648 0
h -60 -659 0
h -61 -670 0
h -62 -681 0
h -63 -692 0
h -64 -703 0
h -65 -714 0
h -66 -725 0
h -67 -736 0
h -68 -747 0
h -69 -758 0
h -70 -769 0
h -71 -780 0
h -72 -791 0
h -73 -802 0
h -74 -813 0
h -75 -824 0
h -76 -835 0
h -77 -846 0
h -78 -857 0
h -79 -868 0
h -80 -879 0
h -41 -451 0
h -42 -462 0
h -43 -473 0
h -44 -484 0
h -45 -495 0
h -46 -506 0
h -47 -517 0
h -48 -528 0
h -49 -539 0
h -50 -550 0
h -51 -561 0
h -52 -572 0
h -53 -583 0
h -54 -594 0
h -55 -605 0
h -56 -616 0
h -57 -627 0
h -58 -638 0
h -59 -649 0
h -60 -660 0
h -61 -671 0
h -62 -682 0
h -63 -693 0
h -64 -704 0
h -65 -715 0
h -66 -726 0
h -67 -737 0
h -68 -748 0
h -69 -759 0
h -70 -770 0
h -71 -781 0
h -72 -792 0
h -73 -803 0
h -74 -814 0
h -75 -825 0
h -76 -836 0
h -77 -847 0
h -78 -858 0
h -79 -869 0
h -80 -880 0
h -81 -441 0
h -82 -452 0
h -83 -463 0
h -84 -474 0
h -85 -485 0
h -86 -496 0
h -87 -507 0
h -88 -518 0
h -89 -529 0
h -90 -540 0
h -91 -551 0
h -92 -562 0
h -93 -573 0
h -94 -584 0
h -95 -595 0
h -96 -606 0
h -97 -617 0
h -98 -628 0
h -99 -639 0
h -100 -650 0
h -101 -661 0
h -102 -672 0
h -103 -683 0
h -104 -694 0
h -105 -705 0
h -106 -716 0
h -107 -727 0
h -108 -738 0
h -109 -749 0
h -110 -760 0
h -111 -771 0
h -112 -782 0
h -113 -793 0
h -114 -804 0
h -115 -815 0
h -116 -826 0
h -117 -837 0
h -118 -848 0
h -119 -859 0
h -120 -870 0
h -81 -442 0
h -82 -453 0
h -83 -464 0
h -84 -475 0
h -85 -486 0
h -86 -497 0
h -87 -508 0
h -88 -519 0
h -89 -530 0
h -90 -541 0
h -91 -552 0
h -92 -563 0
h -93 -574 0
h -94 -585 0
h -95 -596 0
h -96 -607 0
h -97 -618 0
h -98 -629 0
h -99 -640 0
h -100 -651 0
h -101 -662 0
h -102 -673 0
h -103 -684 0
h -104 -695 0
h -105 -706 0
h -106 -717 0
h -107 -728 0
h -108 -739 0
h -109 -750 0
h -110 -761 0
h -111 -772 0
h -112 -783 0
h -113 -794 0
h -114 -805 0
h -115 -816 0
h -116 -827 0
h -117 -838 0
h -118 -849 0
h -119 -860 0
h -120 -871 0
h -81 -443 0
h -82 -454 0
h -83 -465 0
h -84 -476 0
h -85 -487 0
h -86 -498 0
h -87 -509 0
h -88 -520 0
h -89 -531 0
h -90 -542 0
h -91 -553 0
h -92 -564 0
h -93 -575 0
h -94 -586 0
h -95 -597 0
h -96 -608 0
h -97 -619 0
h -98 -630 0
h -99 -641 0
h -100 -652 0
h -101 -663 0
h -102 -674 0
h -103 -685 0
h -104 -696 0
h -105 -707 0
h -106 -718 0
h -107 -729 0
h -108 -740 0
h -109 -751 0
h -110 -762 0
h -111 -773 0
h -112 -784 0
h -113 -795 0
h -114 -806 0
h -115 -817 0
h -116 -828 0
h -117 -839 0
h -118 -850 0
h -119 -861 0
h -120 -872 0
h 1161 1162 1163 1164 1165 1166 1167 1168 1169 1170 1171 1172 1173 1174 1175 1176 1177 1178 1179 1180 1181 1182 1183 1184 1185 1186 1187 1188 1189 1190 1191 1192 1193 1194 1195 1196 1197 1198 1199 1200 0
h -1161 81 0
h -1161 444 0
h 1161 -81 -444 0
h -1162 82 0
h -1162 455 0
h 1162 -82 -455 0
h -1163 83 0
h -1163 466 0
h 1163 -83 -466 0
h -1164 84 0
h -1164 477 0
h 1164 -84 -477 0
h -1165 85 0
h -1165 488 0
h 1165 -85 -488 0
h -1166 86 0
h -1166 499 0
h 1166 -86 -499 0
h -1167 87 0
h -1167 510 0
h 1167 -87 -510 0
h -1168 88 0
h -1168 521 0
h 1168 -88 -521 0
h -1169 89 0
h -1169 532 0
h 1169 -89 -532 0
h -1170 90 0
h -1170 543 0
h 1170 -90 -543 0
h -1171 91 0
h -1171 554 0
h 1171 -91 -554 0
h -1172 92 0
h -1172 565 0
h 1172 -92 -565 0
h -1173 93 0
h -1173 576 0
h 1173 -93 -576 0
h -1174 94 0
h -1174 587 0
h 1174 -94 -587 0
h -1175 95 0
h -1175 598 0
h 1175 -95 -598 0
h -1176 96 0
h -1176 609 0
h 1176 -96 -609 0
h -1177 97 0
h -1177 620 0
h 1177 -97 -620 0
h -1178 98 0
h -1178 631 0
h 1178 -98 -631 0
h -1179 99 0
h -1179 642 0
h 1179 -99 -642 0
h -1180 100 0
h -1180 653 0
h 1180 -100 -653 0
h -1181 101 0
h -1181 664 0
h 1181 -101 -664 0
h -1182 102 0
h -1182 675 0
h 1182 -102 -675 0
h -1183 103 0
h -1183 686 0
h 1183 -103 -686 0
h -1184 104 0
h -1184 697 0
h 1184 -104 -697 0
h -1185 105 0
h -1185 708 0
h 1185 -105 -708 0
h -1186 106 0
h -1186 719 0
h 1186 -106 -719 0
h -1187 107 0
h -1187 730 0
h 1187 -107 -730 0
h -1188 108 0
h -1188 741 0
h 1188 -108 -741 0
h -1189 109 0
h -1189 752 0
h 1189 -109 -752 0
h -1190 110 0
h -1190 763 0
h 1190 -110 -763 0
h -1191 111 0
h -1191 774 0
h 1191 -111 -774 0
h -1192 112 0
h -1192 785 0
h 1192 -112 -785 0
h -1193 113 0
h -1193 796 0
h 1193 -113 -796 0
h -1194 114 0
h -1194 807 0
h 1194 -114 -807 0
h -1195 115 0
h -1195 818 0
h 1195 -115 -818 0
h -1196 116 0
h -1196 829 0
h 1196 -116 -829 0
h -1197 117 0
h -1197 840 0
h 1197 -117 -840 0
h -1198 118 0
h -1198 851 0
h 1198 -118 -851 0
h -1199 119 0
h -1199 862 0
h 1199 -119 -862 0
h -1200 120 0
h -1200 873 0
h 1200 -120 -873 0
h 1201 1202 1203 1204 1205 1206 1207 1208 1209 1210 1211 1212 1213 1214 1215 1216 1217 1218 1219 1220 1221 1222 1223 1224 1225 1226 1227 1228 1229 1230 1231 1232 1233 1234 1235 1236 1237 1238 1239 1240 0
h -1201 81 0
h -1201 445 0
h 1201 -81 -445 0
h -1202 82 0
h -1202 456 0
h 1202 -82 -456 0
h -1203 83 0
h -1203 467 0
h 1203 -83 -467 0
h -1204 84 0
h -1204 478 0
h 1204 -84 -478 0
h -1205 85 0
h -1205 489 0
h 1205 -85 -489 0
h -1206 86 0
h -1206 500 0
h 1206 -86 -500 0
h -1207 87 0
h -1207 511 0
h 1207 -87 -511 0
h -1208 88 0
h -1208 522 0
h 1208 -88 -522 0
h -1209 89 0
h -1209 533 0
h 1209 -89 -533 0
h -1210 90 0
h -1210 544 0
h 1210 -90 -544 0
h -1211 91 0
h -1211 555 0
h 1211 -91 -555 0
h -1212 92 0
h -1212 566 0
h 1212 -92 -566 0
h -1213 93 0
h -1213 577 0
h 1213 -93 -577 0
h -1214 94 0
h -1214 588 0
h 1214 -94 -588 0
h -1215 95 0
h -1215 599 0
h 1215 -95 -599 0
h -1216 96 0
h -1216 610 0
h 1216 -96 -610 0
h -1217 97 0
h -1217 621 0
h 1217 -97 -621 0
h -1218 98 0
h -1218 632 0
h 1218 -98 -632 0
h -1219 99 0
h -1219 643 0
h 1219 -99 -643 0
h -1220 100 0
h -1220 654 0
h 1220 -100 -654 0
h -1221 101 0
h -1221 665 0
h 1221 -101 -665 0
h -1222 102 0
h -1222 676 0
h 1222 -102 -676 0
h -1223 103 0
h -1223 687 0
h 1223 -103 -687 0
h -1224 104 0
h -1224 698 0
h 1224 -104 -698 0
h -1225 105 0
h -1225 709 0
h 1225 -105 -709 0
h -1226 106 0
h -1226 720 0
h 1226 -106 -720 0
h -1227 107 0
h -1227 731 0
h 1227 -107 -731 0
h -1228 108 0
h -1228 742 0
h 1228 -108 -742 0
h -1229 109 0
h -1229 753 0
h 1229 -109 -753 0
h -1230 110 0
h -1230 764 0
h 1230 -110 -764 0
h -1231 111 0
h -1231 775 0
h 1231 -111 -775 0
h -1232 112 0
h -1232 786 0
h 1232 -112 -786 0
h -1233 113 0
h -1233 797 0
h 1233 -113 -797 0
h -1234 114 0
h -1234 808 0
h 1234 -114 -808 0
h -1235 115 0
h -1235 819 0
h 1235 -115 -819 0
h -1236 116 0
h -1236 830 0
h 1236 -116 -830 0
h -1237 117 0
h -1237 841 0
h 1237 -117 -841 0
h -1238 118 0
h -1238 852 0
h 1238 -118 -852 0
h -1239 119 0
h -1239 863 0
h 1239 -119 -863 0
h -1240 120 0
h -1240 874 0
h 1240 -120 -874 0
h -81 -446 0
h -82 -457 0
h -83 -468 0
h -84 -479 0
h -85 -490 0
h -86 -501 0
h -87 -512 0
h -88 -523 0
h -89 -534 0
h -90 -545 0
h -91 -556 0
h -92 -567 0
h -93 -578 0
h -94 -589 0
h -95 -600 0
h -96 -611 0
h -97 -622 0
h -98 -633 0
h -99 -644 0
h -100 -655 0
h -101 -666 0
h -102 -677 0
h -103 -688 0
h -104 -699 0
h -105 -710 0
h -106 -721 0
h -107 -732 0
h -108 -743 0
h -109 -754 0
h -110 -765 0
h -111 -776 0
h -112 -787 0
h -113 -798 0
h -114 -809 0
h -115 -820 0
h -116 -831 0
h -117 -842 0
h -118 -853 0
h -119 -864 0
h -120 -875 0
h -81 -447 0
h -82 -458 0
h -83 -469 0
h -84 -480 0
h -85 -491 0
h -86 -502 0
h -87 -513 0
h -88 -524 0
h -89 -535 0
h -90 -546 0
h -91 -557 0
h -92 -568 0
h -93 -579 0
h -94 -590 0
h -95 -601 0
h -96 -612 0
h -97 -623 0
h -98 -634 0
h -99 -645 0
h -100 -656 0
h -101 -667 0
h -102 -678 0
h -103 -689 0
h -104 -700 0
h -105 -711 0
h -106 -722 0
h -107 -733 0
h -108 -744 0
h -109 -755 0
h -110 -766 0
h -111 -777 0
h -112 -788 0
h -113 -799 0
h -114 -810 0
h -115 -821 0
h -116 -832 0
h -117 -843 0
h -118 -854 0
h -119 -865 0
h -120 -876 0
h -81 -448 0
h -82 -459 0
h -83 -470 0
h -84 -481 0
h -85 -492 0
h -86 -503 0
h -87 -514 0
h -88 -525 0
h -89 -536 0
h -90 -547 0
h -91 -558 0
h -92 -569 0
h -93 -580 0
h -94 -591 0
h -95 -602 0
h -96 -613 0
h -97 -624 0
h -98 -635 0
h -99 -646 0
h -100 -657 0
h -101 -668 0
h -102 -679 0
h -103 -690 0
h -104 -701 0
h -105 -712 0
h -106 -723 0
h -107 -734 0
h -108 -745 0
h -109 -756 0
h -110 -767 0
h -111 -778 0
h -112 -789 0
h -113 -800 0
h -114 -811 0
h -115 -822 0
h -116 -833 0
h -117 -844 0
h -118 -855 0
h -119 -866 0
h -120 -877 0
h -81 -449 0
h -82 -460 0
h -83 -471 0
h -84 -482 0
h -85 -493 0
h -86 -504 0
h -87 -515 0
h -88 -526 0
h -89 -537 0
h -90 -548 0
h -91 -559 0
h -92 -570 0
h -93 -581 0
h -94 -592 0
h -95 -603 0
h -96 -614 0
h -97 -625 0
h -98 -636 0
h -99 -647 0
h -100 -658 0
h -101 -669 0
h -102 -680 0
h -103 -691 0
h -104 -702 0
h -105 -713 0
h -106 -724 0
h -107 -735 0
h -108 -746 0
h -109 -757 0
h -110 -768 0
h -111 -779 0
h -112 -790 0
h -113 -801 0
h -114 -812 0
h -115 -823 0
h -116 -834 0
h -117 -845 0
h -118 -856 0
h -119 -867 0
h -120 -878 0
h -81 -450 0
h -82 -461 0
h -83 -472 0
h -84 -483 0
h -85 -494 0
h -86 -505 0
h -87 -516 0
h -88 -527 0
h -89 -538 0
h -90 -549 0
h -91 -560 0
h -92 -571 0
h -93 -582 0
h -94 -593 0
h -95 -604 0
h -96 -615 0
h -97 -626 0
h -98 -637 0
h -99 -648 0
h -100 -659 0
h -101 -670 0
h -102 -681 0
h -103 -692 0
h -104 -703 0
h -105 -714 0
h -106 -725 0
h -107 -736 0
h -108 -747 0
h -109 -758 0
h -110 -769 0
h -111 -780 0
h -112 -791 0
h -113 -802 0
h -114 -813 0
h -115 -824 0
h -116 -835 0
h -117 -846 0
h -118 -857 0
h -119 -868 0
h -120 -879 0
h -81 -451 0
h -82 -462 0
h -83 -473 0
h -84 -484 0
h -85 -495 0
h -86 -506 0
h -87 -517 0
h -88 -528 0
h -89 -539 0
h -90 -550 0
h -91 -561 0
h -92 -572 0
h -93 -583 0
h -94 -594 0
h -95 -605 0
h -96 -616 0
h -97 -627 0
h -98 -638 0
h -99 -649 0
h -100 -660 0
h -101 -671 0
h -102 -682 0
h -103 -693 0
h -104 -704 0
h -105 -715 0
h -106 -726 0
h -107 -737 0
h -108 -748 0
h -109 -759 0
h -110 -770 0
h -111 -781 0
h -112 -792 0
h -113 -803 0
h -114 -814 0
h -115 -825 0
h -116 -836 0
h -117 -847 0
h -118 -858 0
h -119 -869 0
h -120 -880 0
h 1241 1242 1243 1244 1245 1246 1247 1248 1249 1250 1251 1252 1253 1254 1255 1256 1257 1258 1259 1260 1261 1262 1263 1264 1265 1266 1267 1268 1269 1270 1271 1272 1273 1274 1275 1276 1277 1278 1279 1280 0
h -1241 121 0
h -1241 441 0
h 1241 -121 -441 0
h -1242 122 0
h -1242 452 0
h 1242 -122 -452 0
h -1243 123 0
h -1243 463 0
h 1243 -123 -463 0
h -1244 124 0
h -1244 474 0
h 1244 -124 -474 0
h -1245 125 0
h -1245 485 0
h 1245 -125 -485 0
h -1246 126 0
h -1246 496 0
h 1246 -126 -496 0
h -1247 127 0
h -1247 507 0
h 1247 -127 -507 0
h -1248 128 0
h -1248 518 0
h 1248 -128 -518 0
h -1249 129 0
h -1249 529 0
h 1249 -129 -529 0
h -1250 130 0
h -1250 540 0
h 1250 -130 -540 0
h -1251 131 0
h -1251 551 0
h 1251 -131 -551 0
h -1252 132 0
h -1252 562 0
h 1252 -132 -562 0
h -1253 133 0
h -1253 573 0
h 1253 -133 -573 0
h -1254 134 0
h -1254 584 0
h 1254 -134 -584 0
h -1255 135 0
h -1255 595 0
h 1255 -135 -595 0
h -1256 136 0
h -1256 606 0
h 1256 -136 -606 0
h -1257 137 0
h -1257 617 0
h 1257 -137 -617 0
h -1258 138 0
h -1258 628 0
h 1258 -138 -628 0
h -1259 139 0
h -1259 639 0
h 1259 -139 -639 0
h -1260 140 0
h -1260 650 0
h 1260 -140 -650 0
h -1261 141 0
h -1261 661 0
h 1261 -141 -661 0
h -1262 142 0
h -1262 672 0
h 1262 -142 -672 0
h -1263 143 0
h -1263 683 0
h 1263 -143 -683 0
h -1264 144 0
h -1264 694 0
h 1264 -144 -694 0
h -1265 145 0
h -1265 705 0
h 1265 -145 -705 0
h -1266 146 0
h -1266 716 0
h 1266 -146 -716 0
h -1267 147 0
h -1267 727 0
h 1267 -147 -727 0
h -1268 148 0
h -1268 738 0
h 1268 -148 -738 0
h -1269 149 0
h -1269 749 0
h 1269 -149 -749 0
h -1270 150 0
h -1270 760 0
h 1270 -150 -760 0
h -1271 151 0
h -1271 771 0
h 1271 -151 -771 0
h -1272 152 0
h -1272 782 0
h 1272 -152 -782 0
h -1273 153 0
h -1273 793 0
h 1273 -153 -793 0
h -1274 154 0
h -1274 804 0
h 1274 -154 -804 0
h -1275 155 0
h -1275 815 0
h 1275 -155 -815 0
h -1276 156 0
h -1276 826 0
h 1276 -156 -826 0
h -1277 157 0
h -1277 837 0
h 1277 -157 -837 0
h -1278 158 0
h -1278 848 0
h 1278 -158 -848 0
h -1279 159 0
h -1279 859 0
h 1279 -159 -859 0
h -1280 160 0
h -1280 870 0
h 1280 -160 -870 0
h 1281 1282 1283 1284 1285 1286 1287 1288 1289 1290 1291 1292 1293 1294 1295 1296 1297 1298 1299 1300 1301 1302 1303 1304 1305 1306 1307 1308 1309 1310 1311 1312 1313 1314 1315 1316 1317 1318 1319 1320 0
h -1281 121 0
h -1281 442 0
h 1281 -121 -442 0
h -1282 122 0
h -1282 453 0
h 1282 -122 -453 0
h -1283 123 0
h -1283 464 0
h 1283 -123 -464 0
h -1284 124 0
h -1284 475 0
h 1284 -124 -475 0
h -1285 125 0
h -1285 486 0
h 1285 -125 -486 0
h -1286 126 0
h -1286 497 0
h 1286 -126 -497 0
h -1287 127 0
h -1287 508 0
h 1287 -127 -508 0
h -1288 128 0
h -1288 519 0
h 1288 -128 -519 0
h -1289 129 0
h -1289 530 0
h 1289 -129 -530 0
h -1290 130 0
h -1290 541 0
h 1290 -130 -541 0
h -1291 131 0
h -1291 552 0
h 1291 -131 -552 0
h -1292 132 0
h -1292 563 0
h 1292 -132 -563 0
h -1293 133 0
h -1293 574 0
h 1293 -133 -574 0
h -1294 134 0
h -1294 585 0
h 1294 -134 -585 0
h -1295 135 0
h -1295 596 0
h 1295 -135 -596 0
h -1296 136 0
h -1296 607 0
h 1296 -136 -607 0
h -1297 137 0
h -1297 618 0
h 1297 -137 -618 0
h -1298 138 0
h -1298 629 0
h 1298 -138 -629 0
h -1299 139 0
h -1299 640 0
h 1299 -139 -640 0
h -1300 140 0
h -1300 651 0
h 1300 -140 -651 0
h -1301 141 0
h -1301 662 0
h 1301 -141 -662 0
h -1302 142 0
h -1302 673 0
h 1302 -142 -673 0
h -1303 143 0
h -1303 684 0
h 1303 -143 -684 0
h -1304 144 0
h -1304 695 0
h 1304 -144 -695 0
h -1305 145 0
h -1305 706 0
h 1305 -145 -706 0
h -1306 146 0
h -1306 717 0
h 1306 -146 -717 0
h -1307 147 0
h -1307 728 0
h 1307 -147 -728 0
h -1308 148 0
h -1308 739 0
h 1308 -148 -739 0
h -1309 149 0
h -1309 750 0
h 1309 -149 -750 0
h -1310 150 0
h -1310 761 0
h 1310 -150 -761 0
h -1311 151 0
h -1311 772 0
h 1311 -151 -772 0
h -1312 152 0
h -1312 783 0
h 1312 -152 -783 0
h -1313 153 0
h -1313 794 0
h 1313 -153 -794 0
h -1314 154 0
h -1314 805 0
h 1314 -154 -805 0
h -1315 155 0
h -1315 816 0
h 1315 -155 -816 0
h -1316 156 0
h -1316 827 0
h 1316 -156 -827 0
h -1317 157 0
h -1317 838 0
h 1317 -157 -838 0
h -1318 158 0
h -1318 849 0
h 1318 -158 -849 0
h -1319 159 0
h -1319 860 0
h 1319 -159 -860 0
h -1320 160 0
h -1320 871 0
h 1320 -160 -871 0
h 1321 1322 1323 1324 1325 1326 1327 1328 1329 1330 1331 1332 1333 1334 1335 1336 1337 1338 1339 1340 1341 1342 1343 1344 1345 1346 1347 1348 1349 1350 1351 1352 1353 1354 1355 1356 1357 1358 1359 1360 0
h -1321 121 0
h -1321 443 0
h 1321 -121 -443 0
h -1322 122 0
h -1322 454 0
h 1322 -122 -454 0
h -1323 123 0
h -1323 465 0
h 1323 -123 -465 0
h -1324 124 0
h -1324 476 0
h 1324 -124 -476 0
h -1325 125 0
h -1325 487 0
h 1325 -125 -487 0
h -1326 126 0
h -1326 498 0
h 1326 -126 -498 0
h -1327 127 0
h -1327 509 0
h 1327 -127 -509 0
h -1328 128 0
h -1328 520 0
h 1328 -128 -520 0
h -1329 129 0
h -1329 531 0
h 1329 -129 -531 0
h -1330 130 0
h -1330 542 0
h 1330 -130 -542 0
h -1331 131 0
h -1331 553 0
h 1331 -131 -553 0
h -1332 132 0
h -1332 564 0
h 1332 -132 -564 0
h -1333 133 0
h -1333 575 0
h 1333 -133 -575 0
h -1334 134 0
h -1334 586 0
h 1334 -134 -586 0
h -1335 135 0
h -1335 597 0
h 1335 -135 -597 0
h -1336 136 0
h -1336 608 0
h 1336 -136 -608 0
h -1337 137 0
h -1337 619 0
h 1337 -137 -619 0
h -1338 138 0
h -1338 630 0
h 1338 -138 -630 0
h -1339 139 0
h -1339 641 0
h 1339 -139 -641 0
h -1340 140 0
h -1340 652 0
h 1340 -140 -652 0
h -1341 141 0
h -1341 663 0
h 1341 -141 -663 0
h -1342 142 0
h -1342 674 0
h 1342 -142 -674 0
h -1343 143 0
h -1343 685 0
h 1343 -143 -685 0
h -1344 144 0
h -1344 696 0
h 1344 -144 -696 0
h -1345 145 0
h -1345 707 0
h 1345 -145 -707 0
h -1346 146 0
h -1346 718 0
h 1346 -146 -718 0
h -1347 147 0
h -1347 729 0
h 1347 -147 -729 0
h -1348 148 0
h -1348 740 0
h 1348 -148 -740 0
h -1349 149 0
h -1349 751 0
h 1349 -149 -751 0
h -1350 150 0
h -1350 762 0
h 1350 -150 -762 0
h -1351 151 0
h -1351 773 0
h 1351 -151 -773 0
h -1352 152 0
h -1352 784 0
h 1352 -152 -784 0
h -1353 153 0
h -1353 795 0
h 1353 -153 -795 0
h -1354 154 0
h -1354 806 0
h 1354 -154 -806 0
h -1355 155 0
h -1355 817 0
h 1355 -155 -817 0
h -1356 156 0
h -1356 828 0
h 1356 -156 -828 0
h -1357 157 0
h -1357 839 0
h 1357 -157 -839 0
h -1358 158 0
h -1358 850 0
h 1358 -158 -850 0
h -1359 159 0
h -1359 861 0
h 1359 -159 -861 0
h -1360 160 0
h -1360 872 0
h 1360 -160 -872 0
h 1361 1362 1363 1364 1365 1366 1367 1368 1369 1370 1371 1372 1373 1374 1375 1376 1377 1378 1379 1380 1381 1382 1383 1384 1385 1386 1387 1388 1389 1390 1391 1392 1393 1394 1395 1396 1397 1398 1399 1400 0
h -1361 121 0
h -1361 444 0
h 1361 -121 -444 0
h -1362 122 0
h -1362 455 0
h 1362 -122 -455 0
h -1363 123 0
h -1363 466 0
h 1363 -123 -466 0
h -1364 124 0
h -1364 477 0
h 1364 -124 -477 0
h -1365 125 0
h -1365 488 0
h 1365 -125 -488 0
h -1366 126 0
h -1366 499 0
h 1366 -126 -499 0
h -1367 127 0
h -1367 510 0
h 1367 -127 -510 0
h -1368 128 0
h -1368 521 0
h 1368 -128 -521 0
h -1369 129 0
h -1369 532 0
h 1369 -129 -532 0
h -1370 130 0
h -1370 543 0
h 1370 -130 -543 0
h -1371 131 0
h -1371 554 0
h 1371 -131 -554 0
h -1372 132 0
h -1372 565 0
h 1372 -132 -565 0
h -1373 133 0
h -1373 576 0
h 1373 -133 -576 0
h -1374 134 0
h -1374 587 0
h 1374 -134 -587 0
h -1375 135 0
h -1375 598 0
h 1375 -135 -598 0
h -1376 136 0
h -1376 609 0
h 1376 -136 -609 0
h -1377 137 0
h -1377 620 0
h 1377 -137 -620 0
h -1378 138 0
h -1378 631 0
h 1378 -138 -631 0
h -1379 139 0
h -1379 642 0
h 1379 -139 -642 0
h -1380 140 0
h -1380 653 0
h 1380 -140 -653 0
h -1381 141 0
h -1381 664 0
h 1381 -141 -664 0
h -1382 142 0
h -1382 675 0
h 1382 -142 -675 0
h -1383 143 0
h -1383 686 0
h 1383 -143 -686 0
h -1384 144 0
h -1384 697 0
h 1384 -144 -697 0
h -1385 145 0
h -1385 708 0
h 1385 -145 -708 0
h -1386 146 0
h -1386 719 0
h 1386 -146 -719 0
h -1387 147 0
h -1387 730 0
h 1387 -147 -730 0
h -1388 148 0
h -1388 741 0
h 1388 -148 -741 0
h -1389 149 0
h -1389 752 0
h 1389 -149 -752 0
h -1390 150 0
h -1390 763 0
h 1390 -150 -763 0
h -1391 151 0
h -1391 774 0
h 1391 -151 -774 0
h -1392 152 0
h -1392 785 0
h 1392 -152 -785 0
h -1393 153 0
h -1393 796 0
h 1393 -153 -796 0
h -1394 154 0
h -1394 807 0
h 1394 -154 -807 0
h -1395 155 0
h -1395 818 0
h 1395 -155 -818 0
h -1396 156 0
h -1396 829 0
h 1396 -156 -829 0
h -1397 157 0
h -1397 840 0
h 1397 -157 -840 0
h -1398 158 0
h -1398 851 0
h 1398 -158 -851 0
h -1399 159 0
h -1399 862 0
h 1399 -159 -862 0
h -1400 160 0
h -1400 873 0
h 1400 -160 -873 0
h -121 -445 0
h -122 -456 0
h -123 -467 0
h -124 -478 0
h -125 -489 0
h -126 -500 0
h -127 -511 0
h -128 -522 0
h -129 -533 0
h -130 -544 0
h -131 -555 0
h -132 -566 0
h -133 -577 0
h -134 -588 0
h -135 -599 0
h -136 -610 0
h -137 -621 0
h -138 -632 0
h -139 -643 0
h -140 -654 0
h -141 -665 0
h -142 -676 0
h -143 -687 0
h -144 -698 0
h -145 -709 0
h -146 -720 0
h -147 -731 0
h -148 -742 0
h -149 -753 0
h -150 -764 0
h -151 -775 0
h -152 -786 0
h -153 -797 0
h -154 -808 0
h -155 -819 0
h -156 -830 0
h -157 -841 0
h -158 -852 0
h -159 -863 0
h -160 -874 0
h 1401 1402 1403 1404 1405 1406 1407 1408 1409 1410 1411 1412 1413 1414 1415 1416 1417 1418 1419 1420 1421 1422 1423 1424 1425 1426 1427 1428 1429 1430 1431 1432 1433 1434 1435 1436 1437 1438 1439 1440 0
h -1401 121 0
h -1401 446 0
h 1401 -121 -446 0
h -1402 122 0
h -1402 457 0
h 1402 -122 -457 0
h -1403 123 0
h -1403 468 0
h 1403 -123 -468 0
h -1404 124 0
h -1404 479 0
h 1404 -124 -479 0
h -1405 125 0
h -1405 490 0
h 1405 -125 -490 0
h -1406 126 0
h -1406 501 0
h 1406 -126 -501 0
h -1407 127 0
h -1407 512 0
h 1407 -127 -512 0
h -1408 128 0
h -1408 523 0
h 1408 -128 -523 0
h -1409 129 0
h -1409 534 0
h 1409 -129 -534 0
h -1410 130 0
h -1410 545 0
h 1410 -130 -545 0
h -1411 131 0
h -1411 556 0
h 1411 -131 -556 0
h -1412 132 0
h -1412 567 0
h 1412 -132 -567 0
h -1413 133 0
h -1413 578 0
h 1413 -133 -578 0
h -1414 134 0
h -1414 589 0
h 1414 -134 -589 0
h -1415 135 0
h -1415 600 0
h 1415 -135 -600 0
h -1416 136 0
h -1416 611 0
h 1416 -136 -611 0
h -1417 137 0
h -1417 622 0
h 1417 -137 -622 0
h -1418 138 0
h -1418 633 0
h 1418 -138 -633 0
h -1419 139 0
h -1419 644 0
h 1419 -139 -644 0
h -1420 140 0
h -1420 655 0
h 1420 -140 -655 0
h -1421 141 0
h -1421 666 0
h 1421 -141 -666 0
h -1422 142 0
h -1422 677 0
h 1422 -142 -677 0
h -1423 143 0
h -1423 688 0
h 1423 -143 -688 0
h -1424 144 0
h -1424 699 0
h 1424 -144 -699 0
h -1425 145 0
h -1425 710 0
h 1425 -145 -710 0
h -1426 146 0
h -1426 721 0
h 1426 -146 -721 0
h -1427 147 0
h -1427 732 0
h 1427 -147 -732 0
h -1428 148 0
h -1428 743 0
h 1428 -148 -743 0
h -1429 149 0
h -1429 754 0
h 1429 -149 -754 0
h -1430 150 0
h -1430 765 0
h 1430 -150 -765 0
h -1431 151 0
h -1431 776 0
h 1431 -151 -776 0
h -1432 152 0
h -1432 787 0
h 1432 -152 -787 0
h -1433 153 0
h -1433 798 0
h 1433 -153 -798 0
h -1434 154 0
h -1434 809 0
h 1434 -154 -809 0
h -1435 155 0
h -1435 820 0
h 1435 -155 -820 0
h -1436 156 0
h -1436 831 0
h 1436 -156 -831 0
h -1437 157 0
h -1437 842 0
h 1437 -157 -842 0
h -1438 158 0
h -1438 853 0
h 1438 -158 -853 0
h -1439 159 0
h -1439 864 0
h 1439 -159 -864 0
h -1440 160 0
h -1440 875 0
h 1440 -160 -875 0
h -121 -447 0
h -122 -458 0
h -123 -469 0
h -124 -480 0
h -125 -491 0
h -126 -502 0
h -127 -513 0
h -128 -524 0
h -129 -535 0
h -130 -546 0
h -131 -557 0
h -132 -568 0
h -133 -579 0
h -134 -590 0
h -135 -601 0
h -136 -612 0
h -137 -623 0
h -138 -634 0
h -139 -645 0
h -140 -656 0
h -141 -667 0
h -142 -678 0
h -143 -689 0
h -144 -700 0
h -145 -711 0
h -146 -722 0
h -147 -733 0
h -148 -744 0
h -149 -755 0
h -150 -766 0
h -151 -777 0
h -152 -788 0
h -153 -799 0
h -154 -810 0
h -155 -821 0
h -156 -832 0
h -157 -843 0
h -158 -854 0
h -159 -865 0
h -160 -876 0
h -121 -448 0
h -122 -459 0
h -123 -470 0
h -124 -481 0
h -125 -492 0
h -126 -503 0
h -127 -514 0
h -128 -525 0
h -129 -536 0
h -130 -547 0
h -131 -558 0
h -132 -569 0
h -133 -580 0
h -134 -591 0
h -135 -602 0
h -136 -613 0
h -137 -624 0
h -138 -635 0
h -139 -646 0
h -140 -657 0
h -141 -668 0
h -142 -679 0
h -143 -690 0
h -144 -701 0
h -145 -712 0
h -146 -723 0
h -147 -734 0
h -148 -745 0
h -149 -756 0
h -150 -767 0
h -151 -778 0
h -152 -789 0
h -153 -800 0
h -154 -811 0
h -155 -822 0
h -156 -833 0
h -157 -844 0
h -158 -855 0
h -159 -866 0
h -160 -877 0
h -121 -449 0
h -122 -460 0
h -123 -471 0
h -124 -482 0
h -125 -493 0
h -126 -504 0
h -127 -515 0
h -128 -526 0
h -129 -537 0
h -130 -548 0
h -131 -559 0
h -132 -570 0
h -133 -581 0
h -134 -592 0
h -135 -603 0
h -136 -614 0
h -137 -625 0
h -138 -636 0
h -139 -647 0
h -140 -658 0
h -141 -669 0
h -142 -680 0
h -143 -691 0
h -144 -702 0
h -145 -713 0
h -146 -724 0
h -147 -735 0
h -148 -746 0
h -149 -757 0
h -150 -768 0
h -151 -779 0
h -152 -790 0
h -153 -801 0
h -154 -812 0
h -155 -823 0
h -156 -834 0
h -157 -845 0
h -158 -856 0
h -159 -867 0
h -160 -878 0
h -121 -450 0
h -122 -461 0
h -123 -472 0
h -124 -483 0
h -125 -494 0
h -126 -505 0
h -127 -516 0
h -128 -527 0
h -129 -538 0
h -130 -549 0
h -131 -560 0
h -132 -571 0
h -133 -582 0
h -134 -593 0
h -135 -604 0
h -136 -615 0
h -137 -626 0
h -138 -637 0
h -139 -648 0
h -140 -659 0
h -141 -670 0
h -142 -681 0
h -143 -692 0
h -144 -703 0
h -145 -714 0
h -146 -725 0
h -147 -736 0
h -148 -747 0
h -149 -758 0
h -150 -769 0
h -151 -780 0
h -152 -791 0
h -153 -802 0
h -154 -813 0
h -155 -824 0
h -156 -835 0
h -157 -846 0
h -158 -857 0
h -159 -868 0
h -160 -879 0
h -121 -451 0
h -122 -462 0
h -123 -473 0
h -124 -484 0
h -125 -495 0
h -126 -506 0
h -127 -517 0
h -128 -528 0
h -129 -539 0
h -130 -550 0
h -131 -561 0
h -132 -572 0
h -133 -583 0
h -134 -594 0
h -135 -605 0
h -136 -616 0
h -137 -627 0
h -138 -638 0
h -139 -649 0
h -140 -660 0
h -141 -671 0
h -142 -682 0
h -143 -693 0
h -144 -704 0
h -145 -715 0
h -146 -726 0
h -147 -737 0
h -148 -748 0
h -149 -759 0
h -150 -770 0
h -151 -781 0
h -152 -792 0
h -153 -803 0
h -154 -814 0
h -155 -825 0
h -156 -836 0
h -157 -847 0
h -158 -858 0
h -159 -869 0
h -160 -880 0
h 1441 1442 1443 1444 1445 1446 1447 1448 1449 1450 1451 1452 1453 1454 1455 1456 1457 1458 1459 1460 1461 1462 1463 1464 1465 1466 1467 1468 1469 1470 1471 1472 1473 1474 1475 1476 1477 1478 1479 1480 0
h -1441 161 0
h -1441 441 0
h 1441 -161 -441 0
h -1442 162 0
h -1442 452 0
h 1442 -162 -452 0
h -1443 163 0
h -1443 463 0
h 1443 -163 -463 0
h -1444 164 0
h -1444 474 0
h 1444 -164 -474 0
h -1445 165 0
h -1445 485 0
h 1445 -165 -485 0
h -1446 166 0
h -1446 496 0
h 1446 -166 -496 0
h -1447 167 0
h -1447 507 0
h 1447 -167 -507 0
h -1448 168 0
h -1448 518 0
h 1448 -168 -518 0
h -1449 169 0
h -1449 529 0
h 1449 -169 -529 0
h -1450 170 0
h -1450 540 0
h 1450 -170 -540 0
h -1451 171 0
h -1451 551 0
h 1451 -171 -551 0
h -1452 172 0
h -1452 562 0
h 1452 -172 -562 0
h -1453 173 0
h -1453 573 0
h 1453 -173 -573 0
h -1454 174 0
h -1454 584 0
h 1454 -174 -584 0
h -1455 175 0
h -1455 595 0
h 1455 -175 -595 0
h -1456 176 0
h -1456 606 0
h 1456 -176 -606 0
h -1457 177 0
h -1457 617 0
h 1457 -177 -617 0
h -1458 178 0
h -1458 628 0
h 1458 -178 -628 0
h -1459 179 0
h -1459 639 0
h 1459 -179 -639 0
h -1460 180 0
h -1460 650 0
h 1460 -180 -650 0
h -1461 181 0
h -1461 661 0
h 1461 -181 -661 0
h -1462 182 0
h -1462 672 0
h 1462 -182 -672 0
h -1463 183 0
h -1463 683 0
h 1463 -183 -683 0
h -1464 184 0
h -1464 694 0
h 1464 -184 -694 0
h -1465 185 0
h -1465 705 0
h 1465 -185 -705 0
h -1466 186 0
h -1466 716 0
h 1466 -186 -716 0
h -1467 187 0
h -1467 727 0
h 1467 -187 -727 0
h -1468 188 0
h -1468 738 0
h 1468 -188 -738 0
h -1469 189 0
h -1469 749 0
h 1469 -189 -749 0
h -1470 190 0
h -1470 760 0
h 1470 -190 -760 0
h -1471 191 0
h -1471 771 0
h 1471 -191 -771 0
h -1472 192 0
h -1472 782 0
h 1472 -192 -782 0
h -1473 193 0
h -1473 793 0
h 1473 -193 -793 0
h -1474 194 0
h -1474 804 0
h 1474 -194 -804 0
h -1475 195 0
h -1475 815 0
h 1475 -195 -815 0
h -1476 196 0
h -1476 826 0
h 1476 -196 -826 0
h -1477 197 0
h -1477 837 0
h 1477 -197 -837 0
h -1478 198 0
h -1478 848 0
h 1478 -198 -848 0
h -1479 199 0
h -1479 859 0
h 1479 -199 -859 0
h -1480 200 0
h -1480 870 0
h 1480 -200 -870 0
h 1481 1482 1483 1484 1485 1486 1487 1488 1489 1490 1491 1492 1493 1494 1495 1496 1497 1498 1499 1500 1501 1502 1503 1504 1505 1506 1507 1508 1509 1510 1511 1512 1513 1514 1515 1516 1517 1518 1519 1520 0
h -1481 161 0
h -1481 442 0
h 1481 -161 -442 0
h -1482 162 0
h -1482 453 0
h 1482 -162 -453 0
h -1483 163 0
h -1483 464 0
h 1483 -163 -464 0
h -1484 164 0
h -1484 475 0
h 1484 -164 -475 0
h -1485 165 0
h -1485 486 0
h 1485 -165 -486 0
h -1486 166 0
h -1486 497 0
h 1486 -166 -497 0
h -1487 167 0
h -1487 508 0
h 1487 -167 -508 0
h -1488 168 0
h -1488 519 0
h 1488 -168 -519 0
h -1489 169 0
h -1489 530 0
h 1489 -169 -530 0
h -1490 170 0
h -1490 541 0
h 1490 -170 -541 0
h -1491 171 0
h -1491 552 0
h 1491 -171 -552 0
h -1492 172 0
h -1492 563 0
h 1492 -172 -563 0
h -1493 173 0
h -1493 574 0
h 1493 -173 -574 0
h -1494 174 0
h -1494 585 0
h 1494 -174 -585 0
h -1495 175 0
h -1495 596 0
h 1495 -175 -596 0
h -1496 176 0
h -1496 607 0
h 1496 -176 -607 0
h -1497 177 0
h -1497 618 0
h 1497 -177 -618 0
h -1498 178 0
h -1498 629 0
h 1498 -178 -629 0
h -1499 179 0
h -1499 640 0
h 1499 -179 -640 0
h -1500 180 0
h -1500 651 0
h 1500 -180 -651 0
h -1501 181 0
h -1501 662 0
h 1501 -181 -662 0
h -1502 182 0
h -1502 673 0
h 1502 -182 -673 0
h -1503 183 0
h -1503 684 0
h 1503 -183 -684 0
h -1504 184 0
h -1504 695 0
h 1504 -184 -695 0
h -1505 185 0
h -1505 706 0
h 1505 -185 -706 0
h -1506 186 0
h -1506 717 0
h 1506 -186 -717 0
h -1507 187 0
h -1507 728 0
h 1507 -187 -728 0
h -1508 188 0
h -1508 739 0
h 1508 -188 -739 0
h -1509 189 0
h -1509 750 0
h 1509 -189 -750 0
h -1510 190 0
h -1510 761 0
h 1510 -190 -761 0
h -1511 191 0
h -1511 772 0
h 1511 -191 -772 0
h -1512 192 0
h -1512 783 0
h 1512 -192 -783 0
h -1513 193 0
h -1513 794 0
h 1513 -193 -794 0
h -1514 194 0
h -1514 805 0
h 1514 -194 -805 0
h -1515 195 0
h -1515 816 0
h 1515 -195 -816 0
h -1516 196 0
h -1516 827 0
h 1516 -196 -827 0
h -1517 197 0
h -1517 838 0
h 1517 -197 -838 0
h -1518 198 0
h -1518 849 0
h 1518 -198 -849 0
h -1519 199 0
h -1519 860 0
h 1519 -199 -860 0
h -1520 200 0
h -1520 871 0
h 1520 -200 -871 0
h 1521 1522 1523 1524 1525 1526 1527 1528 1529 1530 1531 1532 1533 1534 1535 1536 1537 1538 1539 1540 1541 1542 1543 1544 1545 1546 1547 1548 1549 1550 1551 1552 1553 1554 1555 1556 1557 1558 1559 1560 0
h -1521 161 0
h -1521 443 0
h 1521 -161 -443 0
h -1522 162 0
h -1522 454 0
h 1522 -162 -454 0
h -1523 163 0
h -1523 465 0
h 1523 -163 -465 0
h -1524 164 0
h -1524 476 0
h 1524 -164 -476 0
h -1525 165 0
h -1525 487 0
h 1525 -165 -487 0
h -1526 166 0
h -1526 498 0
h 1526 -166 -498 0
h -1527 167 0
h -1527 509 0
h 1527 -167 -509 0
h -1528 168 0
h -1528 520 0
h 1528 -168 -520 0
h -1529 169 0
h -1529 531 0
h 1529 -169 -531 0
h -1530 170 0
h -1530 542 0
h 1530 -170 -542 0
h -1531 171 0
h -1531 553 0
h 1531 -171 -553 0
h -1532 172 0
h -1532 564 0
h 1532 -172 -564 0
h -1533 173 0
h -1533 575 0
h 1533 -173 -575 0
h -1534 174 0
h -1534 586 0
h 1534 -174 -586 0
h -1535 175 0
h -1535 597 0
h 1535 -175 -597 0
h -1536 176 0
h -1536 608 0
h 1536 -176 -608 0
h -1537 177 0
h -1537 619 0
h 1537 -177 -619 0
h -1538 178 0
h -1538 630 0
h 1538 -178 -630 0
h -1539 179 0
h -1539 641 0
h 1539 -179 -641 0
h -1540 180 0
h -1540 652 0
h 1540 -180 -652 0
h -1541 181 0
h -1541 663 0
h 1541 -181 -663 0
h -1542 182 0
h -1542 674 0
h 1542 -182 -674 0
h -1543 183 0
h -1543 685 0
h 1543 -183 -685 0
h -1544 184 0
h -1544 696 0
h 1544 -184 -696 0
h -1545 185 0
h -1545 707 0
h 1545 -185 -707 0
h -1546 186 0
h -1546 718 0
h 1546 -186 -718 0
h -1547 187 0
h -1547 729 0
h 1547 -187 -729 0
h -1548 188 0
h -1548 740 0
h 1548 -188 -740 0
h -1549 189 0
h -1549 751 0
h 1549 -189 -751 0
h -1550 190 0
h -1550 762 0
h 1550 -190 -762 0
h -1551 191 0
h -1551 773 0
h 1551 -191 -773 0
h -1552 192 0
h -1552 784 0
h 1552 -192 -784 0
h -1553 193 0
h -1553 795 0
h 1553 -193 -795 0
h -1554 194 0
h -1554 806 0
h 1554 -194 -806 0
h -1555 195 0
h -1555 817 0
h 1555 -195 -817 0
h -1556 196 0
h -1556 828 0
h 1556 -196 -828 0
h -1557 197 0
h -1557 839 0
h 1557 -197 -839 0
h -1558 198 0
h -1558 850 0
h 1558 -198 -850 0
h -1559 199 0
h -1559 861 0
h 1559 -199 -861 0
h -1560 200 0
h -1560 872 0
h 1560 -200 -872 0
h 1561 1562 1563 1564 1565 1566 1567 1568 1569 1570 1571 1572 1573 1574 1575 1576 1577 1578 1579 1580 1581 1582 1583 1584 1585 1586 1587 1588 1589 1590 1591 1592 1593 1594 1595 1596 1597 1598 1599 1600 0
h -1561 161 0
h -1561 444 0
h 1561 -161 -444 0
h -1562 162 0
h -1562 455 0
h 1562 -162 -455 0
h -1563 163 0
h -1563 466 0
h 1563 -163 -466 0
h -1564 164 0
h -1564 477 0
h 1564 -164 -477 0
h -1565 165 0
h -1565 488 0
h 1565 -165 -488 0
h -1566 166 0
h -1566 499 0
h 1566 -166 -499 0
h -1567 167 0
h -1567 510 0
h 1567 -167 -510 0
h -1568 168 0
h -1568 521 0
h 1568 -168 -521 0
h -1569 169 0
h -1569 532 0
h 1569 -169 -532 0
h -1570 170 0
h -1570 543 0
h 1570 -170 -543 0
h -1571 171 0
h -1571 554 0
h 1571 -171 -554 0
h -1572 172 0
h -1572 565 0
h 1572 -172 -565 0
h -1573 173 0
h -1573 576 0
h 1573 -173 -576 0
h -1574 174 0
h -1574 587 0
h 1574 -174 -587 0
h -1575 175 0
h -1575 598 0
h 1575 -175 -598 0
h -1576 176 0
h -1576 609 0
h 1576 -176 -609 0
h -1577 177 0
h -1577 620 0
h 1577 -177 -620 0
h -1578 178 0
h -1578 631 0
h 1578 -178 -631 0
h -1579 179 0
h -1579 642 0
h 1579 -179 -642 0
h -1580 180 0
h -1580 653 0
h 1580 -180 -653 0
h -1581 181 0
h -1581 664 0
h 1581 -181 -664 0
h -1582 182 0
h -1582 675 0
h 1582 -182 -675 0
h -1583 183 0
h -1583 686 0
h 1583 -183 -686 0
h -1584 184 0
h -1584 697 0
h 1584 -184 -697 0
h -1585 185 0
h -1585 708 0
h 1585 -185 -708 0
h -1586 186 0
h -1586 719 0
h 1586 -186 -719 0
h -1587 187 0
h -1587 730 0
h 1587 -187 -730 0
h -1588 188 0
h -1588 741 0
h 1588 -188 -741 0
h -1589 189 0
h -1589 752 0
h 1589 -189 -752 0
h -1590 190 0
h -1590 763 0
h 1590 -190 -763 0
h -1591 191 0
h -1591 774 0
h 1591 -191 -774 0
h -1592 192 0
h -1592 785 0
h 1592 -192 -785 0
h -1593 193 0
h -1593 796 0
h 1593 -193 -796 0
h -1594 194 0
h -1594 807 0
h 1594 -194 -807 0
h -1595 195 0
h -1595 818 0
h 1595 -195 -818 0
h -1596 196 0
h -1596 829 0
h 1596 -196 -829 0
h -1597 197 0
h -1597 840 0
h 1597 -197 -840 0
h -1598 198 0
h -1598 851 0
h 1598 -198 -851 0
h -1599 199 0
h -1599 862 0
h 1599 -199 -862 0
h -1600 200 0
h -1600 873 0
h 1600 -200 -873 0
h -161 -445 0
h -162 -456 0
h -163 -467 0
h -164 -478 0
h -165 -489 0
h -166 -500 0
h -167 -511 0
h -168 -522 0
h -169 -533 0
h -170 -544 0
h -171 -555 0
h -172 -566 0
h -173 -577 0
h -174 -588 0
h -175 -599 0
h -176 -610 0
h -177 -621 0
h -178 -632 0
h -179 -643 0
h -180 -654 0
h -181 -665 0
h -182 -676 0
h -183 -687 0
h -184 -698 0
h -185 -709 0
h -186 -720 0
h -187 -731 0
h -188 -742 0
h -189 -753 0
h -190 -764 0
h -191 -775 0
h -192 -786 0
h -193 -797 0
h -194 -808 0
h -195 -819 0
h -196 -830 0
h -197 -841 0
h -198 -852 0
h -199 -863 0
h -200 -874 0
h 1601 1602 1603 1604 1605 1606 1607 1608 1609 1610 1611 1612 1613 1614 1615 1616 1617 1618 1619 1620 1621 1622 1623 1624 1625 1626 1627 1628 1629 1630 1631 1632 1633 1634 1635 1636 1637 1638 1639 1640 0
h -1601 161 0
h -1601 446 0
h 1601 -161 -446 0
h -1602 162 0
h -1602 457 0
h 1602 -162 -457 0
h -1603 163 0
h -1603 468 0
h 1603 -163 -468 0
h -1604 164 0
h -1604 479 0
h 1604 -164 -479 0
h -1605 165 0
h -1605 490 0
h 1605 -165 -490 0
h -1606 166 0
h -1606 501 0
h 1606 -166 -501 0
h -1607 167 0
h -1607 512 0
h 1607 -167 -512 0
h -1608 168 0
h -1608 523 0
h 1608 -168 -523 0
h -1609 169 0
h -1609 534 0
h 1609 -169 -534 0
h -1610 170 0
h -1610 545 0
h 1610 -170 -545 0
h -1611 171 0
h -1611 556 0
h 1611 -171 -556 0
h -1612 172 0
h -1612 567 0
h 1612 -172 -567 0
h -1613 173 0
h -1613 578 0
h 1613 -173 -578 0
h -1614 174 0
h -1614 589 0
h 1614 -174 -589 0
h -1615 175 0
h -1615 600 0
h 1615 -175 -600 0
h -1616 176 0
h -1616 611 0
h 1616 -176 -611 0
h -1617 177 0
h -1617 622 0
h 1617 -177 -622 0
h -1618 178 0
h -1618 633 0
h 1618 -178 -633 0
h -1619 179 0
h -1619 644 0
h 1619 -179 -644 0
h -1620 180 0
h -1620 655 0
h 1620 -180 -655 0
h -1621 181 0
h -1621 666 0
h 1621 -181 -666 0
h -1622 182 0
h -1622 677 0
h 1622 -182 -677 0
h -1623 183 0
h -1623 688 0
h 1623 -183 -688 0
h -1624 184 0
h -1624 699 0
h 1624 -184 -699 0
h -1625 185 0
h -1625 710 0
h 1625 -185 -710 0
h -1626 186 0
h -1626 721 0
h 1626 -186 -721 0
h -1627 187 0
h -1627 732 0
h 1627 -187 -732 0
h -1628 188 0
h -1628 743 0
h 1628 -188 -743 0
h -1629 189 0
h -1629 754 0
h 1629 -189 -754 0
h -1630 190 0
h -1630 765 0
h 1630 -190 -765 0
h -1631 191 0
h -1631 776 0
h 1631 -191 -776 0
h -1632 192 0
h -1632 787 0
h 1632 -192 -787 0
h -1633 193 0
h -1633 798 0
h 1633 -193 -798 0
h -1634 194 0
h -1634 809 0
h 1634 -194 -809 0
h -1635 195 0
h -1635 820 0
h 1635 -195 -820 0
h -1636 196 0
h -1636 831 0
h 1636 -196 -831 0
h -1637 197 0
h -1637 842 0
h 1637 -197 -842 0
h -1638 198 0
h -1638 853 0
h 1638 -198 -853 0
h -1639 199 0
h -1639 864 0
h 1639 -199 -864 0
h -1640 200 0
h -1640 875 0
h 1640 -200 -875 0
h -161 -447 0
h -162 -458 0
h -163 -469 0
h -164 -480 0
h -165 -491 0
h -166 -502 0
h -167 -513 0
h -168 -524 0
h -169 -535 0
h -170 -546 0
h -171 -557 0
h -172 -568 0
h -173 -579 0
h -174 -590 0
h -175 -601 0
h -176 -612 0
h -177 -623 0
h -178 -634 0
h -179 -645 0
h -180 -656 0
h -181 -667 0
h -182 -678 0
h -183 -689 0
h -184 -700 0
h -185 -711 0
h -186 -722 0
h -187 -733 0
h -188 -744 0
h -189 -755 0
h -190 -766 0
h -191 -777 0
h -192 -788 0
h -193 -799 0
h -194 -810 0
h -195 -821 0
h -196 -832 0
h -197 -843 0
h -198 -854 0
h -199 -865 0
h -200 -876 0
h -161 -448 0
h -162 -459 0
h -163 -470 0
h -164 -481 0
h -165 -492 0
h -166 -503 0
h -167 -514 0
h -168 -525 0
h -169 -536 0
h -170 -547 0
h -171 -558 0
h -172 -569 0
h -173 -580 0
h -174 -591 0
h -175 -602 0
h -176 -613 0
h -177 -624 0
h -178 -635 0
h -179 -646 0
h -180 -657 0
h -181 -668 0
h -182 -679 0
h -183 -690 0
h -184 -701 0
h -185 -712 0
h -186 -723 0
h -187 -734 0
h -188 -745 0
h -189 -756 0
h -190 -767 0
h -191 -778 0
h -192 -789 0
h -193 -800 0
h -194 -811 0
h -195 -822 0
h -196 -833 0
h -197 -844 0
h -198 -855 0
h -199 -866 0
h -200 -877 0
h -161 -449 0
h -162 -460 0
h -163 -471 0
h -164 -482 0
h -165 -493 0
h -166 -504 0
h -167 -515 0
h -168 -526 0
h -169 -537 0
h -170 -548 0
h -171 -559 0
h -172 -570 0
h -173 -581 0
h -174 -592 0
h -175 -603 0
h -176 -614 0
h -177 -625 0
h -178 -636 0
h -179 -647 0
h -180 -658 0
h -181 -669 0
h -182 -680 0
h -183 -691 0
h -184 -702 0
h -185 -713 0
h -186 -724 0
h -187 -735 0
h -188 -746 0
h -189 -757 0
h -190 -768 0
h -191 -779 0
h -192 -790 0
h -193 -801 0
h -194 -812 0
h -195 -823 0
h -196 -834 0
h -197 -845 0
h -198 -856 0
h -199 -867 0
h -200 -878 0
h -161 -450 0
h -162 -461 0
h -163 -472 0
h -164 -483 0
h -165 -494 0
h -166 -505 0
h -167 -516 0
h -168 -527 0
h -169 -538 0
h -170 -549 0
h -171 -560 0
h -172 -571 0
h -173 -582 0
h -174 -593 0
h -175 -604 0
h -176 -615 0
h -177 -626 0
h -178 -637 0
h -179 -648 0
h -180 -659 0
h -181 -670 0
h -182 -681 0
h -183 -692 0
h -184 -703 0
h -185 -714 0
h -186 -725 0
h -187 -736 0
h -188 -747 0
h -189 -758 0
h -190 -769 0
h -191 -780 0
h -192 -791 0
h -193 -802 0
h -194 -813 0
h -195 -824 0
h -196 -835 0
h -197 -846 0
h -198 -857 0
h -199 -868 0
h -200 -879 0
h -161 -451 0
h -162 -462 0
h -163 -473 0
h -164 -484 0
h -165 -495 0
h -166 -506 0
h -167 -517 0
h -168 -528 0
h -169 -539 0
h -170 -550 0
h -171 -561 0
h -172 -572 0
h -173 -583 0
h -174 -594 0
h -175 -605 0
h -176 -616 0
h -177 -627 0
h -178 -638 0
h -179 -649 0
h -180 -660 0
h -181 -671 0
h -182 -682 0
h -183 -693 0
h -184 -704 0
h -185 -715 0
h -186 -726 0
h -187 -737 0
h -188 -748 0
h -189 -759 0
h -190 -770 0
h -191 -781 0
h -192 -792 0
h -193 -803 0
h -194 -814 0
h -195 -825 0
h -196 -836 0
h -197 -847 0
h -198 -858 0
h -199 -869 0
h -200 -880 0
h 1641 1642 1643 1644 1645 1646 1647 1648 1649 1650 1651 1652 1653 1654 1655 1656 1657 1658 1659 1660 1661 1662 1663 1664 1665 1666 1667 1668 1669 1670 1671 1672 1673 1674 1675 1676 1677 1678 1679 1680 0
h -1641 201 0
h -1641 441 0
h 1641 -201 -441 0
h -1642 202 0
h -1642 452 0
h 1642 -202 -452 0
h -1643 203 0
h -1643 463 0
h 1643 -203 -463 0
h -1644 204 0
h -1644 474 0
h 1644 -204 -474 0
h -1645 205 0
h -1645 485 0
h 1645 -205 -485 0
h -1646 206 0
h -1646 496 0
h 1646 -206 -496 0
h -1647 207 0
h -1647 507 0
h 1647 -207 -507 0
h -1648 208 0
h -1648 518 0
h 1648 -208 -518 0
h -1649 209 0
h -1649 529 0
h 1649 -209 -529 0
h -1650 210 0
h -1650 540 0
h 1650 -210 -540 0
h -1651 211 0
h -1651 551 0
h 1651 -211 -551 0
h -1652 212 0
h -1652 562 0
h 1652 -212 -562 0
h -1653 213 0
h -1653 573 0
h 1653 -213 -573 0
h -1654 214 0
h -1654 584 0
h 1654 -214 -584 0
h -1655 215 0
h -1655 595 0
h 1655 -215 -595 0
h -1656 216 0
h -1656 606 0
h 1656 -216 -606 0
h -1657 217 0
h -1657 617 0
h 1657 -217 -617 0
h -1658 218 0
h -1658 628 0
h 1658 -218 -628 0
h -1659 219 0
h -1659 639 0
h 1659 -219 -639 0
h -1660 220 0
h -1660 650 0
h 1660 -220 -650 0
h -1661 221 0
h -1661 661 0
h 1661 -221 -661 0
h -1662 222 0
h -1662 672 0
h 1662 -222 -672 0
h -1663 223 0
h -1663 683 0
h 1663 -223 -683 0
h -1664 224 0
h -1664 694 0
h 1664 -224 -694 0
h -1665 225 0
h -1665 705 0
h 1665 -225 -705 0
h -1666 226 0
h -1666 716 0
h 1666 -226 -716 0
h -1667 227 0
h -1667 727 0
h 1667 -227 -727 0
h -1668 228 0
h -1668 738 0
h 1668 -228 -738 0
h -1669 229 0
h -1669 749 0
h 1669 -229 -749 0
h -1670 230 0
h -1670 760 0
h 1670 -230 -760 0
h -1671 231 0
h -1671 771 0
h 1671 -231 -771 0
h -1672 232 0
h -1672 782 0
h 1672 -232 -782 0
h -1673 233 0
h -1673 793 0
h 1673 -233 -793 0
h -1674 234 0
h -1674 804 0
h 1674 -234 -804 0
h -1675 235 0
h -1675 815 0
h 1675 -235 -815 0
h -1676 236 0
h -1676 826 0
h 1676 -236 -826 0
h -1677 237 0
h -1677 837 0
h 1677 -237 -837 0
h -1678 238 0
h -1678 848 0
h 1678 -238 -848 0
h -1679 239 0
h -1679 859 0
h 1679 -239 -859 0
h -1680 240 0
h -1680 870 0
h 1680 -240 -870 0
h -201 -442 0
h -202 -453 0
h -203 -464 0
h -204 -475 0
h -205 -486 0
h -206 -497 0
h -207 -508 0
h -208 -519 0
h -209 -530 0
h -210 -541 0
h -211 -552 0
h -212 -563 0
h -213 -574 0
h -214 -585 0
h -215 -596 0
h -216 -607 0
h -217 -618 0
h -218 -629 0
h -219 -640 0
h -220 -651 0
h -221 -662 0
h -222 -673 0
h -223 -684 0
h -224 -695 0
h -225 -706 0
h -226 -717 0
h -227 -728 0
h -228 -739 0
h -229 -750 0
h -230 -761 0
h -231 -772 0
h -232 -783 0
h -233 -794 0
h -234 -805 0
h -235 -816 0
h -236 -827 0
h -237 -838 0
h -238 -849 0
h -239 -860 0
h -240 -871 0
h -201 -443 0
h -202 -454 0
h -203 -465 0
h -204 -476 0
h -205 -487 0
h -206 -498 0
h -207 -509 0
h -208 -520 0
h -209 -531 0
h -210 -542 0
h -211 -553 0
h -212 -564 0
h -213 -575 0
h -214 -586 0
h -215 -597 0
h -216 -608 0
h -217 -619 0
h -218 -630 0
h -219 -641 0
h -220 -652 0
h -221 -663 0
h -222 -674 0
h -223 -685 0
h -224 -696 0
h -225 -707 0
h -226 -718 0
h -227 -729 0
h -228 -740 0
h -229 -751 0
h -230 -762 0
h -231 -773 0
h -232 -784 0
h -233 -795 0
h -234 -806 0
h -235 -817 0
h -236 -828 0
h -237 -839 0
h -238 -850 0
h -239 -861 0
h -240 -872 0
h -201 -444 0
h -202 -455 0
h -203 -466 0
h -204 -477 0
h -205 -488 0
h -206 -499 0
h -207 -510 0
h -208 -521 0
h -209 -532 0
h -210 -543 0
h -211 -554 0
h -212 -565 0
h -213 -576 0
h -214 -587 0
h -215 -598 0
h -216 -609 0
h -217 -620 0
h -218 -631 0
h -219 -642 0
h -220 -653 0
h -221 -664 0
h -222 -675 0
h -223 -686 0
h -224 -697 0
h -225 -708 0
h -226 -719 0
h -227 -730 0
h -228 -741 0
h -229 -752 0
h -230 -763 0
h -231 -774 0
h -232 -785 0
h -233 -796 0
h -234 -807 0
h -235 -818 0
h -236 -829 0
h -237 -840 0
h -238 -851 0
h -239 -862 0
h -240 -873 0
h -201 -445 0
h -202 -456 0
h -203 -467 0
h -204 -478 0
h -205 -489 0
h -206 -500 0
h -207 -511 0
h -208 -522 0
h -209 -533 0
h -210 -544 0
h -211 -555 0
h -212 -566 0
h -213 -577 0
h -214 -588 0
h -215 -599 0
h -216 -610 0
h -217 -621 0
h -218 -632 0
h -219 -643 0
h -220 -654 0
h -221 -665 0
h -222 -676 0
h -223 -687 0
h -224 -698 0
h -225 -709 0
h -226 -720 0
h -227 -731 0
h -228 -742 0
h -229 -753 0
h -230 -764 0
h -231 -775 0
h -232 -786 0
h -233 -797 0
h -234 -808 0
h -235 -819 0
h -236 -830 0
h -237 -841 0
h -238 -852 0
h -239 -863 0
h -240 -874 0
h -201 -446 0
h -202 -457 0
h -203 -468 0
h -204 -479 0
h -205 -490 0
h -206 -501 0
h -207 -512 0
h -208 -523 0
h -209 -534 0
h -210 -545 0
h -211 -556 0
h -212 -567 0
h -213 -578 0
h -214 -589 0
h -215 -600 0
h -216 -611 0
h -217 -622 0
h -218 -633 0
h -219 -644 0
h -220 -655 0
h -221 -666 0
h -222 -677 0
h -223 -688 0
h -224 -699 0
h -225 -710 0
h -226 -721 0
h -227 -732 0
h -228 -743 0
h -229 -754 0
h -230 -765 0
h -231 -776 0
h -232 -787 0
h -233 -798 0
h -234 -809 0
h -235 -820 0
h -236 -831 0
h -237 -842 0
h -238 -853 0
h -239 -864 0
h -240 -875 0
h -201 -447 0
h -202 -458 0
h -203 -469 0
h -204 -480 0
h -205 -491 0
h -206 -502 0
h -207 -513 0
h -208 -524 0
h -209 -535 0
h -210 -546 0
h -211 -557 0
h -212 -568 0
h -213 -579 0
h -214 -590 0
h -215 -601 0
h -216 -612 0
h -217 -623 0
h -218 -634 0
h -219 -645 0
h -220 -656 0
h -221 -667 0
h -222 -678 0
h -223 -689 0
h -224 -700 0
h -225 -711 0
h -226 -722 0
h -227 -733 0
h -228 -744 0
h -229 -755 0
h -230 -766 0
h -231 -777 0
h -232 -788 0
h -233 -799 0
h -234 -810 0
h -235 -821 0
h -236 -832 0
h -237 -843 0
h -238 -854 0
h -239 -865 0
h -240 -876 0
h -201 -448 0
h -202 -459 0
h -203 -470 0
h -204 -481 0
h -205 -492 0
h -206 -503 0
h -207 -514 0
h -208 -525 0
h -209 -536 0
h -210 -547 0
h -211 -558 0
h -212 -569 0
h -213 -580 0
h -214 -591 0
h -215 -602 0
h -216 -613 0
h -217 -624 0
h -218 -635 0
h -219 -646 0
h -220 -657 0
h -221 -668 0
h -222 -679 0
h -223 -690 0
h -224 -701 0
h -225 -712 0
h -226 -723 0
h -227 -734 0
h -228 -745 0
h -229 -756 0
h -230 -767 0
h -231 -778 0
h -232 -789 0
h -233 -800 0
h -234 -811 0
h -235 -822 0
h -236 -833 0
h -237 -844 0
h -238 -855 0
h -239 -866 0
h -240 -877 0
h -201 -449 0
h -202 -460 0
h -203 -471 0
h -204 -482 0
h -205 -493 0
h -206 -504 0
h -207 -515 0
h -208 -526 0
h -209 -537 0
h -210 -548 0
h -211 -559 0
h -212 -570 0
h -213 -581 0
h -214 -592 0
h -215 -603 0
h -216 -614 0
h -217 -625 0
h -218 -636 0
h -219 -647 0
h -220 -658 0
h -221 -669 0
h -222 -680 0
h -223 -691 0
h -224 -702 0
h -225 -713 0
h -226 -724 0
h -227 -735 0
h -228 -746 0
h -229 -757 0
h -230 -768 0
h -231 -779 0
h -232 -790 0
h -233 -801 0
h -234 -812 0
h -235 -823 0
h -236 -834 0
h -237 -845 0
h -238 -856 0
h -239 -867 0
h -240 -878 0
h -201 -450 0
h -202 -461 0
h -203 -472 0
h -204 -483 0
h -205 -494 0
h -206 -505 0
h -207 -516 0
h -208 -527 0
h -209 -538 0
h -210 -549 0
h -211 -560 0
h -212 -571 0
h -213 -582 0
h -214 -593 0
h -215 -604 0
h -216 -615 0
h -217 -626 0
h -218 -637 0
h -219 -648 0
h -220 -659 0
h -221 -670 0
h -222 -681 0
h -223 -692 0
h -224 -703 0
h -225 -714 0
h -226 -725 0
h -227 -736 0
h -228 -747 0
h -229 -758 0
h -230 -769 0
h -231 -780 0
h -232 -791 0
h -233 -802 0
h -234 -813 0
h -235 -824 0
h -236 -835 0
h -237 -846 0
h -238 -857 0
h -239 -868 0
h -240 -879 0
h -201 -451 0
h -202 -462 0
h -203 -473 0
h -204 -484 0
h -205 -495 0
h -206 -506 0
h -207 -517 0
h -208 -528 0
h -209 -539 0
h -210 -550 0
h -211 -561 0
h -212 -572 0
h -213 -583 0
h -214 -594 0
h -215 -605 0
h -216 -616 0
h -217 -627 0
h -218 -638 0
h -219 -649 0
h -220 -660 0
h -221 -671 0
h -222 -682 0
h -223 -693 0
h -224 -704 0
h -225 -715 0
h -226 -726 0
h -227 -737 0
h -228 -748 0
h -229 -759 0
h -230 -770 0
h -231 -781 0
h -232 -792 0
h -233 -803 0
h -234 -814 0
h -235 -825 0
h -236 -836 0
h -237 -847 0
h -238 -858 0
h -239 -869 0
h -240 -880 0
h -241 -441 0
h -242 -452 0
h -243 -463 0
h -244 -474 0
h -245 -485 0
h -246 -496 0
h -247 -507 0
h -248 -518 0
h -249 -529 0
h -250 -540 0
h -251 -551 0
h -252 -562 0
h -253 -573 0
h -254 -584 0
h -255 -595 0
h -256 -606 0
h -257 -617 0
h -258 -628 0
h -259 -639 0
h -260 -650 0
h -261 -661 0
h -262 -672 0
h -263 -683 0
h -264 -694 0
h -265 -705 0
h -266 -716 0
h -267 -727 0
h -268 -738 0
h -269 -749 0
h -270 -760 0
h -271 -771 0
h -272 -782 0
h -273 -793 0
h -274 -804 0
h -275 -815 0
h -276 -826 0
h -277 -837 0
h -278 -848 0
h -279 -859 0
h -280 -870 0
h -241 -442 0
h -242 -453 0
h -243 -464 0
h -244 -475 0
h -245 -486 0
h -246 -497 0
h -247 -508 0
h -248 -519 0
h -249 -530 0
h -250 -541 0
h -251 -552 0
h -252 -563 0
h -253 -574 0
h -254 -585 0
h -255 -596 0
h -256 -607 0
h -257 -618 0
h -258 -629 0
h -259 -640 0
h -260 -651 0
h -261 -662 0
h -262 -673 0
h -263 -684 0
h -264 -695 0
h -265 -706 0
h -266 -717 0
h -267 -728 0
h -268 -739 0
h -269 -750 0
h -270 -761 0
h -271 -772 0
h -272 -783 0
h -273 -794 0
h -274 -805 0
h -275 -816 0
h -276 -827 0
h -277 -838 0
h -278 -849 0
h -279 -860 0
h -280 -871 0
h -241 -443 0
h -242 -454 0
h -243 -465 0
h -244 -476 0
h -245 -487 0
h -246 -498 0
h -247 -509 0
h -248 -520 0
h -249 -531 0
h -250 -542 0
h -251 -553 0
h -252 -564 0
h -253 -575 0
h -254 -586 0
h -255 -597 0
h -256 -608 0
h -257 -619 0
h -258 -630 0
h -259 -641 0
h -260 -652 0
h -261 -663 0
h -262 -674 0
h -263 -685 0
h -264 -696 0
h -265 -707 0
h -266 -718 0
h -267 -729 0
h -268 -740 0
h -269 -751 0
h -270 -762 0
h -271 -773 0
h -272 -784 0
h -273 -795 0
h -274 -806 0
h -275 -817 0
h -276 -828 0
h -277 -839 0
h -278 -850 0
h -279 -861 0
h -280 -872 0
h -241 -444 0
h -242 -455 0
h -243 -466 0
h -244 -477 0
h -245 -488 0
h -246 -499 0
h -247 -510 0
h -248 -521 0
h -249 -532 0
h -250 -543 0
h -251 -554 0
h -252 -565 0
h -253 -576 0
h -254 -587 0
h -255 -598 0
h -256 -609 0
h -257 -620 0
h -258 -631 0
h -259 -642 0
h -260 -653 0
h -261 -664 0
h -262 -675 0
h -263 -686 0
h -264 -697 0
h -265 -708 0
h -266 -719 0
h -267 -730 0
h -268 -741 0
h -269 -752 0
h -270 -763 0
h -271 -774 0
h -272 -785 0
h -273 -796 0
h -274 -807 0
h -275 -818 0
h -276 -829 0
h -277 -840 0
h -278 -851 0
h -279 -862 0
h -280 -873 0
h -241 -445 0
h -242 -456 0
h -243 -467 0
h -244 -478 0
h -245 -489 0
h -246 -500 0
h -247 -511 0
h -248 -522 0
h -249 -533 0
h -250 -544 0
h -251 -555 0
h -252 -566 0
h -253 -577 0
h -254 -588 0
h -255 -599 0
h -256 -610 0
h -257 -621 0
h -258 -632 0
h -259 -643 0
h -260 -654 0
h -261 -665 0
h -262 -676 0
h -263 -687 0
h -264 -698 0
h -265 -709 0
h -266 -720 0
h -267 -731 0
h -268 -742 0
h -269 -753 0
h -270 -764 0
h -271 -775 0
h -272 -786 0
h -273 -797 0
h -274 -808 0
h -275 -819 0
h -276 -830 0
h -277 -841 0
h -278 -852 0
h -279 -863 0
h -280 -874 0
h -241 -446 0
h -242 -457 0
h -243 -468 0
h -244 -479 0
h -245 -490 0
h -246 -501 0
h -247 -512 0
h -248 -523 0
h -249 -534 0
h -250 -545 0
h -251 -556 0
h -252 -567 0
h -253 -578 0
h -254 -589 0
h -255 -600 0
h -256 -611 0
h -257 -622 0
h -258 -633 0
h -259 -644 0
h -260 -655 0
h -261 -666 0
h -262 -677 0
h -263 -688 0
h -264 -699 0
h -265 -710 0
h -266 -721 0
h -267 -732 0
h -268 -743 0
h -269 -754 0
h -270 -765 0
h -271 -776 0
h -272 -787 0
h -273 -798 0
h -274 -809 0
h -275 -820 0
h -276 -831 0
h -277 -842 0
h -278 -853 0
h -279 -864 0
h -280 -875 0
h -241 -447 0
h -242 -458 0
h -243 -469 0
h -244 -480 0
h -245 -491 0
h -246 -502 0
h -247 -513 0
h -248 -524 0
h -249 -535 0
h -250 -546 0
h -251 -557 0
h -252 -568 0
h -253 -579 0
h -254 -590 0
h -255 -601 0
h -256 -612 0
h -257 -623 0
h -258 -634 0
h -259 -645 0
h -260 -656 0
h -261 -667 0
h -262 -678 0
h -263 -689 0
h -264 -700 0
h -265 -711 0
h -266 -722 0
h -267 -733 0
h -268 -744 0
h -269 -755 0
h -270 -766 0
h -271 -777 0
h -272 -788 0
h -273 -799 0
h -274 -810 0
h -275 -821 0
h -276 -832 0
h -277 -843 0
h -278 -854 0
h -279 -865 0
h -280 -876 0
h -241 -448 0
h -242 -459 0
h -243 -470 0
h -244 -481 0
h -245 -492 0
h -246 -503 0
h -247 -514 0
h -248 -525 0
h -249 -536 0
h -250 -547 0
h -251 -558 0
h -252 -569 0
h -253 -580 0
h -254 -591 0
h -255 -602 0
h -256 -613 0
h -257 -624 0
h -258 -635 0
h -259 -646 0
h -260 -657 0
h -261 -668 0
h -262 -679 0
h -263 -690 0
h -264 -701 0
h -265 -712 0
h -266 -723 0
h -267 -734 0
h -268 -745 0
h -269 -756 0
h -270 -767 0
h -271 -778 0
h -272 -789 0
h -273 -800 0
h -274 -811 0
h -275 -822 0
h -276 -833 0
h -277 -844 0
h -278 -855 0
h -279 -866 0
h -280 -877 0
h -241 -449 0
h -242 -460 0
h -243 -471 0
h -244 -482 0
h -245 -493 0
h -246 -504 0
h -247 -515 0
h -248 -526 0
h -249 -537 0
h -250 -548 0
h -251 -559 0
h -252 -570 0
h -253 -581 0
h -254 -592 0
h -255 -603 0
h -256 -614 0
h -257 -625 0
h -258 -636 0
h -259 -647 0
h -260 -658 0
h -261 -669 0
h -262 -680 0
h -263 -691 0
h -264 -702 0
h -265 -713 0
h -266 -724 0
h -267 -735 0
h -268 -746 0
h -269 -757 0
h -270 -768 0
h -271 -779 0
h -272 -790 0
h -273 -801 0
h -274 -812 0
h -275 -823 0
h -276 -834 0
h -277 -845 0
h -278 -856 0
h -279 -867 0
h -280 -878 0
h -241 -450 0
h -242 -461 0
h -243 -472 0
h -244 -483 0
h -245 -494 0
h -246 -505 0
h -247 -516 0
h -248 -527 0
h -249 -538 0
h -250 -549 0
h -251 -560 0
h -252 -571 0
h -253 -582 0
h -254 -593 0
h -255 -604 0
h -256 -615 0
h -257 -626 0
h -258 -637 0
h -259 -648 0
h -260 -659 0
h -261 -670 0
h -262 -681 0
h -263 -692 0
h -264 -703 0
h -265 -714 0
h -266 -725 0
h -267 -736 0
h -268 -747 0
h -269 -758 0
h -270 -769 0
h -271 -780 0
h -272 -791 0
h -273 -802 0
h -274 -813 0
h -275 -824 0
h -276 -835 0
h -277 -846 0
h -278 -857 0
h -279 -868 0
h -280 -879 0
h -241 -451 0
h -242 -462 0
h -243 -473 0
h -244 -484 0
h -245 -495 0
h -246 -506 0
h -247 -517 0
h -248 -528 0
h -249 -539 0
h -250 -550 0
h -251 -561 0
h -252 -572 0
h -253 -583 0
h -254 -594 0
h -255 -605 0
h -256 -616 0
h -257 -627 0
h -258 -638 0
h -259 -649 0
h -260 -660 0
h -261 -671 0
h -262 -682 0
h -263 -693 0
h -264 -704 0
h -265 -715 0
h -266 -726 0
h -267 -737 0
h -268 -748 0
h -269 -759 0
h -270 -770 0
h -271 -781 0
h -272 -792 0
h -273 -803 0
h -274 -814 0
h -275 -825 0
h -276 -836 0
h -277 -847 0
h -278 -858 0
h -279 -869 0
h -280 -880 0
h -281 -441 0
h -282 -452 0
h -283 -463 0
h -284 -474 0
h -285 -485 0
h -286 -496 0
h -287 -507 0
h -288 -518 0
h -289 -529 0
h -290 -540 0
h -291 -551 0
h -292 -562 0
h -293 -573 0
h -294 -584 0
h -295 -595 0
h -296 -606 0
h -297 -617 0
h -298 -628 0
h -299 -639 0
h -300 -650 0
h -301 -661 0
h -302 -672 0
h -303 -683 0
h -304 -694 0
h -305 -705 0
h -306 -716 0
h -307 -727 0
h -308 -738 0
h -309 -749 0
h -310 -760 0
h -311 -771 0
h -312 -782 0
h -313 -793 0
h -314 -804 0
h -315 -815 0
h -316 -826 0
h -317 -837 0
h -318 -848 0
h -319 -859 0
h -320 -870 0
h 1681 1682 1683 1684 1685 1686 1687 1688 1689 1690 1691 1692 1693 1694 1695 1696 1697 1698 1699 1700 1701 1702 1703 1704 1705 1706 1707 1708 1709 1710 1711 1712 1713 1714 1715 1716 1717 1718 1719 1720 0
h -1681 281 0
h -1681 442 0
h 1681 -281 -442 0
h -1682 282 0
h -1682 453 0
h 1682 -282 -453 0
h -1683 283 0
h -1683 464 0
h 1683 -283 -464 0
h -1684 284 0
h -1684 475 0
h 1684 -284 -475 0
h -1685 285 0
h -1685 486 0
h 1685 -285 -486 0
h -1686 286 0
h -1686 497 0
h 1686 -286 -497 0
h -1687 287 0
h -1687 508 0
h 1687 -287 -508 0
h -1688 288 0
h -1688 519 0
h 1688 -288 -519 0
h -1689 289 0
h -1689 530 0
h 1689 -289 -530 0
h -1690 290 0
h -1690 541 0
h 1690 -290 -541 0
h -1691 291 0
h -1691 552 0
h 1691 -291 -552 0
h -1692 292 0
h -1692 563 0
h 1692 -292 -563 0
h -1693 293 0
h -1693 574 0
h 1693 -293 -574 0
h -1694 294 0
h -1694 585 0
h 1694 -294 -585 0
h -1695 295 0
h -1695 596 0
h 1695 -295 -596 0
h -1696 296 0
h -1696 607 0
h 1696 -296 -607 0
h -1697 297 0
h -1697 618 0
h 1697 -297 -618 0
h -1698 298 0
h -1698 629 0
h 1698 -298 -629 0
h -1699 299 0
h -1699 640 0
h 1699 -299 -640 0
h -1700 300 0
h -1700 651 0
h 1700 -300 -651 0
h -1701 301 0
h -1701 662 0
h 1701 -301 -662 0
h -1702 302 0
h -1702 673 0
h 1702 -302 -673 0
h -1703 303 0
h -1703 684 0
h 1703 -303 -684 0
h -1704 304 0
h -1704 695 0
h 1704 -304 -695 0
h -1705 305 0
h -1705 706 0
h 1705 -305 -706 0
h -1706 306 0
h -1706 717 0
h 1706 -306 -717 0
h -1707 307 0
h -1707 728 0
h 1707 -307 -728 0
h -1708 308 0
h -1708 739 0
h 1708 -308 -739 0
h -1709 309 0
h -1709 750 0
h 1709 -309 -750 0
h -1710 310 0
h -1710 761 0
h 1710 -310 -761 0
h -1711 311 0
h -1711 772 0
h 1711 -311 -772 0
h -1712 312 0
h -1712 783 0
h 1712 -312 -783 0
h -1713 313 0
h -1713 794 0
h 1713 -313 -794 0
h -1714 314 0
h -1714 805 0
h 1714 -314 -805 0
h -1715 315 0
h -1715 816 0
h 1715 -315 -816 0
h -1716 316 0
h -1716 827 0
h 1716 -316 -827 0
h -1717 317 0
h -1717 838 0
h 1717 -317 -838 0
h -1718 318 0
h -1718 849 0
h 1718 -318 -849 0
h -1719 319 0
h -1719 860 0
h 1719 -319 -860 0
h -1720 320 0
h -1720 871 0
h 1720 -320 -871 0
h 1721 1722 1723 1724 1725 1726 1727 1728 1729 1730 1731 1732 1733 1734 1735 1736 1737 1738 1739 1740 1741 1742 1743 1744 1745 1746 1747 1748 1749 1750 1751 1752 1753 1754 1755 1756 1757 1758 1759 1760 0
h -1721 281 0
h -1721 443 0
h 1721 -281 -443 0
h -1722 282 0
h -1722 454 0
h 1722 -282 -454 0
h -1723 283 0
h -1723 465 0
h 1723 -283 -465 0
h -1724 284 0
h -1724 476 0
h 1724 -284 -476 0
h -1725 285 0
h -1725 487 0
h 1725 -285 -487 0
h -1726 286 0
h -1726 498 0
h 1726 -286 -498 0
h -1727 287 0
h -1727 509 0
h 1727 -287 -509 0
h -1728 288 0
h -1728 520 0
h 1728 -288 -520 0
h -1729 289 0
h -1729 531 0
h 1729 -289 -531 0
h -1730 290 0
h -1730 542 0
h 1730 -290 -542 0
h -1731 291 0
h -1731 553 0
h 1731 -291 -553 0
h -1732 292 0
h -1732 564 0
h 1732 -292 -564 0
h -1733 293 0
h -1733 575 0
h 1733 -293 -575 0
h -1734 294 0
h -1734 586 0
h 1734 -294 -586 0
h -1735 295 0
h -1735 597 0
h 1735 -295 -597 0
h -1736 296 0
h -1736 608 0
h 1736 -296 -608 0
h -1737 297 0
h -1737 619 0
h 1737 -297 -619 0
h -1738 298 0
h -1738 630 0
h 1738 -298 -630 0
h -1739 299 0
h -1739 641 0
h 1739 -299 -641 0
h -1740 300 0
h -1740 652 0
h 1740 -300 -652 0
h -1741 301 0
h -1741 663 0
h 1741 -301 -663 0
h -1742 302 0
h -1742 674 0
h 1742 -302 -674 0
h -1743 303 0
h -1743 685 0
h 1743 -303 -685 0
h -1744 304 0
h -1744 696 0
h 1744 -304 -696 0
h -1745 305 0
h -1745 707 0
h 1745 -305 -707 0
h -1746 306 0
h -1746 718 0
h 1746 -306 -718 0
h -1747 307 0
h -1747 729 0
h 1747 -307 -729 0
h -1748 308 0
h -1748 740 0
h 1748 -308 -740 0
h -1749 309 0
h -1749 751 0
h 1749 -309 -751 0
h -1750 310 0
h -1750 762 0
h 1750 -310 -762 0
h -1751 311 0
h -1751 773 0
h 1751 -311 -773 0
h -1752 312 0
h -1752 784 0
h 1752 -312 -784 0
h -1753 313 0
h -1753 795 0
h 1753 -313 -795 0
h -1754 314 0
h -1754 806 0
h 1754 -314 -806 0
h -1755 315 0
h -1755 817 0
h 1755 -315 -817 0
h -1756 316 0
h -1756 828 0
h 1756 -316 -828 0
h -1757 317 0
h -1757 839 0
h 1757 -317 -839 0
h -1758 318 0
h -1758 850 0
h 1758 -318 -850 0
h -1759 319 0
h -1759 861 0
h 1759 -319 -861 0
h -1760 320 0
h -1760 872 0
h 1760 -320 -872 0
h 1761 1762 1763 1764 1765 1766 1767 1768 1769 1770 1771 1772 1773 1774 1775 1776 1777 1778 1779 1780 1781 1782 1783 1784 1785 1786 1787 1788 1789 1790 1791 1792 1793 1794 1795 1796 1797 1798 1799 1800 0
h -1761 281 0
h -1761 444 0
h 1761 -281 -444 0
h -1762 282 0
h -1762 455 0
h 1762 -282 -455 0
h -1763 283 0
h -1763 466 0
h 1763 -283 -466 0
h -1764 284 0
h -1764 477 0
h 1764 -284 -477 0
h -1765 285 0
h -1765 488 0
h 1765 -285 -488 0
h -1766 286 0
h -1766 499 0
h 1766 -286 -499 0
h -1767 287 0
h -1767 510 0
h 1767 -287 -510 0
h -1768 288 0
h -1768 521 0
h 1768 -288 -521 0
h -1769 289 0
h -1769 532 0
h 1769 -289 -532 0
h -1770 290 0
h -1770 543 0
h 1770 -290 -543 0
h -1771 291 0
h -1771 554 0
h 1771 -291 -554 0
h -1772 292 0
h -1772 565 0
h 1772 -292 -565 0
h -1773 293 0
h -1773 576 0
h 1773 -293 -576 0
h -1774 294 0
h -1774 587 0
h 1774 -294 -587 0
h -1775 295 0
h -1775 598 0
h 1775 -295 -598 0
h -1776 296 0
h -1776 609 0
h 1776 -296 -609 0
h -1777 297 0
h -1777 620 0
h 1777 -297 -620 0
h -1778 298 0
h -1778 631 0
h 1778 -298 -631 0
h -1779 299 0
h -1779 642 0
h 1779 -299 -642 0
h -1780 300 0
h -1780 653 0
h 1780 -300 -653 0
h -1781 301 0
h -1781 664 0
h 1781 -301 -664 0
h -1782 302 0
h -1782 675 0
h 1782 -302 -675 0
h -1783 303 0
h -1783 686 0
h 1783 -303 -686 0
h -1784 304 0
h -1784 697 0
h 1784 -304 -697 0
h -1785 305 0
h -1785 708 0
h 1785 -305 -708 0
h -1786 306 0
h -1786 719 0
h 1786 -306 -719 0
h -1787 307 0
h -1787 730 0
h 1787 -307 -730 0
h -1788 308 0
h -1788 741 0
h 1788 -308 -741 0
h -1789 309 0
h -1789 752 0
h 1789 -309 -752 0
h -1790 310 0
h -1790 763 0
h 1790 -310 -763 0
h -1791 311 0
h -1791 774 0
h 1791 -311 -774 0
h -1792 312 0
h -1792 785 0
h 1792 -312 -785 0
h -1793 313 0
h -1793 796 0
h 1793 -313 -796 0
h -1794 314 0
h -1794 807 0
h 1794 -314 -807 0
h -1795 315 0
h -1795 818 0
h 1795 -315 -818 0
h -1796 316 0
h -1796 829 0
h 1796 -316 -829 0
h -1797 317 0
h -1797 840 0
h 1797 -317 -840 0
h -1798 318 0
h -1798 851 0
h 1798 -318 -851 0
h -1799 319 0
h -1799 862 0
h 1799 -319 -862 0
h -1800 320 0
h -1800 873 0
h 1800 -320 -873 0
h -281 -445 0
h -282 -456 0
h -283 -467 0
h -284 -478 0
h -285 -489 0
h -286 -500 0
h -287 -511 0
h -288 -522 0
h -289 -533 0
h -290 -544 0
h -291 -555 0
h -292 -566 0
h -293 -577 0
h -294 -588 0
h -295 -599 0
h -296 -610 0
h -297 -621 0
h -298 -632 0
h -299 -643 0
h -300 -654 0
h -301 -665 0
h -302 -676 0
h -303 -687 0
h -304 -698 0
h -305 -709 0
h -306 -720 0
h -307 -731 0
h -308 -742 0
h -309 -753 0
h -310 -764 0
h -311 -775 0
h -312 -786 0
h -313 -797 0
h -314 -808 0
h -315 -819 0
h -316 -830 0
h -317 -841 0
h -318 -852 0
h -319 -863 0
h -320 -874 0
h -281 -446 0
h -282 -457 0
h -283 -468 0
h -284 -479 0
h -285 -490 0
h -286 -501 0
h -287 -512 0
h -288 -523 0
h -289 -534 0
h -290 -545 0
h -291 -556 0
h -292 -567 0
h -293 -578 0
h -294 -589 0
h -295 -600 0
h -296 -611 0
h -297 -622 0
h -298 -633 0
h -299 -644 0
h -300 -655 0
h -301 -666 0
h -302 -677 0
h -303 -688 0
h -304 -699 0
h -305 -710 0
h -306 -721 0
h -307 -732 0
h -308 -743 0
h -309 -754 0
h -310 -765 0
h -311 -776 0
h -312 -787 0
h -313 -798 0
h -314 -809 0
h -315 -820 0
h -316 -831 0
h -317 -842 0
h -318 -853 0
h -319 -864 0
h -320 -875 0
h 1801 1802 1803 1804 1805 1806 1807 1808 1809 1810 1811 1812 1813 1814 1815 1816 1817 1818 1819 1820 1821 1822 1823 1824 1825 1826 1827 1828 1829 1830 1831 1832 1833 1834 1835 1836 1837 1838 1839 1840 0
h -1801 281 0
h -1801 447 0
h 1801 -281 -447 0
h -1802 282 0
h -1802 458 0
h 1802 -282 -458 0
h -1803 283 0
h -1803 469 0
h 1803 -283 -469 0
h -1804 284 0
h -1804 480 0
h 1804 -284 -480 0
h -1805 285 0
h -1805 491 0
h 1805 -285 -491 0
h -1806 286 0
h -1806 502 0
h 1806 -286 -502 0
h -1807 287 0
h -1807 513 0
h 1807 -287 -513 0
h -1808 288 0
h -1808 524 0
h 1808 -288 -524 0
h -1809 289 0
h -1809 535 0
h 1809 -289 -535 0
h -1810 290 0
h -1810 546 0
h 1810 -290 -546 0
h -1811 291 0
h -1811 557 0
h 1811 -291 -557 0
h -1812 292 0
h -1812 568 0
h 1812 -292 -568 0
h -1813 293 0
h -1813 579 0
h 1813 -293 -579 0
h -1814 294 0
h -1814 590 0
h 1814 -294 -590 0
h -1815 295 0
h -1815 601 0
h 1815 -295 -601 0
h -1816 296 0
h -1816 612 0
h 1816 -296 -612 0
h -1817 297 0
h -1817 623 0
h 1817 -297 -623 0
h -1818 298 0
h -1818 634 0
h 1818 -298 -634 0
h -1819 299 0
h -1819 645 0
h 1819 -299 -645 0
h -1820 300 0
h -1820 656 0
h 1820 -300 -656 0
h -1821 301 0
h -1821 667 0
h 1821 -301 -667 0
h -1822 302 0
h -1822 678 0
h 1822 -302 -678 0
h -1823 303 0
h -1823 689 0
h 1823 -303 -689 0
h -1824 304 0
h -1824 700 0
h 1824 -304 -700 0
h -1825 305 0
h -1825 711 0
h 1825 -305 -711 0
h -1826 306 0
h -1826 722 0
h 1826 -306 -722 0
h -1827 307 0
h -1827 733 0
h 1827 -307 -733 0
h -1828 308 0
h -1828 744 0
h 1828 -308 -744 0
h -1829 309 0
h -1829 755 0
h 1829 -309 -755 0
h -1830 310 0
h -1830 766 0
h 1830 -310 -766 0
h -1831 311 0
h -1831 777 0
h 1831 -311 -777 0
h -1832 312 0
h -1832 788 0
h 1832 -312 -788 0
h -1833 313 0
h -1833 799 0
h 1833 -313 -799 0
h -1834 314 0
h -1834 810 0
h 1834 -314 -810 0
h -1835 315 0
h -1835 821 0
h 1835 -315 -821 0
h -1836 316 0
h -1836 832 0
h 1836 -316 -832 0
h -1837 317 0
h -1837 843 0
h 1837 -317 -843 0
h -1838 318 0
h -1838 854 0
h 1838 -318 -854 0
h -1839 319 0
h -1839 865 0
h 1839 -319 -865 0
h -1840 320 0
h -1840 876 0
h 1840 -320 -876 0
h 1841 1842 1843 1844 1845 1846 1847 1848 1849 1850 1851 1852 1853 1854 1855 1856 1857 1858 1859 1860 1861 1862 1863 1864 1865 1866 1867 1868 1869 1870 1871 1872 1873 1874 1875 1876 1877 1878 1879 1880 0
h -1841 281 0
h -1841 448 0
h 1841 -281 -448 0
h -1842 282 0
h -1842 459 0
h 1842 -282 -459 0
h -1843 283 0
h -1843 470 0
h 1843 -283 -470 0
h -1844 284 0
h -1844 481 0
h 1844 -284 -481 0
h -1845 285 0
h -1845 492 0
h 1845 -285 -492 0
h -1846 286 0
h -1846 503 0
h 1846 -286 -503 0
h -1847 287 0
h -1847 514 0
h 1847 -287 -514 0
h -1848 288 0
h -1848 525 0
h 1848 -288 -525 0
h -1849 289 0
h -1849 536 0
h 1849 -289 -536 0
h -1850 290 0
h -1850 547 0
h 1850 -290 -547 0
h -1851 291 0
h -1851 558 0
h 1851 -291 -558 0
h -1852 292 0
h -1852 569 0
h 1852 -292 -569 0
h -1853 293 0
h -1853 580 0
h 1853 -293 -580 0
h -1854 294 0
h -1854 591 0
h 1854 -294 -591 0
h -1855 295 0
h -1855 602 0
h 1855 -295 -602 0
h -1856 296 0
h -1856 613 0
h 1856 -296 -613 0
h -1857 297 0
h -1857 624 0
h 1857 -297 -624 0
h -1858 298 0
h -1858 635 0
h 1858 -298 -635 0
h -1859 299 0
h -1859 646 0
h 1859 -299 -646 0
h -1860 300 0
h -1860 657 0
h 1860 -300 -657 0
h -1861 301 0
h -1861 668 0
h 1861 -301 -668 0
h -1862 302 0
h -1862 679 0
h 1862 -302 -679 0
h -1863 303 0
h -1863 690 0
h 1863 -303 -690 0
h -1864 304 0
h -1864 701 0
h 1864 -304 -701 0
h -1865 305 0
h -1865 712 0
h 1865 -305 -712 0
h -1866 306 0
h -1866 723 0
h 1866 -306 -723 0
h -1867 307 0
h -1867 734 0
h 1867 -307 -734 0
h -1868 308 0
h -1868 745 0
h 1868 -308 -745 0
h -1869 309 0
h -1869 756 0
h 1869 -309 -756 0
h -1870 310 0
h -1870 767 0
h 1870 -310 -767 0
h -1871 311 0
h -1871 778 0
h 1871 -311 -778 0
h -1872 312 0
h -1872 789 0
h 1872 -312 -789 0
h -1873 313 0
h -1873 800 0
h 1873 -313 -800 0
h -1874 314 0
h -1874 811 0
h 1874 -314 -811 0
h -1875 315 0
h -1875 822 0
h 1875 -315 -822 0
h -1876 316 0
h -1876 833 0
h 1876 -316 -833 0
h -1877 317 0
h -1877 844 0
h 1877 -317 -844 0
h -1878 318 0
h -1878 855 0
h 1878 -318 -855 0
h -1879 319 0
h -1879 866 0
h 1879 -319 -866 0
h -1880 320 0
h -1880 877 0
h 1880 -320 -877 0
h -281 -449 0
h -282 -460 0
h -283 -471 0
h -284 -482 0
h -285 -493 0
h -286 -504 0
h -287 -515 0
h -288 -526 0
h -289 -537 0
h -290 -548 0
h -291 -559 0
h -292 -570 0
h -293 -581 0
h -294 -592 0
h -295 -603 0
h -296 -614 0
h -297 -625 0
h -298 -636 0
h -299 -647 0
h -300 -658 0
h -301 -669 0
h -302 -680 0
h -303 -691 0
h -304 -702 0
h -305 -713 0
h -306 -724 0
h -307 -735 0
h -308 -746 0
h -309 -757 0
h -310 -768 0
h -311 -779 0
h -312 -790 0
h -313 -801 0
h -314 -812 0
h -315 -823 0
h -316 -834 0
h -317 -845 0
h -318 -856 0
h -319 -867 0
h -320 -878 0
h -281 -450 0
h -282 -461 0
h -283 -472 0
h -284 -483 0
h -285 -494 0
h -286 -505 0
h -287 -516 0
h -288 -527 0
h -289 -538 0
h -290 -549 0
h -291 -560 0
h -292 -571 0
h -293 -582 0
h -294 -593 0
h -295 -604 0
h -296 -615 0
h -297 -626 0
h -298 -637 0
h -299 -648 0
h -300 -659 0
h -301 -670 0
h -302 -681 0
h -303 -692 0
h -304 -703 0
h -305 -714 0
h -306 -725 0
h -307 -736 0
h -308 -747 0
h -309 -758 0
h -310 -769 0
h -311 -780 0
h -312 -791 0
h -313 -802 0
h -314 -813 0
h -315 -824 0
h -316 -835 0
h -317 -846 0
h -318 -857 0
h -319 -868 0
h -320 -879 0
h -281 -451 0
h -282 -462 0
h -283 -473 0
h -284 -484 0
h -285 -495 0
h -286 -506 0
h -287 -517 0
h -288 -528 0
h -289 -539 0
h -290 -550 0
h -291 -561 0
h -292 -572 0
h -293 -583 0
h -294 -594 0
h -295 -605 0
h -296 -616 0
h -297 -627 0
h -298 -638 0
h -299 -649 0
h -300 -660 0
h -301 -671 0
h -302 -682 0
h -303 -693 0
h -304 -704 0
h -305 -715 0
h -306 -726 0
h -307 -737 0
h -308 -748 0
h -309 -759 0
h -310 -770 0
h -311 -781 0
h -312 -792 0
h -313 -803 0
h -314 -814 0
h -315 -825 0
h -316 -836 0
h -317 -847 0
h -318 -858 0
h -319 -869 0
h -320 -880 0
h -321 -441 0
h -322 -452 0
h -323 -463 0
h -324 -474 0
h -325 -485 0
h -326 -496 0
h -327 -507 0
h -328 -518 0
h -329 -529 0
h -330 -540 0
h -331 -551 0
h -332 -562 0
h -333 -573 0
h -334 -584 0
h -335 -595 0
h -336 -606 0
h -337 -617 0
h -338 -628 0
h -339 -639 0
h -340 -650 0
h -341 -661 0
h -342 -672 0
h -343 -683 0
h -344 -694 0
h -345 -705 0
h -346 -716 0
h -347 -727 0
h -348 -738 0
h -349 -749 0
h -350 -760 0
h -351 -771 0
h -352 -782 0
h -353 -793 0
h -354 -804 0
h -355 -815 0
h -356 -826 0
h -357 -837 0
h -358 -848 0
h -359 -859 0
h -360 -870 0
h 1881 1882 1883 1884 1885 1886 1887 1888 1889 1890 1891 1892 1893 1894 1895 1896 1897 1898 1899 1900 1901 1902 1903 1904 1905 1906 1907 1908 1909 1910 1911 1912 1913 1914 1915 1916 1917 1918 1919 1920 0
h -1881 321 0
h -1881 442 0
h 1881 -321 -442 0
h -1882 322 0
h -1882 453 0
h 1882 -322 -453 0
h -1883 323 0
h -1883 464 0
h 1883 -323 -464 0
h -1884 324 0
h -1884 475 0
h 1884 -324 -475 0
h -1885 325 0
h -1885 486 0
h 1885 -325 -486 0
h -1886 326 0
h -1886 497 0
h 1886 -326 -497 0
h -1887 327 0
h -1887 508 0
h 1887 -327 -508 0
h -1888 328 0
h -1888 519 0
h 1888 -328 -519 0
h -1889 329 0
h -1889 530 0
h 1889 -329 -530 0
h -1890 330 0
h -1890 541 0
h 1890 -330 -541 0
h -1891 331 0
h -1891 552 0
h 1891 -331 -552 0
h -1892 332 0
h -1892 563 0
h 1892 -332 -563 0
h -1893 333 0
h -1893 574 0
h 1893 -333 -574 0
h -1894 334 0
h -1894 585 0
h 1894 -334 -585 0
h -1895 335 0
h -1895 596 0
h 1895 -335 -596 0
h -1896 336 0
h -1896 607 0
h 1896 -336 -607 0
h -1897 337 0
h -1897 618 0
h 1897 -337 -618 0
h -1898 338 0
h -1898 629 0
h 1898 -338 -629 0
h -1899 339 0
h -1899 640 0
h 1899 -339 -640 0
h -1900 340 0
h -1900 651 0
h 1900 -340 -651 0
h -1901 341 0
h -1901 662 0
h 1901 -341 -662 0
h -1902 342 0
h -1902 673 0
h 1902 -342 -673 0
h -1903 343 0
h -1903 684 0
h 1903 -343 -684 0
h -1904 344 0
h -1904 695 0
h 1904 -344 -695 0
h -1905 345 0
h -1905 706 0
h 1905 -345 -706 0
h -1906 346 0
h -1906 717 0
h 1906 -346 -717 0
h -1907 347 0
h -1907 728 0
h 1907 -347 -728 0
h -1908 348 0
h -1908 739 0
h 1908 -348 -739 0
h -1909 349 0
h -1909 750 0
h 1909 -349 -750 0
h -1910 350 0
h -1910 761 0
h 1910 -350 -761 0
h -1911 351 0
h -1911 772 0
h 1911 -351 -772 0
h -1912 352 0
h -1912 783 0
h 1912 -352 -783 0
h -1913 353 0
h -1913 794 0
h 1913 -353 -794 0
h -1914 354 0
h -1914 805 0
h 1914 -354 -805 0
h -1915 355 0
h -1915 816 0
h 1915 -355 -816 0
h -1916 356 0
h -1916 827 0
h 1916 -356 -827 0
h -1917 357 0
h -1917 838 0
h 1917 -357 -838 0
h -1918 358 0
h -1918 849 0
h 1918 -358 -849 0
h -1919 359 0
h -1919 860 0
h 1919 -359 -860 0
h -1920 360 0
h -1920 871 0
h 1920 -360 -871 0
h -321 -443 0
h -322 -454 0
h -323 -465 0
h -324 -476 0
h -325 -487 0
h -326 -498 0
h -327 -509 0
h -328 -520 0
h -329 -531 0
h -330 -542 0
h -331 -553 0
h -332 -564 0
h -333 -575 0
h -334 -586 0
h -335 -597 0
h -336 -608 0
h -337 -619 0
h -338 -630 0
h -339 -641 0
h -340 -652 0
h -341 -663 0
h -342 -674 0
h -343 -685 0
h -344 -696 0
h -345 -707 0
h -346 -718 0
h -347 -729 0
h -348 -740 0
h -349 -751 0
h -350 -762 0
h -351 -773 0
h -352 -784 0
h -353 -795 0
h -354 -806 0
h -355 -817 0
h -356 -828 0
h -357 -839 0
h -358 -850 0
h -359 -861 0
h -360 -872 0
h 1921 1922 1923 1924 1925 1926 1927 1928 1929 1930 1931 1932 1933 1934 1935 1936 1937 1938 1939 1940 1941 1942 1943 1944 1945 1946 1947 1948 1949 1950 1951 1952 1953 1954 1955 1956 1957 1958 1959 1960 0
h -1921 321 0
h -1921 444 0
h 1921 -321 -444 0
h -1922 322 0
h -1922 455 0
h 1922 -322 -455 0
h -1923 323 0
h -1923 466 0
h 1923 -323 -466 0
h -1924 324 0
h -1924 477 0
h 1924 -324 -477 0
h -1925 325 0
h -1925 488 0
h 1925 -325 -488 0
h -1926 326 0
h -1926 499 0
h 1926 -326 -499 0
h -1927 327 0
h -1927 510 0
h 1927 -327 -510 0
h -1928 328 0
h -1928 521 0
h 1928 -328 -521 0
h -1929 329 0
h -1929 532 0
h 1929 -329 -532 0
h -1930 330 0
h -1930 543 0
h 1930 -330 -543 0
h -1931 331 0
h -1931 554 0
h 1931 -331 -554 0
h -1932 332 0
h -1932 565 0
h 1932 -332 -565 0
h -1933 333 0
h -1933 576 0
h 1933 -333 -576 0
h -1934 334 0
h -1934 587 0
h 1934 -334 -587 0
h -1935 335 0
h -1935 598 0
h 1935 -335 -598 0
h -1936 336 0
h -1936 609 0
h 1936 -336 -609 0
h -1937 337 0
h -1937 620 0
h 1937 -337 -620 0
h -1938 338 0
h -1938 631 0
h 1938 -338 -631 0
h -1939 339 0
h -1939 642 0
h 1939 -339 -642 0
h -1940 340 0
h -1940 653 0
h 1940 -340 -653 0
h -1941 341 0
h -1941 664 0
h 1941 -341 -664 0
h -1942 342 0
h -1942 675 0
h 1942 -342 -675 0
h -1943 343 0
h -1943 686 0
h 1943 -343 -686 0
h -1944 344 0
h -1944 697 0
h 1944 -344 -697 0
h -1945 345 0
h -1945 708 0
h 1945 -345 -708 0
h -1946 346 0
h -1946 719 0
h 1946 -346 -719 0
h -1947 347 0
h -1947 730 0
h 1947 -347 -730 0
h -1948 348 0
h -1948 741 0
h 1948 -348 -741 0
h -1949 349 0
h -1949 752 0
h 1949 -349 -752 0
h -1950 350 0
h -1950 763 0
h 1950 -350 -763 0
h -1951 351 0
h -1951 774 0
h 1951 -351 -774 0
h -1952 352 0
h -1952 785 0
h 1952 -352 -785 0
h -1953 353 0
h -1953 796 0
h 1953 -353 -796 0
h -1954 354 0
h -1954 807 0
h 1954 -354 -807 0
h -1955 355 0
h -1955 818 0
h 1955 -355 -818 0
h -1956 356 0
h -1956 829 0
h 1956 -356 -829 0
h -1957 357 0
h -1957 840 0
h 1957 -357 -840 0
h -1958 358 0
h -1958 851 0
h 1958 -358 -851 0
h -1959 359 0
h -1959 862 0
h 1959 -359 -862 0
h -1960 360 0
h -1960 873 0
h 1960 -360 -873 0
h 1961 1962 1963 1964 1965 1966 1967 1968 1969 1970 1971 1972 1973 1974 1975 1976 1977 1978 1979 1980 1981 1982 1983 1984 1985 1986 1987 1988 1989 1990 1991 1992 1993 1994 1995 1996 1997 1998 1999 2000 0
h -1961 321 0
h -1961 445 0
h 1961 -321 -445 0
h -1962 322 0
h -1962 456 0
h 1962 -322 -456 0
h -1963 323 0
h -1963 467 0
h 1963 -323 -467 0
h -1964 324 0
h -1964 478 0
h 1964 -324 -478 0
h -1965 325 0
h -1965 489 0
h 1965 -325 -489 0
h -1966 326 0
h -1966 500 0
h 1966 -326 -500 0
h -1967 327 0
h -1967 511 0
h 1967 -327 -511 0
h -1968 328 0
h -1968 522 0
h 1968 -328 -522 0
h -1969 329 0
h -1969 533 0
h 1969 -329 -533 0
h -1970 330 0
h -1970 544 0
h 1970 -330 -544 0
h -1971 331 0
h -1971 555 0
h 1971 -331 -555 0
h -1972 332 0
h -1972 566 0
h 1972 -332 -566 0
h -1973 333 0
h -1973 577 0
h 1973 -333 -577 0
h -1974 334 0
h -1974 588 0
h 1974 -334 -588 0
h -1975 335 0
h -1975 599 0
h 1975 -335 -599 0
h -1976 336 0
h -1976 610 0
h 1976 -336 -610 0
h -1977 337 0
h -1977 621 0
h 1977 -337 -621 0
h -1978 338 0
h -1978 632 0
h 1978 -338 -632 0
h -1979 339 0
h -1979 643 0
h 1979 -339 -643 0
h -1980 340 0
h -1980 654 0
h 1980 -340 -654 0
h -1981 341 0
h -1981 665 0
h 1981 -341 -665 0
h -1982 342 0
h -1982 676 0
h 1982 -342 -676 0
h -1983 343 0
h -1983 687 0
h 1983 -343 -687 0
h -1984 344 0
h -1984 698 0
h 1984 -344 -698 0
h -1985 345 0
h -1985 709 0
h 1985 -345 -709 0
h -1986 346 0
h -1986 720 0
h 1986 -346 -720 0
h -1987 347 0
h -1987 731 0
h 1987 -347 -731 0
h -1988 348 0
h -1988 742 0
h 1988 -348 -742 0
h -1989 349 0
h -1989 753 0
h 1989 -349 -753 0
h -1990 350 0
h -1990 764 0
h 1990 -350 -764 0
h -1991 351 0
h -1991 775 0
h 1991 -351 -775 0
h -1992 352 0
h -1992 786 0
h 1992 -352 -786 0
h -1993 353 0
h -1993 797 0
h 1993 -353 -797 0
h -1994 354 0
h -1994 808 0
h 1994 -354 -808 0
h -1995 355 0
h -1995 819 0
h 1995 -355 -819 0
h -1996 356 0
h -1996 830 0
h 1996 -356 -830 0
h -1997 357 0
h -1997 841 0
h 1997 -357 -841 0
h -1998 358 0
h -1998 852 0
h 1998 -358 -852 0
h -1999 359 0
h -1999 863 0
h 1999 -359 -863 0
h -2000 360 0
h -2000 874 0
h 2000 -360 -874 0
h 2001 2002 2003 2004 2005 2006 2007 2008 2009 2010 2011 2012 2013 2014 2015 2016 2017 2018 2019 2020 2021 2022 2023 2024 2025 2026 2027 2028 2029 2030 2031 2032 2033 2034 2035 2036 2037 2038 2039 2040 0
h -2001 321 0
h -2001 446 0
h 2001 -321 -446 0
h -2002 322 0
h -2002 457 0
h 2002 -322 -457 0
h -2003 323 0
h -2003 468 0
h 2003 -323 -468 0
h -2004 324 0
h -2004 479 0
h 2004 -324 -479 0
h -2005 325 0
h -2005 490 0
h 2005 -325 -490 0
h -2006 326 0
h -2006 501 0
h 2006 -326 -501 0
h -2007 327 0
h -2007 512 0
h 2007 -327 -512 0
h -2008 328 0
h -2008 523 0
h 2008 -328 -523 0
h -2009 329 0
h -2009 534 0
h 2009 -329 -534 0
h -2010 330 0
h -2010 545 0
h 2010 -330 -545 0
h -2011 331 0
h -2011 556 0
h 2011 -331 -556 0
h -2012 332 0
h -2012 567 0
h 2012 -332 -567 0
h -2013 333 0
h -2013 578 0
h 2013 -333 -578 0
h -2014 334 0
h -2014 589 0
h 2014 -334 -589 0
h -2015 335 0
h -2015 600 0
h 2015 -335 -600 0
h -2016 336 0
h -2016 611 0
h 2016 -336 -611 0
h -2017 337 0
h -2017 622 0
h 2017 -337 -622 0
h -2018 338 0
h -2018 633 0
h 2018 -338 -633 0
h -2019 339 0
h -2019 644 0
h 2019 -339 -644 0
h -2020 340 0
h -2020 655 0
h 2020 -340 -655 0
h -2021 341 0
h -2021 666 0
h 2021 -341 -666 0
h -2022 342 0
h -2022 677 0
h 2022 -342 -677 0
h -2023 343 0
h -2023 688 0
h 2023 -343 -688 0
h -2024 344 0
h -2024 699 0
h 2024 -344 -699 0
h -2025 345 0
h -2025 710 0
h 2025 -345 -710 0
h -2026 346 0
h -2026 721 0
h 2026 -346 -721 0
h -2027 347 0
h -2027 732 0
h 2027 -347 -732 0
h -2028 348 0
h -2028 743 0
h 2028 -348 -743 0
h -2029 349 0
h -2029 754 0
h 2029 -349 -754 0
h -2030 350 0
h -2030 765 0
h 2030 -350 -765 0
h -2031 351 0
h -2031 776 0
h 2031 -351 -776 0
h -2032 352 0
h -2032 787 0
h 2032 -352 -787 0
h -2033 353 0
h -2033 798 0
h 2033 -353 -798 0
h -2034 354 0
h -2034 809 0
h 2034 -354 -809 0
h -2035 355 0
h -2035 820 0
h 2035 -355 -820 0
h -2036 356 0
h -2036 831 0
h 2036 -356 -831 0
h -2037 357 0
h -2037 842 0
h 2037 -357 -842 0
h -2038 358 0
h -2038 853 0
h 2038 -358 -853 0
h -2039 359 0
h -2039 864 0
h 2039 -359 -864 0
h -2040 360 0
h -2040 875 0
h 2040 -360 -875 0
h -321 -447 0
h -322 -458 0
h -323 -469 0
h -324 -480 0
h -325 -491 0
h -326 -502 0
h -327 -513 0
h -328 -524 0
h -329 -535 0
h -330 -546 0
h -331 -557 0
h -332 -568 0
h -333 -579 0
h -334 -590 0
h -335 -601 0
h -336 -612 0
h -337 -623 0
h -338 -634 0
h -339 -645 0
h -340 -656 0
h -341 -667 0
h -342 -678 0
h -343 -689 0
h -344 -700 0
h -345 -711 0
h -346 -722 0
h -347 -733 0
h -348 -744 0
h -349 -755 0
h -350 -766 0
h -351 -777 0
h -352 -788 0
h -353 -799 0
h -354 -810 0
h -355 -821 0
h -356 -832 0
h -357 -843 0
h -358 -854 0
h -359 -865 0
h -360 -876 0
h -321 -448 0
h -322 -459 0
h -323 -470 0
h -324 -481 0
h -325 -492 0
h -326 -503 0
h -327 -514 0
h -328 -525 0
h -329 -536 0
h -330 -547 0
h -331 -558 0
h -332 -569 0
h -333 -580 0
h -334 -591 0
h -335 -602 0
h -336 -613 0
h -337 -624 0
h -338 -635 0
h -339 -646 0
h -340 -657 0
h -341 -668 0
h -342 -679 0
h -343 -690 0
h -344 -701 0
h -345 -712 0
h -346 -723 0
h -347 -734 0
h -348 -745 0
h -349 -756 0
h -350 -767 0
h -351 -778 0
h -352 -789 0
h -353 -800 0
h -354 -811 0
h -355 -822 0
h -356 -833 0
h -357 -844 0
h -358 -855 0
h -359 -866 0
h -360 -877 0
h 2041 2042 2043 2044 2045 2046 2047 2048 2049 2050 2051 2052 2053 2054 2055 2056 2057 2058 2059 2060 2061 2062 2063 2064 2065 2066 2067 2068 2069 2070 2071 2072 2073 2074 2075 2076 2077 2078 2079 2080 0
h -2041 321 0
h -2041 449 0
h 2041 -321 -449 0
h -2042 322 0
h -2042 460 0
h 2042 -322 -460 0
h -2043 323 0
h -2043 471 0
h 2043 -323 -471 0
h -2044 324 0
h -2044 482 0
h 2044 -324 -482 0
h -2045 325 0
h -2045 493 0
h 2045 -325 -493 0
h -2046 326 0
h -2046 504 0
h 2046 -326 -504 0
h -2047 327 0
h -2047 515 0
h 2047 -327 -515 0
h -2048 328 0
h -2048 526 0
h 2048 -328 -526 0
h -2049 329 0
h -2049 537 0
h 2049 -329 -537 0
h -2050 330 0
h -2050 548 0
h 2050 -330 -548 0
h -2051 331 0
h -2051 559 0
h 2051 -331 -559 0
h -2052 332 0
h -2052 570 0
h 2052 -332 -570 0
h -2053 333 0
h -2053 581 0
h 2053 -333 -581 0
h -2054 334 0
h -2054 592 0
h 2054 -334 -592 0
h -2055 335 0
h -2055 603 0
h 2055 -335 -603 0
h -2056 336 0
h -2056 614 0
h 2056 -336 -614 0
h -2057 337 0
h -2057 625 0
h 2057 -337 -625 0
h -2058 338 0
h -2058 636 0
h 2058 -338 -636 0
h -2059 339 0
h -2059 647 0
h 2059 -339 -647 0
h -2060 340 0
h -2060 658 0
h 2060 -340 -658 0
h -2061 341 0
h -2061 669 0
h 2061 -341 -669 0
h -2062 342 0
h -2062 680 0
h 2062 -342 -680 0
h -2063 343 0
h -2063 691 0
h 2063 -343 -691 0
h -2064 344 0
h -2064 702 0
h 2064 -344 -702 0
h -2065 345 0
h -2065 713 0
h 2065 -345 -713 0
h -2066 346 0
h -2066 724 0
h 2066 -346 -724 0
h -2067 347 0
h -2067 735 0
h 2067 -347 -735 0
h -2068 348 0
h -2068 746 0
h 2068 -348 -746 0
h -2069 349 0
h -2069 757 0
h 2069 -349 -757 0
h -2070 350 0
h -2070 768 0
h 2070 -350 -768 0
h -2071 351 0
h -2071 779 0
h 2071 -351 -779 0
h -2072 352 0
h -2072 790 0
h 2072 -352 -790 0
h -2073 353 0
h -2073 801 0
h 2073 -353 -801 0
h -2074 354 0
h -2074 812 0
h 2074 -354 -812 0
h -2075 355 0
h -2075 823 0
h 2075 -355 -823 0
h -2076 356 0
h -2076 834 0
h 2076 -356 -834 0
h -2077 357 0
h -2077 845 0
h 2077 -357 -845 0
h -2078 358 0
h -2078 856 0
h 2078 -358 -856 0
h -2079 359 0
h -2079 867 0
h 2079 -359 -867 0
h -2080 360 0
h -2080 878 0
h 2080 -360 -878 0
h -321 -450 0
h -322 -461 0
h -323 -472 0
h -324 -483 0
h -325 -494 0
h -326 -505 0
h -327 -516 0
h -328 -527 0
h -329 -538 0
h -330 -549 0
h -331 -560 0
h -332 -571 0
h -333 -582 0
h -334 -593 0
h -335 -604 0
h -336 -615 0
h -337 -626 0
h -338 -637 0
h -339 -648 0
h -340 -659 0
h -341 -670 0
h -342 -681 0
h -343 -692 0
h -344 -703 0
h -345 -714 0
h -346 -725 0
h -347 -736 0
h -348 -747 0
h -349 -758 0
h -350 -769 0
h -351 -780 0
h -352 -791 0
h -353 -802 0
h -354 -813 0
h -355 -824 0
h -356 -835 0
h -357 -846 0
h -358 -857 0
h -359 -868 0
h -360 -879 0
h -321 -451 0
h -322 -462 0
h -323 -473 0
h -324 -484 0
h -325 -495 0
h -326 -506 0
h -327 -517 0
h -328 -528 0
h -329 -539 0
h -330 -550 0
h -331 -561 0
h -332 -572 0
h -333 -583 0
h -334 -594 0
h -335 -605 0
h -336 -616 0
h -337 -627 0
h -338 -638 0
h -339 -649 0
h -340 -660 0
h -341 -671 0
h -342 -682 0
h -343 -693 0
h -344 -704 0
h -345 -715 0
h -346 -726 0
h -347 -737 0
h -348 -748 0
h -349 -759 0
h -350 -770 0
h -351 -781 0
h -352 -792 0
h -353 -803 0
h -354 -814 0
h -355 -825 0
h -356 -836 0
h -357 -847 0
h -358 -858 0
h -359 -869 0
h -360 -880 0
h 2081 2082 2083 2084 2085 2086 2087 2088 2089 2090 2091 2092 2093 2094 2095 2096 2097 2098 2099 2100 2101 2102 2103 2104 2105 2106 2107 2108 2109 2110 2111 2112 2113 2114 2115 2116 2117 2118 2119 2120 0
h -2081 361 0
h -2081 441 0
h 2081 -361 -441 0
h -2082 362 0
h -2082 452 0
h 2082 -362 -452 0
h -2083 363 0
h -2083 463 0
h 2083 -363 -463 0
h -2084 364 0
h -2084 474 0
h 2084 -364 -474 0
h -2085 365 0
h -2085 485 0
h 2085 -365 -485 0
h -2086 366 0
h -2086 496 0
h 2086 -366 -496 0
h -2087 367 0
h -2087 507 0
h 2087 -367 -507 0
h -2088 368 0
h -2088 518 0
h 2088 -368 -518 0
h -2089 369 0
h -2089 529 0
h 2089 -369 -529 0
h -2090 370 0
h -2090 540 0
h 2090 -370 -540 0
h -2091 371 0
h -2091 551 0
h 2091 -371 -551 0
h -2092 372 0
h -2092 562 0
h 2092 -372 -562 0
h -2093 373 0
h -2093 573 0
h 2093 -373 -573 0
h -2094 374 0
h -2094 584 0
h 2094 -374 -584 0
h -2095 375 0
h -2095 595 0
h 2095 -375 -595 0
h -2096 376 0
h -2096 606 0
h 2096 -376 -606 0
h -2097 377 0
h -2097 617 0
h 2097 -377 -617 0
h -2098 378 0
h -2098 628 0
h 2098 -378 -628 0
h -2099 379 0
h -2099 639 0
h 2099 -379 -639 0
h -2100 380 0
h -2100 650 0
h 2100 -380 -650 0
h -2101 381 0
h -2101 661 0
h 2101 -381 -661 0
h -2102 382 0
h -2102 672 0
h 2102 -382 -672 0
h -2103 383 0
h -2103 683 0
h 2103 -383 -683 0
h -2104 384 0
h -2104 694 0
h 2104 -384 -694 0
h -2105 385 0
h -2105 705 0
h 2105 -385 -705 0
h -2106 386 0
h -2106 716 0
h 2106 -386 -716 0
h -2107 387 0
h -2107 727 0
h 2107 -387 -727 0
h -2108 388 0
h -2108 738 0
h 2108 -388 -738 0
h -2109 389 0
h -2109 749 0
h 2109 -389 -749 0
h -2110 390 0
h -2110 760 0
h 2110 -390 -760 0
h -2111 391 0
h -2111 771 0
h 2111 -391 -771 0
h -2112 392 0
h -2112 782 0
h 2112 -392 -782 0
h -2113 393 0
h -2113 793 0
h 2113 -393 -793 0
h -2114 394 0
h -2114 804 0
h 2114 -394 -804 0
h -2115 395 0
h -2115 815 0
h 2115 -395 -815 0
h -2116 396 0
h -2116 826 0
h 2116 -396 -826 0
h -2117 397 0
h -2117 837 0
h 2117 -397 -837 0
h -2118 398 0
h -2118 848 0
h 2118 -398 -848 0
h -2119 399 0
h -2119 859 0
h 2119 -399 -859 0
h -2120 400 0
h -2120 870 0
h 2120 -400 -870 0
h 2121 2122 2123 2124 2125 2126 2127 2128 2129 2130 2131 2132 2133 2134 2135 2136 2137 2138 2139 2140 2141 2142 2143 2144 2145 2146 2147 2148 2149 2150 2151 2152 2153 2154 2155 2156 2157 2158 2159 2160 0
h -2121 361 0
h -2121 442 0
h 2121 -361 -442 0
h -2122 362 0
h -2122 453 0
h 2122 -362 -453 0
h -2123 363 0
h -2123 464 0
h 2123 -363 -464 0
h -2124 364 0
h -2124 475 0
h 2124 -364 -475 0
h -2125 365 0
h -2125 486 0
h 2125 -365 -486 0
h -2126 366 0
h -2126 497 0
h 2126 -366 -497 0
h -2127 367 0
h -2127 508 0
h 2127 -367 -508 0
h -2128 368 0
h -2128 519 0
h 2128 -368 -519 0
h -2129 369 0
h -2129 530 0
h 2129 -369 -530 0
h -2130 370 0
h -2130 541 0
h 2130 -370 -541 0
h -2131 371 0
h -2131 552 0
h 2131 -371 -552 0
h -2132 372 0
h -2132 563 0
h 2132 -372 -563 0
h -2133 373 0
h -2133 574 0
h 2133 -373 -574 0
h -2134 374 0
h -2134 585 0
h 2134 -374 -585 0
h -2135 375 0
h -2135 596 0
h 2135 -375 -596 0
h -2136 376 0
h -2136 607 0
h 2136 -376 -607 0
h -2137 377 0
h -2137 618 0
h 2137 -377 -618 0
h -2138 378 0
h -2138 629 0
h 2138 -378 -629 0
h -2139 379 0
h -2139 640 0
h 2139 -379 -640 0
h -2140 380 0
h -2140 651 0
h 2140 -380 -651 0
h -2141 381 0
h -2141 662 0
h 2141 -381 -662 0
h -2142 382 0
h -2142 673 0
h 2142 -382 -673 0
h -2143 383 0
h -2143 684 0
h 2143 -383 -684 0
h -2144 384 0
h -2144 695 0
h 2144 -384 -695 0
h -2145 385 0
h -2145 706 0
h 2145 -385 -706 0
h -2146 386 0
h -2146 717 0
h 2146 -386 -717 0
h -2147 387 0
h -2147 728 0
h 2147 -387 -728 0
h -2148 388 0
h -2148 739 0
h 2148 -388 -739 0
h -2149 389 0
h -2149 750 0
h 2149 -389 -750 0
h -2150 390 0
h -2150 761 0
h 2150 -390 -761 0
h -2151 391 0
h -2151 772 0
h 2151 -391 -772 0
h -2152 392 0
h -2152 783 0
h 2152 -392 -783 0
h -2153 393 0
h -2153 794 0
h 2153 -393 -794 0
h -2154 394 0
h -2154 805 0
h 2154 -394 -805 0
h -2155 395 0
h -2155 816 0
h 2155 -395 -816 0
h -2156 396 0
h -2156 827 0
h 2156 -396 -827 0
h -2157 397 0
h -2157 838 0
h 2157 -397 -838 0
h -2158 398 0
h -2158 849 0
h 2158 -398 -849 0
h -2159 399 0
h -2159 860 0
h 2159 -399 -860 0
h -2160 400 0
h -2160 871 0
h 2160 -400 -871 0
h 2161 2162 2163 2164 2165 2166 2167 2168 2169 2170 2171 2172 2173 2174 2175 2176 2177 2178 2179 2180 2181 2182 2183 2184 2185 2186 2187 2188 2189 2190 2191 2192 2193 2194 2195 2196 2197 2198 2199 2200 0
h -2161 361 0
h -2161 443 0
h 2161 -361 -443 0
h -2162 362 0
h -2162 454 0
h 2162 -362 -454 0
h -2163 363 0
h -2163 465 0
h 2163 -363 -465 0
h -2164 364 0
h -2164 476 0
h 2164 -364 -476 0
h -2165 365 0
h -2165 487 0
h 2165 -365 -487 0
h -2166 366 0
h -2166 498 0
h 2166 -366 -498 0
h -2167 367 0
h -2167 509 0
h 2167 -367 -509 0
h -2168 368 0
h -2168 520 0
h 2168 -368 -520 0
h -2169 369 0
h -2169 531 0
h 2169 -369 -531 0
h -2170 370 0
h -2170 542 0
h 2170 -370 -542 0
h -2171 371 0
h -2171 553 0
h 2171 -371 -553 0
h -2172 372 0
h -2172 564 0
h 2172 -372 -564 0
h -2173 373 0
h -2173 575 0
h 2173 -373 -575 0
h -2174 374 0
h -2174 586 0
h 2174 -374 -586 0
h -2175 375 0
h -2175 597 0
h 2175 -375 -597 0
h -2176 376 0
h -2176 608 0
h 2176 -376 -608 0
h -2177 377 0
h -2177 619 0
h 2177 -377 -619 0
h -2178 378 0
h -2178 630 0
h 2178 -378 -630 0
h -2179 379 0
h -2179 641 0
h 2179 -379 -641 0
h -2180 380 0
h -2180 652 0
h 2180 -380 -652 0
h -2181 381 0
h -2181 663 0
h 2181 -381 -663 0
h -2182 382 0
h -2182 674 0
h 2182 -382 -674 0
h -2183 383 0
h -2183 685 0
h 2183 -383 -685 0
h -2184 384 0
h -2184 696 0
h 2184 -384 -696 0
h -2185 385 0
h -2185 707 0
h 2185 -385 -707 0
h -2186 386 0
h -2186 718 0
h 2186 -386 -718 0
h -2187 387 0
h -2187 729 0
h 2187 -387 -729 0
h -2188 388 0
h -2188 740 0
h 2188 -388 -740 0
h -2189 389 0
h -2189 751 0
h 2189 -389 -751 0
h -2190 390 0
h -2190 762 0
h 2190 -390 -762 0
h -2191 391 0
h -2191 773 0
h 2191 -391 -773 0
h -2192 392 0
h -2192 784 0
h 2192 -392 -784 0
h -2193 393 0
h -2193 795 0
h 2193 -393 -795 0
h -2194 394 0
h -2194 806 0
h 2194 -394 -806 0
h -2195 395 0
h -2195 817 0
h 2195 -395 -817 0
h -2196 396 0
h -2196 828 0
h 2196 -396 -828 0
h -2197 397 0
h -2197 839 0
h 2197 -397 -839 0
h -2198 398 0
h -2198 850 0
h 2198 -398 -850 0
h -2199 399 0
h -2199 861 0
h 2199 -399 -861 0
h -2200 400 0
h -2200 872 0
h 2200 -400 -872 0
h 2201 2202 2203 2204 2205 2206 2207 2208 2209 2210 2211 2212 2213 2214 2215 2216 2217 2218 2219 2220 2221 2222 2223 2224 2225 2226 2227 2228 2229 2230 2231 2232 2233 2234 2235 2236 2237 2238 2239 2240 0
h -2201 361 0
h -2201 444 0
h 2201 -361 -444 0
h -2202 362 0
h -2202 455 0
h 2202 -362 -455 0
h -2203 363 0
h -2203 466 0
h 2203 -363 -466 0
h -2204 364 0
h -2204 477 0
h 2204 -364 -477 0
h -2205 365 0
h -2205 488 0
h 2205 -365 -488 0
h -2206 366 0
h -2206 499 0
h 2206 -366 -499 0
h -2207 367 0
h -2207 510 0
h 2207 -367 -510 0
h -2208 368 0
h -2208 521 0
h 2208 -368 -521 0
h -2209 369 0
h -2209 532 0
h 2209 -369 -532 0
h -2210 370 0
h -2210 543 0
h 2210 -370 -543 0
h -2211 371 0
h -2211 554 0
h 2211 -371 -554 0
h -2212 372 0
h -2212 565 0
h 2212 -372 -565 0
h -2213 373 0
h -2213 576 0
h 2213 -373 -576 0
h -2214 374 0
h -2214 587 0
h 2214 -374 -587 0
h -2215 375 0
h -2215 598 0
h 2215 -375 -598 0
h -2216 376 0
h -2216 609 0
h 2216 -376 -609 0
h -2217 377 0
h -2217 620 0
h 2217 -377 -620 0
h -2218 378 0
h -2218 631 0
h 2218 -378 -631 0
h -2219 379 0
h -2219 642 0
h 2219 -379 -642 0
h -2220 380 0
h -2220 653 0
h 2220 -380 -653 0
h -2221 381 0
h -2221 664 0
h 2221 -381 -664 0
h -2222 382 0
h -2222 675 0
h 2222 -382 -675 0
h -2223 383 0
h -2223 686 0
h 2223 -383 -686 0
h -2224 384 0
h -2224 697 0
h 2224 -384 -697 0
h -2225 385 0
h -2225 708 0
h 2225 -385 -708 0
h -2226 386 0
h -2226 719 0
h 2226 -386 -719 0
h -2227 387 0
h -2227 730 0
h 2227 -387 -730 0
h -2228 388 0
h -2228 741 0
h 2228 -388 -741 0
h -2229 389 0
h -2229 752 0
h 2229 -389 -752 0
h -2230 390 0
h -2230 763 0
h 2230 -390 -763 0
h -2231 391 0
h -2231 774 0
h 2231 -391 -774 0
h -2232 392 0
h -2232 785 0
h 2232 -392 -785 0
h -2233 393 0
h -2233 796 0
h 2233 -393 -796 0
h -2234 394 0
h -2234 807 0
h 2234 -394 -807 0
h -2235 395 0
h -2235 818 0
h 2235 -395 -818 0
h -2236 396 0
h -2236 829 0
h 2236 -396 -829 0
h -2237 397 0
h -2237 840 0
h 2237 -397 -840 0
h -2238 398 0
h -2238 851 0
h 2238 -398 -851 0
h -2239 399 0
h -2239 862 0
h 2239 -399 -862 0
h -2240 400 0
h -2240 873 0
h 2240 -400 -873 0
h -361 -445 0
h -362 -456 0
h -363 -467 0
h -364 -478 0
h -365 -489 0
h -366 -500 0
h -367 -511 0
h -368 -522 0
h -369 -533 0
h -370 -544 0
h -371 -555 0
h -372 -566 0
h -373 -577 0
h -374 -588 0
h -375 -599 0
h -376 -610 0
h -377 -621 0
h -378 -632 0
h -379 -643 0
h -380 -654 0
h -381 -665 0
h -382 -676 0
h -383 -687 0
h -384 -698 0
h -385 -709 0
h -386 -720 0
h -387 -731 0
h -388 -742 0
h -389 -753 0
h -390 -764 0
h -391 -775 0
h -392 -786 0
h -393 -797 0
h -394 -808 0
h -395 -819 0
h -396 -830 0
h -397 -841 0
h -398 -852 0
h -399 -863 0
h -400 -874 0
h -361 -446 0
h -362 -457 0
h -363 -468 0
h -364 -479 0
h -365 -490 0
h -366 -501 0
h -367 -512 0
h -368 -523 0
h -369 -534 0
h -370 -545 0
h -371 -556 0
h -372 -567 0
h -373 -578 0
h -374 -589 0
h -375 -600 0
h -376 -611 0
h -377 -622 0
h -378 -633 0
h -379 -644 0
h -380 -655 0
h -381 -666 0
h -382 -677 0
h -383 -688 0
h -384 -699 0
h -385 -710 0
h -386 -721 0
h -387 -732 0
h -388 -743 0
h -389 -754 0
h -390 -765 0
h -391 -776 0
h -392 -787 0
h -393 -798 0
h -394 -809 0
h -395 -820 0
h -396 -831 0
h -397 -842 0
h -398 -853 0
h -399 -864 0
h -400 -875 0
h -361 -447 0
h -362 -458 0
h -363 -469 0
h -364 -480 0
h -365 -491 0
h -366 -502 0
h -367 -513 0
h -368 -524 0
h -369 -535 0
h -370 -546 0
h -371 -557 0
h -372 -568 0
h -373 -579 0
h -374 -590 0
h -375 -601 0
h -376 -612 0
h -377 -623 0
h -378 -634 0
h -379 -645 0
h -380 -656 0
h -381 -667 0
h -382 -678 0
h -383 -689 0
h -384 -700 0
h -385 -711 0
h -386 -722 0
h -387 -733 0
h -388 -744 0
h -389 -755 0
h -390 -766 0
h -391 -777 0
h -392 -788 0
h -393 -799 0
h -394 -810 0
h -395 -821 0
h -396 -832 0
h -397 -843 0
h -398 -854 0
h -399 -865 0
h -400 -876 0
h -361 -448 0
h -362 -459 0
h -363 -470 0
h -364 -481 0
h -365 -492 0
h -366 -503 0
h -367 -514 0
h -368 -525 0
h -369 -536 0
h -370 -547 0
h -371 -558 0
h -372 -569 0
h -373 -580 0
h -374 -591 0
h -375 -602 0
h -376 -613 0
h -377 -624 0
h -378 -635 0
h -379 -646 0
h -380 -657 0
h -381 -668 0
h -382 -679 0
h -383 -690 0
h -384 -701 0
h -385 -712 0
h -386 -723 0
h -387 -734 0
h -388 -745 0
h -389 -756 0
h -390 -767 0
h -391 -778 0
h -392 -789 0
h -393 -800 0
h -394 -811 0
h -395 -822 0
h -396 -833 0
h -397 -844 0
h -398 -855 0
h -399 -866 0
h -400 -877 0
h -361 -449 0
h -362 -460 0
h -363 -471 0
h -364 -482 0
h -365 -493 0
h -366 -504 0
h -367 -515 0
h -368 -526 0
h -369 -537 0
h -370 -548 0
h -371 -559 0
h -372 -570 0
h -373 -581 0
h -374 -592 0
h -375 -603 0
h -376 -614 0
h -377 -625 0
h -378 -636 0
h -379 -647 0
h -380 -658 0
h -381 -669 0
h -382 -680 0
h -383 -691 0
h -384 -702 0
h -385 -713 0
h -386 -724 0
h -387 -735 0
h -388 -746 0
h -389 -757 0
h -390 -768 0
h -391 -779 0
h -392 -790 0
h -393 -801 0
h -394 -812 0
h -395 -823 0
h -396 -834 0
h -397 -845 0
h -398 -856 0
h -399 -867 0
h -400 -878 0
h 2241 2242 2243 2244 2245 2246 2247 2248 2249 2250 2251 2252 2253 2254 2255 2256 2257 2258 2259 2260 2261 2262 2263 2264 2265 2266 2267 2268 2269 2270 2271 2272 2273 2274 2275 2276 2277 2278 2279 2280 0
h -2241 361 0
h -2241 450 0
h 2241 -361 -450 0
h -2242 362 0
h -2242 461 0
h 2242 -362 -461 0
h -2243 363 0
h -2243 472 0
h 2243 -363 -472 0
h -2244 364 0
h -2244 483 0
h 2244 -364 -483 0
h -2245 365 0
h -2245 494 0
h 2245 -365 -494 0
h -2246 366 0
h -2246 505 0
h 2246 -366 -505 0
h -2247 367 0
h -2247 516 0
h 2247 -367 -516 0
h -2248 368 0
h -2248 527 0
h 2248 -368 -527 0
h -2249 369 0
h -2249 538 0
h 2249 -369 -538 0
h -2250 370 0
h -2250 549 0
h 2250 -370 -549 0
h -2251 371 0
h -2251 560 0
h 2251 -371 -560 0
h -2252 372 0
h -2252 571 0
h 2252 -372 -571 0
h -2253 373 0
h -2253 582 0
h 2253 -373 -582 0
h -2254 374 0
h -2254 593 0
h 2254 -374 -593 0
h -2255 375 0
h -2255 604 0
h 2255 -375 -604 0
h -2256 376 0
h -2256 615 0
h 2256 -376 -615 0
h -2257 377 0
h -2257 626 0
h 2257 -377 -626 0
h -2258 378 0
h -2258 637 0
h 2258 -378 -637 0
h -2259 379 0
h -2259 648 0
h 2259 -379 -648 0
h -2260 380 0
h -2260 659 0
h 2260 -380 -659 0
h -2261 381 0
h -2261 670 0
h 2261 -381 -670 0
h -2262 382 0
h -2262 681 0
h 2262 -382 -681 0
h -2263 383 0
h -2263 692 0
h 2263 -383 -692 0
h -2264 384 0
h -2264 703 0
h 2264 -384 -703 0
h -2265 385 0
h -2265 714 0
h 2265 -385 -714 0
h -2266 386 0
h -2266 725 0
h 2266 -386 -725 0
h -2267 387 0
h -2267 736 0
h 2267 -387 -736 0
h -2268 388 0
h -2268 747 0
h 2268 -388 -747 0
h -2269 389 0
h -2269 758 0
h 2269 -389 -758 0
h -2270 390 0
h -2270 769 0
h 2270 -390 -769 0
h -2271 391 0
h -2271 780 0
h 2271 -391 -780 0
h -2272 392 0
h -2272 791 0
h 2272 -392 -791 0
h -2273 393 0
h -2273 802 0
h 2273 -393 -802 0
h -2274 394 0
h -2274 813 0
h 2274 -394 -813 0
h -2275 395 0
h -2275 824 0
h 2275 -395 -824 0
h -2276 396 0
h -2276 835 0
h 2276 -396 -835 0
h -2277 397 0
h -2277 846 0
h 2277 -397 -846 0
h -2278 398 0
h -2278 857 0
h 2278 -398 -857 0
h -2279 399 0
h -2279 868 0
h 2279 -399 -868 0
h -2280 400 0
h -2280 879 0
h 2280 -400 -879 0
h -361 -451 0
h -362 -462 0
h -363 -473 0
h -364 -484 0
h -365 -495 0
h -366 -506 0
h -367 -517 0
h -368 -528 0
h -369 -539 0
h -370 -550 0
h -371 -561 0
h -372 -572 0
h -373 -583 0
h -374 -594 0
h -375 -605 0
h -376 -616 0
h -377 -627 0
h -378 -638 0
h -379 -649 0
h -380 -660 0
h -381 -671 0
h -382 -682 0
h -383 -693 0
h -384 -704 0
h -385 -715 0
h -386 -726 0
h -387 -737 0
h -388 -748 0
h -389 -759 0
h -390 -770 0
h -391 -781 0
h -392 -792 0
h -393 -803 0
h -394 -814 0
h -395 -825 0
h -396 -836 0
h -397 -847 0
h -398 -858 0
h -399 -869 0
h -400 -880 0
h -401 -441 0
h -402 -452 0
h -403 -463 0
h -404 -474 0
h -405 -485 0
h -406 -496 0
h -407 -507 0
h -408 -518 0
h -409 -529 0
h -410 -540 0
h -411 -551 0
h -412 -562 0
h -413 -573 0
h -414 -584 0
h -415 -595 0
h -416 -606 0
h -417 -617 0
h -418 -628 0
h -419 -639 0
h -420 -650 0
h -421 -661 0
h -422 -672 0
h -423 -683 0
h -424 -694 0
h -425 -705 0
h -426 -716 0
h -427 -727 0
h -428 -738 0
h -429 -749 0
h -430 -760 0
h -431 -771 0
h -432 -782 0
h -433 -793 0
h -434 -804 0
h -435 -815 0
h -436 -826 0
h -437 -837 0
h -438 -848 0
h -439 -859 0
h -440 -870 0
h 2281 2282 2283 2284 2285 2286 2287 2288 2289 2290 2291 2292 2293 2294 2295 2296 2297 2298 2299 2300 2301 2302 2303 2304 2305 2306 2307 2308 2309 2310 2311 2312 2313 2314 2315 2316 2317 2318 2319 2320 0
h -2281 401 0
h -2281 442 0
h 2281 -401 -442 0
h -2282 402 0
h -2282 453 0
h 2282 -402 -453 0
h -2283 403 0
h -2283 464 0
h 2283 -403 -464 0
h -2284 404 0
h -2284 475 0
h 2284 -404 -475 0
h -2285 405 0
h -2285 486 0
h 2285 -405 -486 0
h -2286 406 0
h -2286 497 0
h 2286 -406 -497 0
h -2287 407 0
h -2287 508 0
h 2287 -407 -508 0
h -2288 408 0
h -2288 519 0
h 2288 -408 -519 0
h -2289 409 0
h -2289 530 0
h 2289 -409 -530 0
h -2290 410 0
h -2290 541 0
h 2290 -410 -541 0
h -2291 411 0
h -2291 552 0
h 2291 -411 -552 0
h -2292 412 0
h -2292 563 0
h 2292 -412 -563 0
h -2293 413 0
h -2293 574 0
h 2293 -413 -574 0
h -2294 414 0
h -2294 585 0
h 2294 -414 -585 0
h -2295 415 0
h -2295 596 0
h 2295 -415 -596 0
h -2296 416 0
h -2296 607 0
h 2296 -416 -607 0
h -2297 417 0
h -2297 618 0
h 2297 -417 -618 0
h -2298 418 0
h -2298 629 0
h 2298 -418 -629 0
h -2299 419 0
h -2299 640 0
h 2299 -419 -640 0
h -2300 420 0
h -2300 651 0
h 2300 -420 -651 0
h -2301 421 0
h -2301 662 0
h 2301 -421 -662 0
h -2302 422 0
h -2302 673 0
h 2302 -422 -673 0
h -2303 423 0
h -2303 684 0
h 2303 -423 -684 0
h -2304 424 0
h -2304 695 0
h 2304 -424 -695 0
h -2305 425 0
h -2305 706 0
h 2305 -425 -706 0
h -2306 426 0
h -2306 717 0
h 2306 -426 -717 0
h -2307 427 0
h -2307 728 0
h 2307 -427 -728 0
h -2308 428 0
h -2308 739 0
h 2308 -428 -739 0
h -2309 429 0
h -2309 750 0
h 2309 -429 -750 0
h -2310 430 0
h -2310 761 0
h 2310 -430 -761 0
h -2311 431 0
h -2311 772 0
h 2311 -431 -772 0
h -2312 432 0
h -2312 783 0
h 2312 -432 -783 0
h -2313 433 0
h -2313 794 0
h 2313 -433 -794 0
h -2314 434 0
h -2314 805 0
h 2314 -434 -805 0
h -2315 435 0
h -2315 816 0
h 2315 -435 -816 0
h -2316 436 0
h -2316 827 0
h 2316 -436 -827 0
h -2317 437 0
h -2317 838 0
h 2317 -437 -838 0
h -2318 438 0
h -2318 849 0
h 2318 -438 -849 0
h -2319 439 0
h -2319 860 0
h 2319 -439 -860 0
h -2320 440 0
h -2320 871 0
h 2320 -440 -871 0
h -401 -443 0
h -402 -454 0
h -403 -465 0
h -404 -476 0
h -405 -487 0
h -406 -498 0
h -407 -509 0
h -408 -520 0
h -409 -531 0
h -410 -542 0
h -411 -553 0
h -412 -564 0
h -413 -575 0
h -414 -586 0
h -415 -597 0
h -416 -608 0
h -417 -619 0
h -418 -630 0
h -419 -641 0
h -420 -652 0
h -421 -663 0
h -422 -674 0
h -423 -685 0
h -424 -696 0
h -425 -707 0
h -426 -718 0
h -427 -729 0
h -428 -740 0
h -429 -751 0
h -430 -762 0
h -431 -773 0
h -432 -784 0
h -433 -795 0
h -434 -806 0
h -435 -817 0
h -436 -828 0
h -437 -839 0
h -438 -850 0
h -439 -861 0
h -440 -872 0
h 2321 2322 2323 2324 2325 2326 2327 2328 2329 2330 2331 2332 2333 2334 2335 2336 2337 2338 2339 2340 2341 2342 2343 2344 2345 2346 2347 2348 2349 2350 2351 2352 2353 2354 2355 2356 2357 2358 2359 2360 0
h -2321 401 0
h -2321 444 0
h 2321 -401 -444 0
h -2322 402 0
h -2322 455 0
h 2322 -402 -455 0
h -2323 403 0
h -2323 466 0
h 2323 -403 -466 0
h -2324 404 0
h -2324 477 0
h 2324 -404 -477 0
h -2325 405 0
h -2325 488 0
h 2325 -405 -488 0
h -2326 406 0
h -2326 499 0
h 2326 -406 -499 0
h -2327 407 0
h -2327 510 0
h 2327 -407 -510 0
h -2328 408 0
h -2328 521 0
h 2328 -408 -521 0
h -2329 409 0
h -2329 532 0
h 2329 -409 -532 0
h -2330 410 0
h -2330 543 0
h 2330 -410 -543 0
h -2331 411 0
h -2331 554 0
h 2331 -411 -554 0
h -2332 412 0
h -2332 565 0
h 2332 -412 -565 0
h -2333 413 0
h -2333 576 0
h 2333 -413 -576 0
h -2334 414 0
h -2334 587 0
h 2334 -414 -587 0
h -2335 415 0
h -2335 598 0
h 2335 -415 -598 0
h -2336 416 0
h -2336 609 0
h 2336 -416 -609 0
h -2337 417 0
h -2337 620 0
h 2337 -417 -620 0
h -2338 418 0
h -2338 631 0
h 2338 -418 -631 0
h -2339 419 0
h -2339 642 0
h 2339 -419 -642 0
h -2340 420 0
h -2340 653 0
h 2340 -420 -653 0
h -2341 421 0
h -2341 664 0
h 2341 -421 -664 0
h -2342 422 0
h -2342 675 0
h 2342 -422 -675 0
h -2343 423 0
h -2343 686 0
h 2343 -423 -686 0
h -2344 424 0
h -2344 697 0
h 2344 -424 -697 0
h -2345 425 0
h -2345 708 0
h 2345 -425 -708 0
h -2346 426 0
h -2346 719 0
h 2346 -426 -719 0
h -2347 427 0
h -2347 730 0
h 2347 -427 -730 0
h -2348 428 0
h -2348 741 0
h 2348 -428 -741 0
h -2349 429 0
h -2349 752 0
h 2349 -429 -752 0
h -2350 430 0
h -2350 763 0
h 2350 -430 -763 0
h -2351 431 0
h -2351 774 0
h 2351 -431 -774 0
h -2352 432 0
h -2352 785 0
h 2352 -432 -785 0
h -2353 433 0
h -2353 796 0
h 2353 -433 -796 0
h -2354 434 0
h -2354 807 0
h 2354 -434 -807 0
h -2355 435 0
h -2355 818 0
h 2355 -435 -818 0
h -2356 436 0
h -2356 829 0
h 2356 -436 -829 0
h -2357 437 0
h -2357 840 0
h 2357 -437 -840 0
h -2358 438 0
h -2358 851 0
h 2358 -438 -851 0
h -2359 439 0
h -2359 862 0
h 2359 -439 -862 0
h -2360 440 0
h -2360 873 0
h 2360 -440 -873 0
h -401 -445 0
h -402 -456 0
h -403 -467 0
h -404 -478 0
h -405 -489 0
h -406 -500 0
h -407 -511 0
h -408 -522 0
h -409 -533 0
h -410 -544 0
h -411 -555 0
h -412 -566 0
h -413 -577 0
h -414 -588 0
h -415 -599 0
h -416 -610 0
h -417 -621 0
h -418 -632 0
h -419 -643 0
h -420 -654 0
h -421 -665 0
h -422 -676 0
h -423 -687 0
h -424 -698 0
h -425 -709 0
h -426 -720 0
h -427 -731 0
h -428 -742 0
h -429 -753 0
h -430 -764 0
h -431 -775 0
h -432 -786 0
h -433 -797 0
h -434 -808 0
h -435 -819 0
h -436 -830 0
h -437 -841 0
h -438 -852 0
h -439 -863 0
h -440 -874 0
h -401 -446 0
h -402 -457 0
h -403 -468 0
h -404 -479 0
h -405 -490 0
h -406 -501 0
h -407 -512 0
h -408 -523 0
h -409 -534 0
h -410 -545 0
h -411 -556 0
h -412 -567 0
h -413 -578 0
h -414 -589 0
h -415 -600 0
h -416 -611 0
h -417 -622 0
h -418 -633 0
h -419 -644 0
h -420 -655 0
h -421 -666 0
h -422 -677 0
h -423 -688 0
h -424 -699 0
h -425 -710 0
h -426 -721 0
h -427 -732 0
h -428 -743 0
h -429 -754 0
h -430 -765 0
h -431 -776 0
h -432 -787 0
h -433 -798 0
h -434 -809 0
h -435 -820 0
h -436 -831 0
h -437 -842 0
h -438 -853 0
h -439 -864 0
h -440 -875 0
h -401 -447 0
h -402 -458 0
h -403 -469 0
h -404 -480 0
h -405 -491 0
h -406 -502 0
h -407 -513 0
h -408 -524 0
h -409 -535 0
h -410 -546 0
h -411 -557 0
h -412 -568 0
h -413 -579 0
h -414 -590 0
h -415 -601 0
h -416 -612 0
h -417 -623 0
h -418 -634 0
h -419 -645 0
h -420 -656 0
h -421 -667 0
h -422 -678 0
h -423 -689 0
h -424 -700 0
h -425 -711 0
h -426 -722 0
h -427 -733 0
h -428 -744 0
h -429 -755 0
h -430 -766 0
h -431 -777 0
h -432 -788 0
h -433 -799 0
h -434 -810 0
h -435 -821 0
h -436 -832 0
h -437 -843 0
h -438 -854 0
h -439 -865 0
h -440 -876 0
h -401 -448 0
h -402 -459 0
h -403 -470 0
h -404 -481 0
h -405 -492 0
h -406 -503 0
h -407 -514 0
h -408 -525 0
h -409 -536 0
h -410 -547 0
h -411 -558 0
h -412 -569 0
h -413 -580 0
h -414 -591 0
h -415 -602 0
h -416 -613 0
h -417 -624 0
h -418 -635 0
h -419 -646 0
h -420 -657 0
h -421 -668 0
h -422 -679 0
h -423 -690 0
h -424 -701 0
h -425 -712 0
h -426 -723 0
h -427 -734 0
h -428 -745 0
h -429 -756 0
h -430 -767 0
h -431 -778 0
h -432 -789 0
h -433 -800 0
h -434 -811 0
h -435 -822 0
h -436 -833 0
h -437 -844 0
h -438 -855 0
h -439 -866 0
h -440 -877 0
h -401 -449 0
h -402 -460 0
h -403 -471 0
h -404 -482 0
h -405 -493 0
h -406 -504 0
h -407 -515 0
h -408 -526 0
h -409 -537 0
h -410 -548 0
h -411 -559 0
h -412 -570 0
h -413 -581 0
h -414 -592 0
h -415 -603 0
h -416 -614 0
h -417 -625 0
h -418 -636 0
h -419 -647 0
h -420 -658 0
h -421 -669 0
h -422 -680 0
h -423 -691 0
h -424 -702 0
h -425 -713 0
h -426 -724 0
h -427 -735 0
h -428 -746 0
h -429 -757 0
h -430 -768 0
h -431 -779 0
h -432 -790 0
h -433 -801 0
h -434 -812 0
h -435 -823 0
h -436 -834 0
h -437 -845 0
h -438 -856 0
h -439 -867 0
h -440 -878 0
h -401 -450 0
h -402 -461 0
h -403 -472 0
h -404 -483 0
h -405 -494 0
h -406 -505 0
h -407 -516 0
h -408 -527 0
h -409 -538 0
h -410 -549 0
h -411 -560 0
h -412 -571 0
h -413 -582 0
h -414 -593 0
h -415 -604 0
h -416 -615 0
h -417 -626 0
h -418 -637 0
h -419 -648 0
h -420 -659 0
h -421 -670 0
h -422 -681 0
h -423 -692 0
h -424 -703 0
h -425 -714 0
h -426 -725 0
h -427 -736 0
h -428 -747 0
h -429 -758 0
h -430 -769 0
h -431 -780 0
h -432 -791 0
h -433 -802 0
h -434 -813 0
h -435 -824 0
h -436 -835 0
h -437 -846 0
h -438 -857 0
h -439 -868 0
h -440 -879 0
h 2361 2362 2363 2364 2365 2366 2367 2368 2369 2370 2371 2372 2373 2374 2375 2376 2377 2378 2379 2380 2381 2382 2383 2384 2385 2386 2387 2388 2389 2390 2391 2392 2393 2394 2395 2396 2397 2398 2399 2400 0
h -2361 401 0
h -2361 451 0
h 2361 -401 -451 0
h -2362 402 0
h -2362 462 0
h 2362 -402 -462 0
h -2363 403 0
h -2363 473 0
h 2363 -403 -473 0
h -2364 404 0
h -2364 484 0
h 2364 -404 -484 0
h -2365 405 0
h -2365 495 0
h 2365 -405 -495 0
h -2366 406 0
h -2366 506 0
h 2366 -406 -506 0
h -2367 407 0
h -2367 517 0
h 2367 -407 -517 0
h -2368 408 0
h -2368 528 0
h 2368 -408 -528 0
h -2369 409 0
h -2369 539 0
h 2369 -409 -539 0
h -2370 410 0
h -2370 550 0
h 2370 -410 -550 0
h -2371 411 0
h -2371 561 0
h 2371 -411 -561 0
h -2372 412 0
h -2372 572 0
h 2372 -412 -572 0
h -2373 413 0
h -2373 583 0
h 2373 -413 -583 0
h -2374 414 0
h -2374 594 0
h 2374 -414 -594 0
h -2375 415 0
h -2375 605 0
h 2375 -415 -605 0
h -2376 416 0
h -2376 616 0
h 2376 -416 -616 0
h -2377 417 0
h -2377 627 0
h 2377 -417 -627 0
h -2378 418 0
h -2378 638 0
h 2378 -418 -638 0
h -2379 419 0
h -2379 649 0
h 2379 -419 -649 0
h -2380 420 0
h -2380 660 0
h 2380 -420 -660 0
h -2381 421 0
h -2381 671 0
h 2381 -421 -671 0
h -2382 422 0
h -2382 682 0
h 2382 -422 -682 0
h -2383 423 0
h -2383 693 0
h 2383 -423 -693 0
h -2384 424 0
h -2384 704 0
h 2384 -424 -704 0
h -2385 425 0
h -2385 715 0
h 2385 -425 -715 0
h -2386 426 0
h -2386 726 0
h 2386 -426 -726 0
h -2387 427 0
h -2387 737 0
h 2387 -427 -737 0
h -2388 428 0
h -2388 748 0
h 2388 -428 -748 0
h -2389 429 0
h -2389 759 0
h 2389 -429 -759 0
h -2390 430 0
h -2390 770 0
h 2390 -430 -770 0
h -2391 431 0
h -2391 781 0
h 2391 -431 -781 0
h -2392 432 0
h -2392 792 0
h 2392 -432 -792 0
h -2393 433 0
h -2393 803 0
h 2393 -433 -803 0
h -2394 434 0
h -2394 814 0
h 2394 -434 -814 0
h -2395 435 0
h -2395 825 0
h 2395 -435 -825 0
h -2396 436 0
h -2396 836 0
h 2396 -436 -836 0
h -2397 437 0
h -2397 847 0
h 2397 -437 -847 0
h -2398 438 0
h -2398 858 0
h 2398 -438 -858 0
h -2399 439 0
h -2399 869 0
h 2399 -439 -869 0
h -2400 440 0
h -2400 880 0
h 2400 -440 -880 0
