c Standarized MaxSat Instance
c{
c "sha1sum": "b1293e208f866ba6cf8cc530bc19dad6a95e5916",
c "nvars": 2196,
c "ncls": 8752,
c "total_lits": 19609,
c "nhards": 7837,
c "nhard_nlits": 18694,
c "nhard_len_stats":
c    { "min": 2,
c      "max": 36,
c      "ave": 2.3854,
c      "stddev": 2.4679 },
c "nsofts": 915,
c "nsoft_nlits": 915,
c "nsoft_len_stats":
c    { "min": 1,
c      "max": 1,
c      "ave": 1.0000,
c      "stddev": 0.0000 },
c "nsoft_wts": 4,
c "soft_wt_stats":
c    { "min": 115,
c      "max": 6364,
c      "ave": 1092.5913,
c      "stddev": 654.9037 }
c}
c------------------------------------------------------------
c Input CNF, Input: #User=11, #Permessi=11, #ruoli=36
1136 1 0
1136 2 0
1136 3 0
1136 4 0
1136 5 0
1136 6 0
1136 7 0
1136 8 0
1136 -9 0
1136 10 0
1136 -11 0
1136 37 0
1136 38 0
1136 39 0
1136 40 0
1136 41 0
1136 42 0
1136 43 0
1136 44 0
1136 -45 0
1136 46 0
1136 -47 0
1136 -73 0
1136 74 0
1136 75 0
1136 -76 0
1136 77 0
1136 -78 0
1136 -79 0
1136 80 0
1136 -81 0
1136 82 0
1136 -83 0
1136 109 0
1136 110 0
1136 111 0
1136 -112 0
1136 -113 0
1136 114 0
1136 115 0
1136 116 0
1136 -117 0
1136 118 0
1136 -119 0
1136 -145 0
1136 -146 0
1136 147 0
1136 -148 0
1136 -149 0
1136 -150 0
1136 151 0
1136 -152 0
1136 -153 0
1136 -154 0
1136 -155 0
1136 -181 0
1136 -182 0
1136 -183 0
1136 -184 0
1136 -185 0
1136 -186 0
1136 -187 0
1136 188 0
1136 -189 0
1136 -190 0
1136 -191 0
1136 -217 0
1136 -218 0
1136 -219 0
1136 -220 0
1136 -221 0
1136 -222 0
1136 -223 0
1136 224 0
1136 -225 0
1136 -226 0
1136 -227 0
1136 253 0
1136 254 0
1136 255 0
1136 -256 0
1136 -257 0
1136 -258 0
1136 -259 0
1136 260 0
1136 261 0
1136 262 0
1136 -263 0
1136 -289 0
1136 -290 0
1136 291 0
1136 -292 0
1136 -293 0
1136 -294 0
1136 -295 0
1136 296 0
1136 -297 0
1136 298 0
1136 -299 0
1136 325 0
1136 326 0
1136 327 0
1136 -328 0
1136 -329 0
1136 -330 0
1136 -331 0
1136 332 0
1136 -333 0
1136 334 0
1136 335 0
1136 -361 0
1136 -362 0
1136 -363 0
1136 -364 0
1136 -365 0
1136 -366 0
1136 -367 0
1136 -368 0
1136 -369 0
1136 -370 0
1136 -371 0
1136 397 0
1136 398 0
1136 399 0
1136 400 0
1136 -401 0
1136 -402 0
1136 -403 0
1136 -404 0
1136 -405 0
1136 -406 0
1136 -407 0
1136 408 0
1136 -409 0
1136 410 0
1136 411 0
1136 -412 0
1136 -413 0
1136 -414 0
1136 -415 0
1136 -416 0
1136 -417 0
1136 -418 0
1136 -419 0
1136 -420 0
1136 -421 0
1136 422 0
1136 -423 0
1136 -424 0
1136 -425 0
1136 -426 0
1136 -427 0
1136 -428 0
1136 -429 0
1136 430 0
1136 431 0
1136 432 0
1136 433 0
1136 434 0
1136 435 0
1136 -436 0
1136 -437 0
1136 -438 0
1136 -439 0
1136 -440 0
1136 441 0
1136 -442 0
1136 443 0
1136 444 0
1136 445 0
1136 -446 0
1136 -447 0
1136 -448 0
1136 -449 0
1136 -450 0
1136 -451 0
1136 452 0
1136 453 0
1136 454 0
1136 455 0
1136 -456 0
1136 457 0
1136 -458 0
1136 -459 0
1136 -460 0
1136 -461 0
1136 -462 0
1136 -463 0
1136 -464 0
1136 -465 0
1136 466 0
1136 -467 0
1136 468 0
1136 -469 0
1136 -470 0
1136 -471 0
1136 -472 0
1136 -473 0
1136 474 0
1136 -475 0
1136 -476 0
1136 -477 0
1136 -478 0
1136 -479 0
1136 -480 0
1136 -481 0
1136 -482 0
1136 -483 0
1136 -484 0
1136 485 0
1136 486 0
1136 487 0
1136 488 0
1136 -489 0
1136 -490 0
1136 491 0
1136 -492 0
1136 -493 0
1136 -494 0
1136 -495 0
1136 496 0
1136 -497 0
1136 -498 0
1136 499 0
1136 -500 0
1136 -501 0
1136 -502 0
1136 -503 0
1136 -504 0
1136 -505 0
1136 -506 0
1136 507 0
1136 508 0
1136 509 0
1136 510 0
1136 -511 0
1136 -512 0
1136 -513 0
1136 -514 0
1136 -515 0
1136 516 0
1136 -517 0
1136 -12 0
1136 -13 0
1136 -14 0
1136 -15 0
1136 -16 0
1136 -17 0
1136 -18 0
1136 -19 0
1136 -20 0
1136 -21 0
1136 -22 0
1136 -23 0
1136 -24 0
1136 -25 0
1136 -26 0
1136 -27 0
1136 -28 0
1136 -29 0
1136 -30 0
1136 -31 0
1136 -32 0
1136 -33 0
1136 -34 0
1136 -35 0
1136 -36 0
1136 -48 0
1136 -49 0
1136 -50 0
1136 -51 0
1136 -52 0
1136 -53 0
1136 -54 0
1136 -55 0
1136 -56 0
1136 -57 0
1136 -58 0
1136 -59 0
1136 -60 0
1136 -61 0
1136 -62 0
1136 -63 0
1136 -64 0
1136 -65 0
1136 -66 0
1136 -67 0
1136 -68 0
1136 -69 0
1136 -70 0
1136 -71 0
1136 -72 0
1136 -84 0
1136 -85 0
1136 -86 0
1136 -87 0
1136 -88 0
1136 -89 0
1136 -90 0
1136 -91 0
1136 -92 0
1136 -93 0
1136 -94 0
1136 -95 0
1136 -96 0
1136 -97 0
1136 -98 0
1136 -99 0
1136 -100 0
1136 -101 0
1136 -102 0
1136 -103 0
1136 -104 0
1136 -105 0
1136 -106 0
1136 -107 0
1136 -108 0
1136 -120 0
1136 -121 0
1136 -122 0
1136 -123 0
1136 -124 0
1136 -125 0
1136 -126 0
1136 -127 0
1136 -128 0
1136 -129 0
1136 -130 0
1136 -131 0
1136 -132 0
1136 -133 0
1136 -134 0
1136 -135 0
1136 -136 0
1136 -137 0
1136 -138 0
1136 -139 0
1136 -140 0
1136 -141 0
1136 -142 0
1136 -143 0
1136 -144 0
1136 -156 0
1136 -157 0
1136 -158 0
1136 -159 0
1136 -160 0
1136 -161 0
1136 -162 0
1136 -163 0
1136 -164 0
1136 -165 0
1136 -166 0
1136 -167 0
1136 -168 0
1136 -169 0
1136 -170 0
1136 -171 0
1136 -172 0
1136 -173 0
1136 -174 0
1136 -175 0
1136 -176 0
1136 -177 0
1136 -178 0
1136 -179 0
1136 -180 0
1136 -192 0
1136 -193 0
1136 -194 0
1136 -195 0
1136 -196 0
1136 -197 0
1136 -198 0
1136 -199 0
1136 -200 0
1136 -201 0
1136 -202 0
1136 -203 0
1136 -204 0
1136 -205 0
1136 -206 0
1136 -207 0
1136 -208 0
1136 -209 0
1136 -210 0
1136 -211 0
1136 -212 0
1136 -213 0
1136 -214 0
1136 -215 0
1136 -216 0
1136 -228 0
1136 -229 0
1136 -230 0
1136 -231 0
1136 -232 0
1136 -233 0
1136 -234 0
1136 -235 0
1136 -236 0
1136 -237 0
1136 -238 0
1136 -239 0
1136 -240 0
1136 -241 0
1136 -242 0
1136 -243 0
1136 -244 0
1136 -245 0
1136 -246 0
1136 -247 0
1136 -248 0
1136 -249 0
1136 -250 0
1136 -251 0
1136 -252 0
1136 -264 0
1136 -265 0
1136 -266 0
1136 -267 0
1136 -268 0
1136 -269 0
1136 -270 0
1136 -271 0
1136 -272 0
1136 -273 0
1136 -274 0
1136 -275 0
1136 -276 0
1136 -277 0
1136 -278 0
1136 -279 0
1136 -280 0
1136 -281 0
1136 -282 0
1136 -283 0
1136 -284 0
1136 -285 0
1136 -286 0
1136 -287 0
1136 -288 0
1136 -300 0
1136 -301 0
1136 -302 0
1136 -303 0
1136 -304 0
1136 -305 0
1136 -306 0
1136 -307 0
1136 -308 0
1136 -309 0
1136 -310 0
1136 -311 0
1136 -312 0
1136 -313 0
1136 -314 0
1136 -315 0
1136 -316 0
1136 -317 0
1136 -318 0
1136 -319 0
1136 -320 0
1136 -321 0
1136 -322 0
1136 -323 0
1136 -324 0
1136 -336 0
1136 -337 0
1136 -338 0
1136 -339 0
1136 -340 0
1136 -341 0
1136 -342 0
1136 -343 0
1136 -344 0
1136 -345 0
1136 -346 0
1136 -347 0
1136 -348 0
1136 -349 0
1136 -350 0
1136 -351 0
1136 -352 0
1136 -353 0
1136 -354 0
1136 -355 0
1136 -356 0
1136 -357 0
1136 -358 0
1136 -359 0
1136 -360 0
1136 -372 0
1136 -373 0
1136 -374 0
1136 -375 0
1136 -376 0
1136 -377 0
1136 -378 0
1136 -379 0
1136 -380 0
1136 -381 0
1136 -382 0
1136 -383 0
1136 -384 0
1136 -385 0
1136 -386 0
1136 -387 0
1136 -388 0
1136 -389 0
1136 -390 0
1136 -391 0
1136 -392 0
1136 -393 0
1136 -394 0
1136 -395 0
1136 -396 0
1136 -518 0
1136 -529 0
1136 -540 0
1136 -551 0
1136 -562 0
1136 -573 0
1136 -584 0
1136 -595 0
1136 -606 0
1136 -617 0
1136 -628 0
1136 -639 0
1136 -650 0
1136 -661 0
1136 -672 0
1136 -683 0
1136 -694 0
1136 -705 0
1136 -716 0
1136 -727 0
1136 -738 0
1136 -749 0
1136 -760 0
1136 -771 0
1136 -782 0
1136 -519 0
1136 -530 0
1136 -541 0
1136 -552 0
1136 -563 0
1136 -574 0
1136 -585 0
1136 -596 0
1136 -607 0
1136 -618 0
1136 -629 0
1136 -640 0
1136 -651 0
1136 -662 0
1136 -673 0
1136 -684 0
1136 -695 0
1136 -706 0
1136 -717 0
1136 -728 0
1136 -739 0
1136 -750 0
1136 -761 0
1136 -772 0
1136 -783 0
1136 -520 0
1136 -531 0
1136 -542 0
1136 -553 0
1136 -564 0
1136 -575 0
1136 -586 0
1136 -597 0
1136 -608 0
1136 -619 0
1136 -630 0
1136 -641 0
1136 -652 0
1136 -663 0
1136 -674 0
1136 -685 0
1136 -696 0
1136 -707 0
1136 -718 0
1136 -729 0
1136 -740 0
1136 -751 0
1136 -762 0
1136 -773 0
1136 -784 0
1136 -521 0
1136 -532 0
1136 -543 0
1136 -554 0
1136 -565 0
1136 -576 0
1136 -587 0
1136 -598 0
1136 -609 0
1136 -620 0
1136 -631 0
1136 -642 0
1136 -653 0
1136 -664 0
1136 -675 0
1136 -686 0
1136 -697 0
1136 -708 0
1136 -719 0
1136 -730 0
1136 -741 0
1136 -752 0
1136 -763 0
1136 -774 0
1136 -785 0
1136 -522 0
1136 -533 0
1136 -544 0
1136 -555 0
1136 -566 0
1136 -577 0
1136 -588 0
1136 -599 0
1136 -610 0
1136 -621 0
1136 -632 0
1136 -643 0
1136 -654 0
1136 -665 0
1136 -676 0
1136 -687 0
1136 -698 0
1136 -709 0
1136 -720 0
1136 -731 0
1136 -742 0
1136 -753 0
1136 -764 0
1136 -775 0
1136 -786 0
1136 -523 0
1136 -534 0
1136 -545 0
1136 -556 0
1136 -567 0
1136 -578 0
1136 -589 0
1136 -600 0
1136 -611 0
1136 -622 0
1136 -633 0
1136 -644 0
1136 -655 0
1136 -666 0
1136 -677 0
1136 -688 0
1136 -699 0
1136 -710 0
1136 -721 0
1136 -732 0
1136 -743 0
1136 -754 0
1136 -765 0
1136 -776 0
1136 -787 0
1136 -524 0
1136 -535 0
1136 -546 0
1136 -557 0
1136 -568 0
1136 -579 0
1136 -590 0
1136 -601 0
1136 -612 0
1136 -623 0
1136 -634 0
1136 -645 0
1136 -656 0
1136 -667 0
1136 -678 0
1136 -689 0
1136 -700 0
1136 -711 0
1136 -722 0
1136 -733 0
1136 -744 0
1136 -755 0
1136 -766 0
1136 -777 0
1136 -788 0
1136 -525 0
1136 -536 0
1136 -547 0
1136 -558 0
1136 -569 0
1136 -580 0
1136 -591 0
1136 -602 0
1136 -613 0
1136 -624 0
1136 -635 0
1136 -646 0
1136 -657 0
1136 -668 0
1136 -679 0
1136 -690 0
1136 -701 0
1136 -712 0
1136 -723 0
1136 -734 0
1136 -745 0
1136 -756 0
1136 -767 0
1136 -778 0
1136 -789 0
1136 -526 0
1136 -537 0
1136 -548 0
1136 -559 0
1136 -570 0
1136 -581 0
1136 -592 0
1136 -603 0
1136 -614 0
1136 -625 0
1136 -636 0
1136 -647 0
1136 -658 0
1136 -669 0
1136 -680 0
1136 -691 0
1136 -702 0
1136 -713 0
1136 -724 0
1136 -735 0
1136 -746 0
1136 -757 0
1136 -768 0
1136 -779 0
1136 -790 0
1136 -527 0
1136 -538 0
1136 -549 0
1136 -560 0
1136 -571 0
1136 -582 0
1136 -593 0
1136 -604 0
1136 -615 0
1136 -626 0
1136 -637 0
1136 -648 0
1136 -659 0
1136 -670 0
1136 -681 0
1136 -692 0
1136 -703 0
1136 -714 0
1136 -725 0
1136 -736 0
1136 -747 0
1136 -758 0
1136 -769 0
1136 -780 0
1136 -791 0
1136 -528 0
1136 -539 0
1136 -550 0
1136 -561 0
1136 -572 0
1136 -583 0
1136 -594 0
1136 -605 0
1136 -616 0
1136 -627 0
1136 -638 0
1136 -649 0
1136 -660 0
1136 -671 0
1136 -682 0
1136 -693 0
1136 -704 0
1136 -715 0
1136 -726 0
1136 -737 0
1136 -748 0
1136 -759 0
1136 -770 0
1136 -781 0
1136 -792 0
115 -1 0
115 -2 0
115 -3 0
115 -4 0
115 -5 0
115 -6 0
115 -7 0
115 -8 0
115 -10 0
115 -37 0
115 -38 0
115 -39 0
115 -40 0
115 -41 0
115 -42 0
115 -43 0
115 -44 0
115 -46 0
115 -74 0
115 -75 0
115 -77 0
115 -80 0
115 -82 0
115 -109 0
115 -110 0
115 -111 0
115 -114 0
115 -115 0
115 -116 0
115 -118 0
115 -147 0
115 -151 0
115 -188 0
115 -224 0
115 -253 0
115 -254 0
115 -255 0
115 -260 0
115 -261 0
115 -262 0
115 -291 0
115 -296 0
115 -298 0
115 -325 0
115 -326 0
115 -327 0
115 -332 0
115 -334 0
115 -335 0
115 -397 0
115 -398 0
115 -399 0
115 -400 0
115 -408 0
115 -410 0
115 -411 0
115 -422 0
115 -430 0
115 -431 0
115 -432 0
115 -433 0
115 -434 0
115 -435 0
115 -441 0
115 -443 0
115 -444 0
115 -445 0
115 -452 0
115 -453 0
115 -454 0
115 -455 0
115 -457 0
115 -466 0
115 -468 0
115 -474 0
115 -485 0
115 -486 0
115 -487 0
115 -488 0
115 -491 0
115 -496 0
115 -499 0
115 -507 0
115 -508 0
115 -509 0
115 -510 0
115 -516 0
6364 793 0
6364 794 0
6364 795 0
6364 796 0
6364 797 0
6364 798 0
6364 799 0
6364 800 0
6364 801 0
6364 802 0
6364 803 0
800 804 0
800 805 0
800 806 0
800 807 0
800 808 0
800 809 0
800 810 0
800 811 0
800 812 0
800 813 0
800 814 0
800 815 0
800 816 0
800 817 0
800 818 0
800 819 0
800 820 0
800 821 0
800 822 0
800 823 0
800 824 0
800 825 0
800 826 0
800 827 0
800 828 0
h -793 -1 0
h -793 -37 0
h -793 -73 0
h -793 -109 0
h -793 -145 0
h -793 -181 0
h -793 -217 0
h -793 -253 0
h -793 -289 0
h -793 -325 0
h -793 -361 0
h 793 1 37 73 109 145 181 217 253 289 325 361 0
h -794 -2 0
h -794 -38 0
h -794 -74 0
h -794 -110 0
h -794 -146 0
h -794 -182 0
h -794 -218 0
h -794 -254 0
h -794 -290 0
h -794 -326 0
h -794 -362 0
h 794 2 38 74 110 146 182 218 254 290 326 362 0
h -795 -3 0
h -795 -39 0
h -795 -75 0
h -795 -111 0
h -795 -147 0
h -795 -183 0
h -795 -219 0
h -795 -255 0
h -795 -291 0
h -795 -327 0
h -795 -363 0
h 795 3 39 75 111 147 183 219 255 291 327 363 0
h -796 -4 0
h -796 -40 0
h -796 -76 0
h -796 -112 0
h -796 -148 0
h -796 -184 0
h -796 -220 0
h -796 -256 0
h -796 -292 0
h -796 -328 0
h -796 -364 0
h 796 4 40 76 112 148 184 220 256 292 328 364 0
h -797 -5 0
h -797 -41 0
h -797 -77 0
h -797 -113 0
h -797 -149 0
h -797 -185 0
h -797 -221 0
h -797 -257 0
h -797 -293 0
h -797 -329 0
h -797 -365 0
h 797 5 41 77 113 149 185 221 257 293 329 365 0
h -798 -6 0
h -798 -42 0
h -798 -78 0
h -798 -114 0
h -798 -150 0
h -798 -186 0
h -798 -222 0
h -798 -258 0
h -798 -294 0
h -798 -330 0
h -798 -366 0
h 798 6 42 78 114 150 186 222 258 294 330 366 0
h -799 -7 0
h -799 -43 0
h -799 -79 0
h -799 -115 0
h -799 -151 0
h -799 -187 0
h -799 -223 0
h -799 -259 0
h -799 -295 0
h -799 -331 0
h -799 -367 0
h 799 7 43 79 115 151 187 223 259 295 331 367 0
h -800 -8 0
h -800 -44 0
h -800 -80 0
h -800 -116 0
h -800 -152 0
h -800 -188 0
h -800 -224 0
h -800 -260 0
h -800 -296 0
h -800 -332 0
h -800 -368 0
h 800 8 44 80 116 152 188 224 260 296 332 368 0
h -801 -9 0
h -801 -45 0
h -801 -81 0
h -801 -117 0
h -801 -153 0
h -801 -189 0
h -801 -225 0
h -801 -261 0
h -801 -297 0
h -801 -333 0
h -801 -369 0
h 801 9 45 81 117 153 189 225 261 297 333 369 0
h -802 -10 0
h -802 -46 0
h -802 -82 0
h -802 -118 0
h -802 -154 0
h -802 -190 0
h -802 -226 0
h -802 -262 0
h -802 -298 0
h -802 -334 0
h -802 -370 0
h 802 10 46 82 118 154 190 226 262 298 334 370 0
h -803 -11 0
h -803 -47 0
h -803 -83 0
h -803 -119 0
h -803 -155 0
h -803 -191 0
h -803 -227 0
h -803 -263 0
h -803 -299 0
h -803 -335 0
h -803 -371 0
h 803 11 47 83 119 155 191 227 263 299 335 371 0
h -804 -12 0
h -804 -48 0
h -804 -84 0
h -804 -120 0
h -804 -156 0
h -804 -192 0
h -804 -228 0
h -804 -264 0
h -804 -300 0
h -804 -336 0
h -804 -372 0
h 804 12 48 84 120 156 192 228 264 300 336 372 0
h -805 -13 0
h -805 -49 0
h -805 -85 0
h -805 -121 0
h -805 -157 0
h -805 -193 0
h -805 -229 0
h -805 -265 0
h -805 -301 0
h -805 -337 0
h -805 -373 0
h 805 13 49 85 121 157 193 229 265 301 337 373 0
h -806 -14 0
h -806 -50 0
h -806 -86 0
h -806 -122 0
h -806 -158 0
h -806 -194 0
h -806 -230 0
h -806 -266 0
h -806 -302 0
h -806 -338 0
h -806 -374 0
h 806 14 50 86 122 158 194 230 266 302 338 374 0
h -807 -15 0
h -807 -51 0
h -807 -87 0
h -807 -123 0
h -807 -159 0
h -807 -195 0
h -807 -231 0
h -807 -267 0
h -807 -303 0
h -807 -339 0
h -807 -375 0
h 807 15 51 87 123 159 195 231 267 303 339 375 0
h -808 -16 0
h -808 -52 0
h -808 -88 0
h -808 -124 0
h -808 -160 0
h -808 -196 0
h -808 -232 0
h -808 -268 0
h -808 -304 0
h -808 -340 0
h -808 -376 0
h 808 16 52 88 124 160 196 232 268 304 340 376 0
h -809 -17 0
h -809 -53 0
h -809 -89 0
h -809 -125 0
h -809 -161 0
h -809 -197 0
h -809 -233 0
h -809 -269 0
h -809 -305 0
h -809 -341 0
h -809 -377 0
h 809 17 53 89 125 161 197 233 269 305 341 377 0
h -810 -18 0
h -810 -54 0
h -810 -90 0
h -810 -126 0
h -810 -162 0
h -810 -198 0
h -810 -234 0
h -810 -270 0
h -810 -306 0
h -810 -342 0
h -810 -378 0
h 810 18 54 90 126 162 198 234 270 306 342 378 0
h -811 -19 0
h -811 -55 0
h -811 -91 0
h -811 -127 0
h -811 -163 0
h -811 -199 0
h -811 -235 0
h -811 -271 0
h -811 -307 0
h -811 -343 0
h -811 -379 0
h 811 19 55 91 127 163 199 235 271 307 343 379 0
h -812 -20 0
h -812 -56 0
h -812 -92 0
h -812 -128 0
h -812 -164 0
h -812 -200 0
h -812 -236 0
h -812 -272 0
h -812 -308 0
h -812 -344 0
h -812 -380 0
h 812 20 56 92 128 164 200 236 272 308 344 380 0
h -813 -21 0
h -813 -57 0
h -813 -93 0
h -813 -129 0
h -813 -165 0
h -813 -201 0
h -813 -237 0
h -813 -273 0
h -813 -309 0
h -813 -345 0
h -813 -381 0
h 813 21 57 93 129 165 201 237 273 309 345 381 0
h -814 -22 0
h -814 -58 0
h -814 -94 0
h -814 -130 0
h -814 -166 0
h -814 -202 0
h -814 -238 0
h -814 -274 0
h -814 -310 0
h -814 -346 0
h -814 -382 0
h 814 22 58 94 130 166 202 238 274 310 346 382 0
h -815 -23 0
h -815 -59 0
h -815 -95 0
h -815 -131 0
h -815 -167 0
h -815 -203 0
h -815 -239 0
h -815 -275 0
h -815 -311 0
h -815 -347 0
h -815 -383 0
h 815 23 59 95 131 167 203 239 275 311 347 383 0
h -816 -24 0
h -816 -60 0
h -816 -96 0
h -816 -132 0
h -816 -168 0
h -816 -204 0
h -816 -240 0
h -816 -276 0
h -816 -312 0
h -816 -348 0
h -816 -384 0
h 816 24 60 96 132 168 204 240 276 312 348 384 0
h -817 -25 0
h -817 -61 0
h -817 -97 0
h -817 -133 0
h -817 -169 0
h -817 -205 0
h -817 -241 0
h -817 -277 0
h -817 -313 0
h -817 -349 0
h -817 -385 0
h 817 25 61 97 133 169 205 241 277 313 349 385 0
h -818 -26 0
h -818 -62 0
h -818 -98 0
h -818 -134 0
h -818 -170 0
h -818 -206 0
h -818 -242 0
h -818 -278 0
h -818 -314 0
h -818 -350 0
h -818 -386 0
h 818 26 62 98 134 170 206 242 278 314 350 386 0
h -819 -27 0
h -819 -63 0
h -819 -99 0
h -819 -135 0
h -819 -171 0
h -819 -207 0
h -819 -243 0
h -819 -279 0
h -819 -315 0
h -819 -351 0
h -819 -387 0
h 819 27 63 99 135 171 207 243 279 315 351 387 0
h -820 -28 0
h -820 -64 0
h -820 -100 0
h -820 -136 0
h -820 -172 0
h -820 -208 0
h -820 -244 0
h -820 -280 0
h -820 -316 0
h -820 -352 0
h -820 -388 0
h 820 28 64 100 136 172 208 244 280 316 352 388 0
h -821 -29 0
h -821 -65 0
h -821 -101 0
h -821 -137 0
h -821 -173 0
h -821 -209 0
h -821 -245 0
h -821 -281 0
h -821 -317 0
h -821 -353 0
h -821 -389 0
h 821 29 65 101 137 173 209 245 281 317 353 389 0
h -822 -30 0
h -822 -66 0
h -822 -102 0
h -822 -138 0
h -822 -174 0
h -822 -210 0
h -822 -246 0
h -822 -282 0
h -822 -318 0
h -822 -354 0
h -822 -390 0
h 822 30 66 102 138 174 210 246 282 318 354 390 0
h -823 -31 0
h -823 -67 0
h -823 -103 0
h -823 -139 0
h -823 -175 0
h -823 -211 0
h -823 -247 0
h -823 -283 0
h -823 -319 0
h -823 -355 0
h -823 -391 0
h 823 31 67 103 139 175 211 247 283 319 355 391 0
h -824 -32 0
h -824 -68 0
h -824 -104 0
h -824 -140 0
h -824 -176 0
h -824 -212 0
h -824 -248 0
h -824 -284 0
h -824 -320 0
h -824 -356 0
h -824 -392 0
h 824 32 68 104 140 176 212 248 284 320 356 392 0
h -825 -33 0
h -825 -69 0
h -825 -105 0
h -825 -141 0
h -825 -177 0
h -825 -213 0
h -825 -249 0
h -825 -285 0
h -825 -321 0
h -825 -357 0
h -825 -393 0
h 825 33 69 105 141 177 213 249 285 321 357 393 0
h -826 -34 0
h -826 -70 0
h -826 -106 0
h -826 -142 0
h -826 -178 0
h -826 -214 0
h -826 -250 0
h -826 -286 0
h -826 -322 0
h -826 -358 0
h -826 -394 0
h 826 34 70 106 142 178 214 250 286 322 358 394 0
h -827 -35 0
h -827 -71 0
h -827 -107 0
h -827 -143 0
h -827 -179 0
h -827 -215 0
h -827 -251 0
h -827 -287 0
h -827 -323 0
h -827 -359 0
h -827 -395 0
h 827 35 71 107 143 179 215 251 287 323 359 395 0
h -828 -36 0
h -828 -72 0
h -828 -108 0
h -828 -144 0
h -828 -180 0
h -828 -216 0
h -828 -252 0
h -828 -288 0
h -828 -324 0
h -828 -360 0
h -828 -396 0
h 828 36 72 108 144 180 216 252 288 324 360 396 0
h 804 -793 0
h 804 -794 0
h 804 -795 0
h 804 -796 0
h 804 -797 0
h 804 -798 0
h 804 -799 0
h 804 -800 0
h 804 -801 0
h 804 -802 0
h 804 -803 0
h 805 -793 0
h 805 -794 0
h 805 -795 0
h 805 -796 0
h 805 -797 0
h 805 -798 0
h 805 -799 0
h 805 -800 0
h 805 -801 0
h 805 -802 0
h 805 -803 0
h 806 -793 0
h 806 -794 0
h 806 -795 0
h 806 -796 0
h 806 -797 0
h 806 -798 0
h 806 -799 0
h 806 -800 0
h 806 -801 0
h 806 -802 0
h 806 -803 0
h 807 -793 0
h 807 -794 0
h 807 -795 0
h 807 -796 0
h 807 -797 0
h 807 -798 0
h 807 -799 0
h 807 -800 0
h 807 -801 0
h 807 -802 0
h 807 -803 0
h 808 -793 0
h 808 -794 0
h 808 -795 0
h 808 -796 0
h 808 -797 0
h 808 -798 0
h 808 -799 0
h 808 -800 0
h 808 -801 0
h 808 -802 0
h 808 -803 0
h 809 -793 0
h 809 -794 0
h 809 -795 0
h 809 -796 0
h 809 -797 0
h 809 -798 0
h 809 -799 0
h 809 -800 0
h 809 -801 0
h 809 -802 0
h 809 -803 0
h 810 -793 0
h 810 -794 0
h 810 -795 0
h 810 -796 0
h 810 -797 0
h 810 -798 0
h 810 -799 0
h 810 -800 0
h 810 -801 0
h 810 -802 0
h 810 -803 0
h 811 -793 0
h 811 -794 0
h 811 -795 0
h 811 -796 0
h 811 -797 0
h 811 -798 0
h 811 -799 0
h 811 -800 0
h 811 -801 0
h 811 -802 0
h 811 -803 0
h 812 -793 0
h 812 -794 0
h 812 -795 0
h 812 -796 0
h 812 -797 0
h 812 -798 0
h 812 -799 0
h 812 -800 0
h 812 -801 0
h 812 -802 0
h 812 -803 0
h 813 -793 0
h 813 -794 0
h 813 -795 0
h 813 -796 0
h 813 -797 0
h 813 -798 0
h 813 -799 0
h 813 -800 0
h 813 -801 0
h 813 -802 0
h 813 -803 0
h 814 -793 0
h 814 -794 0
h 814 -795 0
h 814 -796 0
h 814 -797 0
h 814 -798 0
h 814 -799 0
h 814 -800 0
h 814 -801 0
h 814 -802 0
h 814 -803 0
h 815 -793 0
h 815 -794 0
h 815 -795 0
h 815 -796 0
h 815 -797 0
h 815 -798 0
h 815 -799 0
h 815 -800 0
h 815 -801 0
h 815 -802 0
h 815 -803 0
h 816 -793 0
h 816 -794 0
h 816 -795 0
h 816 -796 0
h 816 -797 0
h 816 -798 0
h 816 -799 0
h 816 -800 0
h 816 -801 0
h 816 -802 0
h 816 -803 0
h 817 -793 0
h 817 -794 0
h 817 -795 0
h 817 -796 0
h 817 -797 0
h 817 -798 0
h 817 -799 0
h 817 -800 0
h 817 -801 0
h 817 -802 0
h 817 -803 0
h 818 -793 0
h 818 -794 0
h 818 -795 0
h 818 -796 0
h 818 -797 0
h 818 -798 0
h 818 -799 0
h 818 -800 0
h 818 -801 0
h 818 -802 0
h 818 -803 0
h 819 -793 0
h 819 -794 0
h 819 -795 0
h 819 -796 0
h 819 -797 0
h 819 -798 0
h 819 -799 0
h 819 -800 0
h 819 -801 0
h 819 -802 0
h 819 -803 0
h 820 -793 0
h 820 -794 0
h 820 -795 0
h 820 -796 0
h 820 -797 0
h 820 -798 0
h 820 -799 0
h 820 -800 0
h 820 -801 0
h 820 -802 0
h 820 -803 0
h 821 -793 0
h 821 -794 0
h 821 -795 0
h 821 -796 0
h 821 -797 0
h 821 -798 0
h 821 -799 0
h 821 -800 0
h 821 -801 0
h 821 -802 0
h 821 -803 0
h 822 -793 0
h 822 -794 0
h 822 -795 0
h 822 -796 0
h 822 -797 0
h 822 -798 0
h 822 -799 0
h 822 -800 0
h 822 -801 0
h 822 -802 0
h 822 -803 0
h 823 -793 0
h 823 -794 0
h 823 -795 0
h 823 -796 0
h 823 -797 0
h 823 -798 0
h 823 -799 0
h 823 -800 0
h 823 -801 0
h 823 -802 0
h 823 -803 0
h 824 -793 0
h 824 -794 0
h 824 -795 0
h 824 -796 0
h 824 -797 0
h 824 -798 0
h 824 -799 0
h 824 -800 0
h 824 -801 0
h 824 -802 0
h 824 -803 0
h 825 -793 0
h 825 -794 0
h 825 -795 0
h 825 -796 0
h 825 -797 0
h 825 -798 0
h 825 -799 0
h 825 -800 0
h 825 -801 0
h 825 -802 0
h 825 -803 0
h 826 -793 0
h 826 -794 0
h 826 -795 0
h 826 -796 0
h 826 -797 0
h 826 -798 0
h 826 -799 0
h 826 -800 0
h 826 -801 0
h 826 -802 0
h 826 -803 0
h 827 -793 0
h 827 -794 0
h 827 -795 0
h 827 -796 0
h 827 -797 0
h 827 -798 0
h 827 -799 0
h 827 -800 0
h 827 -801 0
h 827 -802 0
h 827 -803 0
h 828 -793 0
h 828 -794 0
h 828 -795 0
h 828 -796 0
h 828 -797 0
h 828 -798 0
h 828 -799 0
h 828 -800 0
h 828 -801 0
h 828 -802 0
h 828 -803 0
h 829 830 831 832 833 834 835 836 837 838 839 840 841 842 843 844 845 846 847 848 849 850 851 852 853 854 855 856 857 858 859 860 861 862 863 864 0
h -829 1 0
h -829 397 0
h 829 -1 -397 0
h -830 2 0
h -830 408 0
h 830 -2 -408 0
h -831 3 0
h -831 419 0
h 831 -3 -419 0
h -832 4 0
h -832 430 0
h 832 -4 -430 0
h -833 5 0
h -833 441 0
h 833 -5 -441 0
h -834 6 0
h -834 452 0
h 834 -6 -452 0
h -835 7 0
h -835 463 0
h 835 -7 -463 0
h -836 8 0
h -836 474 0
h 836 -8 -474 0
h -837 9 0
h -837 485 0
h 837 -9 -485 0
h -838 10 0
h -838 496 0
h 838 -10 -496 0
h -839 11 0
h -839 507 0
h 839 -11 -507 0
h -840 12 0
h -840 518 0
h 840 -12 -518 0
h -841 13 0
h -841 529 0
h 841 -13 -529 0
h -842 14 0
h -842 540 0
h 842 -14 -540 0
h -843 15 0
h -843 551 0
h 843 -15 -551 0
h -844 16 0
h -844 562 0
h 844 -16 -562 0
h -845 17 0
h -845 573 0
h 845 -17 -573 0
h -846 18 0
h -846 584 0
h 846 -18 -584 0
h -847 19 0
h -847 595 0
h 847 -19 -595 0
h -848 20 0
h -848 606 0
h 848 -20 -606 0
h -849 21 0
h -849 617 0
h 849 -21 -617 0
h -850 22 0
h -850 628 0
h 850 -22 -628 0
h -851 23 0
h -851 639 0
h 851 -23 -639 0
h -852 24 0
h -852 650 0
h 852 -24 -650 0
h -853 25 0
h -853 661 0
h 853 -25 -661 0
h -854 26 0
h -854 672 0
h 854 -26 -672 0
h -855 27 0
h -855 683 0
h 855 -27 -683 0
h -856 28 0
h -856 694 0
h 856 -28 -694 0
h -857 29 0
h -857 705 0
h 857 -29 -705 0
h -858 30 0
h -858 716 0
h 858 -30 -716 0
h -859 31 0
h -859 727 0
h 859 -31 -727 0
h -860 32 0
h -860 738 0
h 860 -32 -738 0
h -861 33 0
h -861 749 0
h 861 -33 -749 0
h -862 34 0
h -862 760 0
h 862 -34 -760 0
h -863 35 0
h -863 771 0
h 863 -35 -771 0
h -864 36 0
h -864 782 0
h 864 -36 -782 0
h 865 866 867 868 869 870 871 872 873 874 875 876 877 878 879 880 881 882 883 884 885 886 887 888 889 890 891 892 893 894 895 896 897 898 899 900 0
h -865 1 0
h -865 398 0
h 865 -1 -398 0
h -866 2 0
h -866 409 0
h 866 -2 -409 0
h -867 3 0
h -867 420 0
h 867 -3 -420 0
h -868 4 0
h -868 431 0
h 868 -4 -431 0
h -869 5 0
h -869 442 0
h 869 -5 -442 0
h -870 6 0
h -870 453 0
h 870 -6 -453 0
h -871 7 0
h -871 464 0
h 871 -7 -464 0
h -872 8 0
h -872 475 0
h 872 -8 -475 0
h -873 9 0
h -873 486 0
h 873 -9 -486 0
h -874 10 0
h -874 497 0
h 874 -10 -497 0
h -875 11 0
h -875 508 0
h 875 -11 -508 0
h -876 12 0
h -876 519 0
h 876 -12 -519 0
h -877 13 0
h -877 530 0
h 877 -13 -530 0
h -878 14 0
h -878 541 0
h 878 -14 -541 0
h -879 15 0
h -879 552 0
h 879 -15 -552 0
h -880 16 0
h -880 563 0
h 880 -16 -563 0
h -881 17 0
h -881 574 0
h 881 -17 -574 0
h -882 18 0
h -882 585 0
h 882 -18 -585 0
h -883 19 0
h -883 596 0
h 883 -19 -596 0
h -884 20 0
h -884 607 0
h 884 -20 -607 0
h -885 21 0
h -885 618 0
h 885 -21 -618 0
h -886 22 0
h -886 629 0
h 886 -22 -629 0
h -887 23 0
h -887 640 0
h 887 -23 -640 0
h -888 24 0
h -888 651 0
h 888 -24 -651 0
h -889 25 0
h -889 662 0
h 889 -25 -662 0
h -890 26 0
h -890 673 0
h 890 -26 -673 0
h -891 27 0
h -891 684 0
h 891 -27 -684 0
h -892 28 0
h -892 695 0
h 892 -28 -695 0
h -893 29 0
h -893 706 0
h 893 -29 -706 0
h -894 30 0
h -894 717 0
h 894 -30 -717 0
h -895 31 0
h -895 728 0
h 895 -31 -728 0
h -896 32 0
h -896 739 0
h 896 -32 -739 0
h -897 33 0
h -897 750 0
h 897 -33 -750 0
h -898 34 0
h -898 761 0
h 898 -34 -761 0
h -899 35 0
h -899 772 0
h 899 -35 -772 0
h -900 36 0
h -900 783 0
h 900 -36 -783 0
h 901 902 903 904 905 906 907 908 909 910 911 912 913 914 915 916 917 918 919 920 921 922 923 924 925 926 927 928 929 930 931 932 933 934 935 936 0
h -901 1 0
h -901 399 0
h 901 -1 -399 0
h -902 2 0
h -902 410 0
h 902 -2 -410 0
h -903 3 0
h -903 421 0
h 903 -3 -421 0
h -904 4 0
h -904 432 0
h 904 -4 -432 0
h -905 5 0
h -905 443 0
h 905 -5 -443 0
h -906 6 0
h -906 454 0
h 906 -6 -454 0
h -907 7 0
h -907 465 0
h 907 -7 -465 0
h -908 8 0
h -908 476 0
h 908 -8 -476 0
h -909 9 0
h -909 487 0
h 909 -9 -487 0
h -910 10 0
h -910 498 0
h 910 -10 -498 0
h -911 11 0
h -911 509 0
h 911 -11 -509 0
h -912 12 0
h -912 520 0
h 912 -12 -520 0
h -913 13 0
h -913 531 0
h 913 -13 -531 0
h -914 14 0
h -914 542 0
h 914 -14 -542 0
h -915 15 0
h -915 553 0
h 915 -15 -553 0
h -916 16 0
h -916 564 0
h 916 -16 -564 0
h -917 17 0
h -917 575 0
h 917 -17 -575 0
h -918 18 0
h -918 586 0
h 918 -18 -586 0
h -919 19 0
h -919 597 0
h 919 -19 -597 0
h -920 20 0
h -920 608 0
h 920 -20 -608 0
h -921 21 0
h -921 619 0
h 921 -21 -619 0
h -922 22 0
h -922 630 0
h 922 -22 -630 0
h -923 23 0
h -923 641 0
h 923 -23 -641 0
h -924 24 0
h -924 652 0
h 924 -24 -652 0
h -925 25 0
h -925 663 0
h 925 -25 -663 0
h -926 26 0
h -926 674 0
h 926 -26 -674 0
h -927 27 0
h -927 685 0
h 927 -27 -685 0
h -928 28 0
h -928 696 0
h 928 -28 -696 0
h -929 29 0
h -929 707 0
h 929 -29 -707 0
h -930 30 0
h -930 718 0
h 930 -30 -718 0
h -931 31 0
h -931 729 0
h 931 -31 -729 0
h -932 32 0
h -932 740 0
h 932 -32 -740 0
h -933 33 0
h -933 751 0
h 933 -33 -751 0
h -934 34 0
h -934 762 0
h 934 -34 -762 0
h -935 35 0
h -935 773 0
h 935 -35 -773 0
h -936 36 0
h -936 784 0
h 936 -36 -784 0
h 937 938 939 940 941 942 943 944 945 946 947 948 949 950 951 952 953 954 955 956 957 958 959 960 961 962 963 964 965 966 967 968 969 970 971 972 0
h -937 1 0
h -937 400 0
h 937 -1 -400 0
h -938 2 0
h -938 411 0
h 938 -2 -411 0
h -939 3 0
h -939 422 0
h 939 -3 -422 0
h -940 4 0
h -940 433 0
h 940 -4 -433 0
h -941 5 0
h -941 444 0
h 941 -5 -444 0
h -942 6 0
h -942 455 0
h 942 -6 -455 0
h -943 7 0
h -943 466 0
h 943 -7 -466 0
h -944 8 0
h -944 477 0
h 944 -8 -477 0
h -945 9 0
h -945 488 0
h 945 -9 -488 0
h -946 10 0
h -946 499 0
h 946 -10 -499 0
h -947 11 0
h -947 510 0
h 947 -11 -510 0
h -948 12 0
h -948 521 0
h 948 -12 -521 0
h -949 13 0
h -949 532 0
h 949 -13 -532 0
h -950 14 0
h -950 543 0
h 950 -14 -543 0
h -951 15 0
h -951 554 0
h 951 -15 -554 0
h -952 16 0
h -952 565 0
h 952 -16 -565 0
h -953 17 0
h -953 576 0
h 953 -17 -576 0
h -954 18 0
h -954 587 0
h 954 -18 -587 0
h -955 19 0
h -955 598 0
h 955 -19 -598 0
h -956 20 0
h -956 609 0
h 956 -20 -609 0
h -957 21 0
h -957 620 0
h 957 -21 -620 0
h -958 22 0
h -958 631 0
h 958 -22 -631 0
h -959 23 0
h -959 642 0
h 959 -23 -642 0
h -960 24 0
h -960 653 0
h 960 -24 -653 0
h -961 25 0
h -961 664 0
h 961 -25 -664 0
h -962 26 0
h -962 675 0
h 962 -26 -675 0
h -963 27 0
h -963 686 0
h 963 -27 -686 0
h -964 28 0
h -964 697 0
h 964 -28 -697 0
h -965 29 0
h -965 708 0
h 965 -29 -708 0
h -966 30 0
h -966 719 0
h 966 -30 -719 0
h -967 31 0
h -967 730 0
h 967 -31 -730 0
h -968 32 0
h -968 741 0
h 968 -32 -741 0
h -969 33 0
h -969 752 0
h 969 -33 -752 0
h -970 34 0
h -970 763 0
h 970 -34 -763 0
h -971 35 0
h -971 774 0
h 971 -35 -774 0
h -972 36 0
h -972 785 0
h 972 -36 -785 0
h 973 974 975 976 977 978 979 980 981 982 983 984 985 986 987 988 989 990 991 992 993 994 995 996 997 998 999 1000 1001 1002 1003 1004 1005 1006 1007 1008 0
h -973 1 0
h -973 401 0
h 973 -1 -401 0
h -974 2 0
h -974 412 0
h 974 -2 -412 0
h -975 3 0
h -975 423 0
h 975 -3 -423 0
h -976 4 0
h -976 434 0
h 976 -4 -434 0
h -977 5 0
h -977 445 0
h 977 -5 -445 0
h -978 6 0
h -978 456 0
h 978 -6 -456 0
h -979 7 0
h -979 467 0
h 979 -7 -467 0
h -980 8 0
h -980 478 0
h 980 -8 -478 0
h -981 9 0
h -981 489 0
h 981 -9 -489 0
h -982 10 0
h -982 500 0
h 982 -10 -500 0
h -983 11 0
h -983 511 0
h 983 -11 -511 0
h -984 12 0
h -984 522 0
h 984 -12 -522 0
h -985 13 0
h -985 533 0
h 985 -13 -533 0
h -986 14 0
h -986 544 0
h 986 -14 -544 0
h -987 15 0
h -987 555 0
h 987 -15 -555 0
h -988 16 0
h -988 566 0
h 988 -16 -566 0
h -989 17 0
h -989 577 0
h 989 -17 -577 0
h -990 18 0
h -990 588 0
h 990 -18 -588 0
h -991 19 0
h -991 599 0
h 991 -19 -599 0
h -992 20 0
h -992 610 0
h 992 -20 -610 0
h -993 21 0
h -993 621 0
h 993 -21 -621 0
h -994 22 0
h -994 632 0
h 994 -22 -632 0
h -995 23 0
h -995 643 0
h 995 -23 -643 0
h -996 24 0
h -996 654 0
h 996 -24 -654 0
h -997 25 0
h -997 665 0
h 997 -25 -665 0
h -998 26 0
h -998 676 0
h 998 -26 -676 0
h -999 27 0
h -999 687 0
h 999 -27 -687 0
h -1000 28 0
h -1000 698 0
h 1000 -28 -698 0
h -1001 29 0
h -1001 709 0
h 1001 -29 -709 0
h -1002 30 0
h -1002 720 0
h 1002 -30 -720 0
h -1003 31 0
h -1003 731 0
h 1003 -31 -731 0
h -1004 32 0
h -1004 742 0
h 1004 -32 -742 0
h -1005 33 0
h -1005 753 0
h 1005 -33 -753 0
h -1006 34 0
h -1006 764 0
h 1006 -34 -764 0
h -1007 35 0
h -1007 775 0
h 1007 -35 -775 0
h -1008 36 0
h -1008 786 0
h 1008 -36 -786 0
h 1009 1010 1011 1012 1013 1014 1015 1016 1017 1018 1019 1020 1021 1022 1023 1024 1025 1026 1027 1028 1029 1030 1031 1032 1033 1034 1035 1036 1037 1038 1039 1040 1041 1042 1043 1044 0
h -1009 1 0
h -1009 402 0
h 1009 -1 -402 0
h -1010 2 0
h -1010 413 0
h 1010 -2 -413 0
h -1011 3 0
h -1011 424 0
h 1011 -3 -424 0
h -1012 4 0
h -1012 435 0
h 1012 -4 -435 0
h -1013 5 0
h -1013 446 0
h 1013 -5 -446 0
h -1014 6 0
h -1014 457 0
h 1014 -6 -457 0
h -1015 7 0
h -1015 468 0
h 1015 -7 -468 0
h -1016 8 0
h -1016 479 0
h 1016 -8 -479 0
h -1017 9 0
h -1017 490 0
h 1017 -9 -490 0
h -1018 10 0
h -1018 501 0
h 1018 -10 -501 0
h -1019 11 0
h -1019 512 0
h 1019 -11 -512 0
h -1020 12 0
h -1020 523 0
h 1020 -12 -523 0
h -1021 13 0
h -1021 534 0
h 1021 -13 -534 0
h -1022 14 0
h -1022 545 0
h 1022 -14 -545 0
h -1023 15 0
h -1023 556 0
h 1023 -15 -556 0
h -1024 16 0
h -1024 567 0
h 1024 -16 -567 0
h -1025 17 0
h -1025 578 0
h 1025 -17 -578 0
h -1026 18 0
h -1026 589 0
h 1026 -18 -589 0
h -1027 19 0
h -1027 600 0
h 1027 -19 -600 0
h -1028 20 0
h -1028 611 0
h 1028 -20 -611 0
h -1029 21 0
h -1029 622 0
h 1029 -21 -622 0
h -1030 22 0
h -1030 633 0
h 1030 -22 -633 0
h -1031 23 0
h -1031 644 0
h 1031 -23 -644 0
h -1032 24 0
h -1032 655 0
h 1032 -24 -655 0
h -1033 25 0
h -1033 666 0
h 1033 -25 -666 0
h -1034 26 0
h -1034 677 0
h 1034 -26 -677 0
h -1035 27 0
h -1035 688 0
h 1035 -27 -688 0
h -1036 28 0
h -1036 699 0
h 1036 -28 -699 0
h -1037 29 0
h -1037 710 0
h 1037 -29 -710 0
h -1038 30 0
h -1038 721 0
h 1038 -30 -721 0
h -1039 31 0
h -1039 732 0
h 1039 -31 -732 0
h -1040 32 0
h -1040 743 0
h 1040 -32 -743 0
h -1041 33 0
h -1041 754 0
h 1041 -33 -754 0
h -1042 34 0
h -1042 765 0
h 1042 -34 -765 0
h -1043 35 0
h -1043 776 0
h 1043 -35 -776 0
h -1044 36 0
h -1044 787 0
h 1044 -36 -787 0
h -1 -403 0
h -2 -414 0
h -3 -425 0
h -4 -436 0
h -5 -447 0
h -6 -458 0
h -7 -469 0
h -8 -480 0
h -9 -491 0
h -10 -502 0
h -11 -513 0
h -12 -524 0
h -13 -535 0
h -14 -546 0
h -15 -557 0
h -16 -568 0
h -17 -579 0
h -18 -590 0
h -19 -601 0
h -20 -612 0
h -21 -623 0
h -22 -634 0
h -23 -645 0
h -24 -656 0
h -25 -667 0
h -26 -678 0
h -27 -689 0
h -28 -700 0
h -29 -711 0
h -30 -722 0
h -31 -733 0
h -32 -744 0
h -33 -755 0
h -34 -766 0
h -35 -777 0
h -36 -788 0
h -1 -404 0
h -2 -415 0
h -3 -426 0
h -4 -437 0
h -5 -448 0
h -6 -459 0
h -7 -470 0
h -8 -481 0
h -9 -492 0
h -10 -503 0
h -11 -514 0
h -12 -525 0
h -13 -536 0
h -14 -547 0
h -15 -558 0
h -16 -569 0
h -17 -580 0
h -18 -591 0
h -19 -602 0
h -20 -613 0
h -21 -624 0
h -22 -635 0
h -23 -646 0
h -24 -657 0
h -25 -668 0
h -26 -679 0
h -27 -690 0
h -28 -701 0
h -29 -712 0
h -30 -723 0
h -31 -734 0
h -32 -745 0
h -33 -756 0
h -34 -767 0
h -35 -778 0
h -36 -789 0
h -1 -405 0
h -2 -416 0
h -3 -427 0
h -4 -438 0
h -5 -449 0
h -6 -460 0
h -7 -471 0
h -8 -482 0
h -9 -493 0
h -10 -504 0
h -11 -515 0
h -12 -526 0
h -13 -537 0
h -14 -548 0
h -15 -559 0
h -16 -570 0
h -17 -581 0
h -18 -592 0
h -19 -603 0
h -20 -614 0
h -21 -625 0
h -22 -636 0
h -23 -647 0
h -24 -658 0
h -25 -669 0
h -26 -680 0
h -27 -691 0
h -28 -702 0
h -29 -713 0
h -30 -724 0
h -31 -735 0
h -32 -746 0
h -33 -757 0
h -34 -768 0
h -35 -779 0
h -36 -790 0
h -1 -406 0
h -2 -417 0
h -3 -428 0
h -4 -439 0
h -5 -450 0
h -6 -461 0
h -7 -472 0
h -8 -483 0
h -9 -494 0
h -10 -505 0
h -11 -516 0
h -12 -527 0
h -13 -538 0
h -14 -549 0
h -15 -560 0
h -16 -571 0
h -17 -582 0
h -18 -593 0
h -19 -604 0
h -20 -615 0
h -21 -626 0
h -22 -637 0
h -23 -648 0
h -24 -659 0
h -25 -670 0
h -26 -681 0
h -27 -692 0
h -28 -703 0
h -29 -714 0
h -30 -725 0
h -31 -736 0
h -32 -747 0
h -33 -758 0
h -34 -769 0
h -35 -780 0
h -36 -791 0
h -1 -407 0
h -2 -418 0
h -3 -429 0
h -4 -440 0
h -5 -451 0
h -6 -462 0
h -7 -473 0
h -8 -484 0
h -9 -495 0
h -10 -506 0
h -11 -517 0
h -12 -528 0
h -13 -539 0
h -14 -550 0
h -15 -561 0
h -16 -572 0
h -17 -583 0
h -18 -594 0
h -19 -605 0
h -20 -616 0
h -21 -627 0
h -22 -638 0
h -23 -649 0
h -24 -660 0
h -25 -671 0
h -26 -682 0
h -27 -693 0
h -28 -704 0
h -29 -715 0
h -30 -726 0
h -31 -737 0
h -32 -748 0
h -33 -759 0
h -34 -770 0
h -35 -781 0
h -36 -792 0
h 1045 1046 1047 1048 1049 1050 1051 1052 1053 1054 1055 1056 1057 1058 1059 1060 1061 1062 1063 1064 1065 1066 1067 1068 1069 1070 1071 1072 1073 1074 1075 1076 1077 1078 1079 1080 0
h -1045 37 0
h -1045 397 0
h 1045 -37 -397 0
h -1046 38 0
h -1046 408 0
h 1046 -38 -408 0
h -1047 39 0
h -1047 419 0
h 1047 -39 -419 0
h -1048 40 0
h -1048 430 0
h 1048 -40 -430 0
h -1049 41 0
h -1049 441 0
h 1049 -41 -441 0
h -1050 42 0
h -1050 452 0
h 1050 -42 -452 0
h -1051 43 0
h -1051 463 0
h 1051 -43 -463 0
h -1052 44 0
h -1052 474 0
h 1052 -44 -474 0
h -1053 45 0
h -1053 485 0
h 1053 -45 -485 0
h -1054 46 0
h -1054 496 0
h 1054 -46 -496 0
h -1055 47 0
h -1055 507 0
h 1055 -47 -507 0
h -1056 48 0
h -1056 518 0
h 1056 -48 -518 0
h -1057 49 0
h -1057 529 0
h 1057 -49 -529 0
h -1058 50 0
h -1058 540 0
h 1058 -50 -540 0
h -1059 51 0
h -1059 551 0
h 1059 -51 -551 0
h -1060 52 0
h -1060 562 0
h 1060 -52 -562 0
h -1061 53 0
h -1061 573 0
h 1061 -53 -573 0
h -1062 54 0
h -1062 584 0
h 1062 -54 -584 0
h -1063 55 0
h -1063 595 0
h 1063 -55 -595 0
h -1064 56 0
h -1064 606 0
h 1064 -56 -606 0
h -1065 57 0
h -1065 617 0
h 1065 -57 -617 0
h -1066 58 0
h -1066 628 0
h 1066 -58 -628 0
h -1067 59 0
h -1067 639 0
h 1067 -59 -639 0
h -1068 60 0
h -1068 650 0
h 1068 -60 -650 0
h -1069 61 0
h -1069 661 0
h 1069 -61 -661 0
h -1070 62 0
h -1070 672 0
h 1070 -62 -672 0
h -1071 63 0
h -1071 683 0
h 1071 -63 -683 0
h -1072 64 0
h -1072 694 0
h 1072 -64 -694 0
h -1073 65 0
h -1073 705 0
h 1073 -65 -705 0
h -1074 66 0
h -1074 716 0
h 1074 -66 -716 0
h -1075 67 0
h -1075 727 0
h 1075 -67 -727 0
h -1076 68 0
h -1076 738 0
h 1076 -68 -738 0
h -1077 69 0
h -1077 749 0
h 1077 -69 -749 0
h -1078 70 0
h -1078 760 0
h 1078 -70 -760 0
h -1079 71 0
h -1079 771 0
h 1079 -71 -771 0
h -1080 72 0
h -1080 782 0
h 1080 -72 -782 0
h 1081 1082 1083 1084 1085 1086 1087 1088 1089 1090 1091 1092 1093 1094 1095 1096 1097 1098 1099 1100 1101 1102 1103 1104 1105 1106 1107 1108 1109 1110 1111 1112 1113 1114 1115 1116 0
h -1081 37 0
h -1081 398 0
h 1081 -37 -398 0
h -1082 38 0
h -1082 409 0
h 1082 -38 -409 0
h -1083 39 0
h -1083 420 0
h 1083 -39 -420 0
h -1084 40 0
h -1084 431 0
h 1084 -40 -431 0
h -1085 41 0
h -1085 442 0
h 1085 -41 -442 0
h -1086 42 0
h -1086 453 0
h 1086 -42 -453 0
h -1087 43 0
h -1087 464 0
h 1087 -43 -464 0
h -1088 44 0
h -1088 475 0
h 1088 -44 -475 0
h -1089 45 0
h -1089 486 0
h 1089 -45 -486 0
h -1090 46 0
h -1090 497 0
h 1090 -46 -497 0
h -1091 47 0
h -1091 508 0
h 1091 -47 -508 0
h -1092 48 0
h -1092 519 0
h 1092 -48 -519 0
h -1093 49 0
h -1093 530 0
h 1093 -49 -530 0
h -1094 50 0
h -1094 541 0
h 1094 -50 -541 0
h -1095 51 0
h -1095 552 0
h 1095 -51 -552 0
h -1096 52 0
h -1096 563 0
h 1096 -52 -563 0
h -1097 53 0
h -1097 574 0
h 1097 -53 -574 0
h -1098 54 0
h -1098 585 0
h 1098 -54 -585 0
h -1099 55 0
h -1099 596 0
h 1099 -55 -596 0
h -1100 56 0
h -1100 607 0
h 1100 -56 -607 0
h -1101 57 0
h -1101 618 0
h 1101 -57 -618 0
h -1102 58 0
h -1102 629 0
h 1102 -58 -629 0
h -1103 59 0
h -1103 640 0
h 1103 -59 -640 0
h -1104 60 0
h -1104 651 0
h 1104 -60 -651 0
h -1105 61 0
h -1105 662 0
h 1105 -61 -662 0
h -1106 62 0
h -1106 673 0
h 1106 -62 -673 0
h -1107 63 0
h -1107 684 0
h 1107 -63 -684 0
h -1108 64 0
h -1108 695 0
h 1108 -64 -695 0
h -1109 65 0
h -1109 706 0
h 1109 -65 -706 0
h -1110 66 0
h -1110 717 0
h 1110 -66 -717 0
h -1111 67 0
h -1111 728 0
h 1111 -67 -728 0
h -1112 68 0
h -1112 739 0
h 1112 -68 -739 0
h -1113 69 0
h -1113 750 0
h 1113 -69 -750 0
h -1114 70 0
h -1114 761 0
h 1114 -70 -761 0
h -1115 71 0
h -1115 772 0
h 1115 -71 -772 0
h -1116 72 0
h -1116 783 0
h 1116 -72 -783 0
h 1117 1118 1119 1120 1121 1122 1123 1124 1125 1126 1127 1128 1129 1130 1131 1132 1133 1134 1135 1136 1137 1138 1139 1140 1141 1142 1143 1144 1145 1146 1147 1148 1149 1150 1151 1152 0
h -1117 37 0
h -1117 399 0
h 1117 -37 -399 0
h -1118 38 0
h -1118 410 0
h 1118 -38 -410 0
h -1119 39 0
h -1119 421 0
h 1119 -39 -421 0
h -1120 40 0
h -1120 432 0
h 1120 -40 -432 0
h -1121 41 0
h -1121 443 0
h 1121 -41 -443 0
h -1122 42 0
h -1122 454 0
h 1122 -42 -454 0
h -1123 43 0
h -1123 465 0
h 1123 -43 -465 0
h -1124 44 0
h -1124 476 0
h 1124 -44 -476 0
h -1125 45 0
h -1125 487 0
h 1125 -45 -487 0
h -1126 46 0
h -1126 498 0
h 1126 -46 -498 0
h -1127 47 0
h -1127 509 0
h 1127 -47 -509 0
h -1128 48 0
h -1128 520 0
h 1128 -48 -520 0
h -1129 49 0
h -1129 531 0
h 1129 -49 -531 0
h -1130 50 0
h -1130 542 0
h 1130 -50 -542 0
h -1131 51 0
h -1131 553 0
h 1131 -51 -553 0
h -1132 52 0
h -1132 564 0
h 1132 -52 -564 0
h -1133 53 0
h -1133 575 0
h 1133 -53 -575 0
h -1134 54 0
h -1134 586 0
h 1134 -54 -586 0
h -1135 55 0
h -1135 597 0
h 1135 -55 -597 0
h -1136 56 0
h -1136 608 0
h 1136 -56 -608 0
h -1137 57 0
h -1137 619 0
h 1137 -57 -619 0
h -1138 58 0
h -1138 630 0
h 1138 -58 -630 0
h -1139 59 0
h -1139 641 0
h 1139 -59 -641 0
h -1140 60 0
h -1140 652 0
h 1140 -60 -652 0
h -1141 61 0
h -1141 663 0
h 1141 -61 -663 0
h -1142 62 0
h -1142 674 0
h 1142 -62 -674 0
h -1143 63 0
h -1143 685 0
h 1143 -63 -685 0
h -1144 64 0
h -1144 696 0
h 1144 -64 -696 0
h -1145 65 0
h -1145 707 0
h 1145 -65 -707 0
h -1146 66 0
h -1146 718 0
h 1146 -66 -718 0
h -1147 67 0
h -1147 729 0
h 1147 -67 -729 0
h -1148 68 0
h -1148 740 0
h 1148 -68 -740 0
h -1149 69 0
h -1149 751 0
h 1149 -69 -751 0
h -1150 70 0
h -1150 762 0
h 1150 -70 -762 0
h -1151 71 0
h -1151 773 0
h 1151 -71 -773 0
h -1152 72 0
h -1152 784 0
h 1152 -72 -784 0
h 1153 1154 1155 1156 1157 1158 1159 1160 1161 1162 1163 1164 1165 1166 1167 1168 1169 1170 1171 1172 1173 1174 1175 1176 1177 1178 1179 1180 1181 1182 1183 1184 1185 1186 1187 1188 0
h -1153 37 0
h -1153 400 0
h 1153 -37 -400 0
h -1154 38 0
h -1154 411 0
h 1154 -38 -411 0
h -1155 39 0
h -1155 422 0
h 1155 -39 -422 0
h -1156 40 0
h -1156 433 0
h 1156 -40 -433 0
h -1157 41 0
h -1157 444 0
h 1157 -41 -444 0
h -1158 42 0
h -1158 455 0
h 1158 -42 -455 0
h -1159 43 0
h -1159 466 0
h 1159 -43 -466 0
h -1160 44 0
h -1160 477 0
h 1160 -44 -477 0
h -1161 45 0
h -1161 488 0
h 1161 -45 -488 0
h -1162 46 0
h -1162 499 0
h 1162 -46 -499 0
h -1163 47 0
h -1163 510 0
h 1163 -47 -510 0
h -1164 48 0
h -1164 521 0
h 1164 -48 -521 0
h -1165 49 0
h -1165 532 0
h 1165 -49 -532 0
h -1166 50 0
h -1166 543 0
h 1166 -50 -543 0
h -1167 51 0
h -1167 554 0
h 1167 -51 -554 0
h -1168 52 0
h -1168 565 0
h 1168 -52 -565 0
h -1169 53 0
h -1169 576 0
h 1169 -53 -576 0
h -1170 54 0
h -1170 587 0
h 1170 -54 -587 0
h -1171 55 0
h -1171 598 0
h 1171 -55 -598 0
h -1172 56 0
h -1172 609 0
h 1172 -56 -609 0
h -1173 57 0
h -1173 620 0
h 1173 -57 -620 0
h -1174 58 0
h -1174 631 0
h 1174 -58 -631 0
h -1175 59 0
h -1175 642 0
h 1175 -59 -642 0
h -1176 60 0
h -1176 653 0
h 1176 -60 -653 0
h -1177 61 0
h -1177 664 0
h 1177 -61 -664 0
h -1178 62 0
h -1178 675 0
h 1178 -62 -675 0
h -1179 63 0
h -1179 686 0
h 1179 -63 -686 0
h -1180 64 0
h -1180 697 0
h 1180 -64 -697 0
h -1181 65 0
h -1181 708 0
h 1181 -65 -708 0
h -1182 66 0
h -1182 719 0
h 1182 -66 -719 0
h -1183 67 0
h -1183 730 0
h 1183 -67 -730 0
h -1184 68 0
h -1184 741 0
h 1184 -68 -741 0
h -1185 69 0
h -1185 752 0
h 1185 -69 -752 0
h -1186 70 0
h -1186 763 0
h 1186 -70 -763 0
h -1187 71 0
h -1187 774 0
h 1187 -71 -774 0
h -1188 72 0
h -1188 785 0
h 1188 -72 -785 0
h 1189 1190 1191 1192 1193 1194 1195 1196 1197 1198 1199 1200 1201 1202 1203 1204 1205 1206 1207 1208 1209 1210 1211 1212 1213 1214 1215 1216 1217 1218 1219 1220 1221 1222 1223 1224 0
h -1189 37 0
h -1189 401 0
h 1189 -37 -401 0
h -1190 38 0
h -1190 412 0
h 1190 -38 -412 0
h -1191 39 0
h -1191 423 0
h 1191 -39 -423 0
h -1192 40 0
h -1192 434 0
h 1192 -40 -434 0
h -1193 41 0
h -1193 445 0
h 1193 -41 -445 0
h -1194 42 0
h -1194 456 0
h 1194 -42 -456 0
h -1195 43 0
h -1195 467 0
h 1195 -43 -467 0
h -1196 44 0
h -1196 478 0
h 1196 -44 -478 0
h -1197 45 0
h -1197 489 0
h 1197 -45 -489 0
h -1198 46 0
h -1198 500 0
h 1198 -46 -500 0
h -1199 47 0
h -1199 511 0
h 1199 -47 -511 0
h -1200 48 0
h -1200 522 0
h 1200 -48 -522 0
h -1201 49 0
h -1201 533 0
h 1201 -49 -533 0
h -1202 50 0
h -1202 544 0
h 1202 -50 -544 0
h -1203 51 0
h -1203 555 0
h 1203 -51 -555 0
h -1204 52 0
h -1204 566 0
h 1204 -52 -566 0
h -1205 53 0
h -1205 577 0
h 1205 -53 -577 0
h -1206 54 0
h -1206 588 0
h 1206 -54 -588 0
h -1207 55 0
h -1207 599 0
h 1207 -55 -599 0
h -1208 56 0
h -1208 610 0
h 1208 -56 -610 0
h -1209 57 0
h -1209 621 0
h 1209 -57 -621 0
h -1210 58 0
h -1210 632 0
h 1210 -58 -632 0
h -1211 59 0
h -1211 643 0
h 1211 -59 -643 0
h -1212 60 0
h -1212 654 0
h 1212 -60 -654 0
h -1213 61 0
h -1213 665 0
h 1213 -61 -665 0
h -1214 62 0
h -1214 676 0
h 1214 -62 -676 0
h -1215 63 0
h -1215 687 0
h 1215 -63 -687 0
h -1216 64 0
h -1216 698 0
h 1216 -64 -698 0
h -1217 65 0
h -1217 709 0
h 1217 -65 -709 0
h -1218 66 0
h -1218 720 0
h 1218 -66 -720 0
h -1219 67 0
h -1219 731 0
h 1219 -67 -731 0
h -1220 68 0
h -1220 742 0
h 1220 -68 -742 0
h -1221 69 0
h -1221 753 0
h 1221 -69 -753 0
h -1222 70 0
h -1222 764 0
h 1222 -70 -764 0
h -1223 71 0
h -1223 775 0
h 1223 -71 -775 0
h -1224 72 0
h -1224 786 0
h 1224 -72 -786 0
h 1225 1226 1227 1228 1229 1230 1231 1232 1233 1234 1235 1236 1237 1238 1239 1240 1241 1242 1243 1244 1245 1246 1247 1248 1249 1250 1251 1252 1253 1254 1255 1256 1257 1258 1259 1260 0
h -1225 37 0
h -1225 402 0
h 1225 -37 -402 0
h -1226 38 0
h -1226 413 0
h 1226 -38 -413 0
h -1227 39 0
h -1227 424 0
h 1227 -39 -424 0
h -1228 40 0
h -1228 435 0
h 1228 -40 -435 0
h -1229 41 0
h -1229 446 0
h 1229 -41 -446 0
h -1230 42 0
h -1230 457 0
h 1230 -42 -457 0
h -1231 43 0
h -1231 468 0
h 1231 -43 -468 0
h -1232 44 0
h -1232 479 0
h 1232 -44 -479 0
h -1233 45 0
h -1233 490 0
h 1233 -45 -490 0
h -1234 46 0
h -1234 501 0
h 1234 -46 -501 0
h -1235 47 0
h -1235 512 0
h 1235 -47 -512 0
h -1236 48 0
h -1236 523 0
h 1236 -48 -523 0
h -1237 49 0
h -1237 534 0
h 1237 -49 -534 0
h -1238 50 0
h -1238 545 0
h 1238 -50 -545 0
h -1239 51 0
h -1239 556 0
h 1239 -51 -556 0
h -1240 52 0
h -1240 567 0
h 1240 -52 -567 0
h -1241 53 0
h -1241 578 0
h 1241 -53 -578 0
h -1242 54 0
h -1242 589 0
h 1242 -54 -589 0
h -1243 55 0
h -1243 600 0
h 1243 -55 -600 0
h -1244 56 0
h -1244 611 0
h 1244 -56 -611 0
h -1245 57 0
h -1245 622 0
h 1245 -57 -622 0
h -1246 58 0
h -1246 633 0
h 1246 -58 -633 0
h -1247 59 0
h -1247 644 0
h 1247 -59 -644 0
h -1248 60 0
h -1248 655 0
h 1248 -60 -655 0
h -1249 61 0
h -1249 666 0
h 1249 -61 -666 0
h -1250 62 0
h -1250 677 0
h 1250 -62 -677 0
h -1251 63 0
h -1251 688 0
h 1251 -63 -688 0
h -1252 64 0
h -1252 699 0
h 1252 -64 -699 0
h -1253 65 0
h -1253 710 0
h 1253 -65 -710 0
h -1254 66 0
h -1254 721 0
h 1254 -66 -721 0
h -1255 67 0
h -1255 732 0
h 1255 -67 -732 0
h -1256 68 0
h -1256 743 0
h 1256 -68 -743 0
h -1257 69 0
h -1257 754 0
h 1257 -69 -754 0
h -1258 70 0
h -1258 765 0
h 1258 -70 -765 0
h -1259 71 0
h -1259 776 0
h 1259 -71 -776 0
h -1260 72 0
h -1260 787 0
h 1260 -72 -787 0
h -37 -403 0
h -38 -414 0
h -39 -425 0
h -40 -436 0
h -41 -447 0
h -42 -458 0
h -43 -469 0
h -44 -480 0
h -45 -491 0
h -46 -502 0
h -47 -513 0
h -48 -524 0
h -49 -535 0
h -50 -546 0
h -51 -557 0
h -52 -568 0
h -53 -579 0
h -54 -590 0
h -55 -601 0
h -56 -612 0
h -57 -623 0
h -58 -634 0
h -59 -645 0
h -60 -656 0
h -61 -667 0
h -62 -678 0
h -63 -689 0
h -64 -700 0
h -65 -711 0
h -66 -722 0
h -67 -733 0
h -68 -744 0
h -69 -755 0
h -70 -766 0
h -71 -777 0
h -72 -788 0
h -37 -404 0
h -38 -415 0
h -39 -426 0
h -40 -437 0
h -41 -448 0
h -42 -459 0
h -43 -470 0
h -44 -481 0
h -45 -492 0
h -46 -503 0
h -47 -514 0
h -48 -525 0
h -49 -536 0
h -50 -547 0
h -51 -558 0
h -52 -569 0
h -53 -580 0
h -54 -591 0
h -55 -602 0
h -56 -613 0
h -57 -624 0
h -58 -635 0
h -59 -646 0
h -60 -657 0
h -61 -668 0
h -62 -679 0
h -63 -690 0
h -64 -701 0
h -65 -712 0
h -66 -723 0
h -67 -734 0
h -68 -745 0
h -69 -756 0
h -70 -767 0
h -71 -778 0
h -72 -789 0
h -37 -405 0
h -38 -416 0
h -39 -427 0
h -40 -438 0
h -41 -449 0
h -42 -460 0
h -43 -471 0
h -44 -482 0
h -45 -493 0
h -46 -504 0
h -47 -515 0
h -48 -526 0
h -49 -537 0
h -50 -548 0
h -51 -559 0
h -52 -570 0
h -53 -581 0
h -54 -592 0
h -55 -603 0
h -56 -614 0
h -57 -625 0
h -58 -636 0
h -59 -647 0
h -60 -658 0
h -61 -669 0
h -62 -680 0
h -63 -691 0
h -64 -702 0
h -65 -713 0
h -66 -724 0
h -67 -735 0
h -68 -746 0
h -69 -757 0
h -70 -768 0
h -71 -779 0
h -72 -790 0
h -37 -406 0
h -38 -417 0
h -39 -428 0
h -40 -439 0
h -41 -450 0
h -42 -461 0
h -43 -472 0
h -44 -483 0
h -45 -494 0
h -46 -505 0
h -47 -516 0
h -48 -527 0
h -49 -538 0
h -50 -549 0
h -51 -560 0
h -52 -571 0
h -53 -582 0
h -54 -593 0
h -55 -604 0
h -56 -615 0
h -57 -626 0
h -58 -637 0
h -59 -648 0
h -60 -659 0
h -61 -670 0
h -62 -681 0
h -63 -692 0
h -64 -703 0
h -65 -714 0
h -66 -725 0
h -67 -736 0
h -68 -747 0
h -69 -758 0
h -70 -769 0
h -71 -780 0
h -72 -791 0
h -37 -407 0
h -38 -418 0
h -39 -429 0
h -40 -440 0
h -41 -451 0
h -42 -462 0
h -43 -473 0
h -44 -484 0
h -45 -495 0
h -46 -506 0
h -47 -517 0
h -48 -528 0
h -49 -539 0
h -50 -550 0
h -51 -561 0
h -52 -572 0
h -53 -583 0
h -54 -594 0
h -55 -605 0
h -56 -616 0
h -57 -627 0
h -58 -638 0
h -59 -649 0
h -60 -660 0
h -61 -671 0
h -62 -682 0
h -63 -693 0
h -64 -704 0
h -65 -715 0
h -66 -726 0
h -67 -737 0
h -68 -748 0
h -69 -759 0
h -70 -770 0
h -71 -781 0
h -72 -792 0
h 1261 1262 1263 1264 1265 1266 1267 1268 1269 1270 1271 1272 1273 1274 1275 1276 1277 1278 1279 1280 1281 1282 1283 1284 1285 1286 1287 1288 1289 1290 1291 1292 1293 1294 1295 1296 0
h -1261 73 0
h -1261 397 0
h 1261 -73 -397 0
h -1262 74 0
h -1262 408 0
h 1262 -74 -408 0
h -1263 75 0
h -1263 419 0
h 1263 -75 -419 0
h -1264 76 0
h -1264 430 0
h 1264 -76 -430 0
h -1265 77 0
h -1265 441 0
h 1265 -77 -441 0
h -1266 78 0
h -1266 452 0
h 1266 -78 -452 0
h -1267 79 0
h -1267 463 0
h 1267 -79 -463 0
h -1268 80 0
h -1268 474 0
h 1268 -80 -474 0
h -1269 81 0
h -1269 485 0
h 1269 -81 -485 0
h -1270 82 0
h -1270 496 0
h 1270 -82 -496 0
h -1271 83 0
h -1271 507 0
h 1271 -83 -507 0
h -1272 84 0
h -1272 518 0
h 1272 -84 -518 0
h -1273 85 0
h -1273 529 0
h 1273 -85 -529 0
h -1274 86 0
h -1274 540 0
h 1274 -86 -540 0
h -1275 87 0
h -1275 551 0
h 1275 -87 -551 0
h -1276 88 0
h -1276 562 0
h 1276 -88 -562 0
h -1277 89 0
h -1277 573 0
h 1277 -89 -573 0
h -1278 90 0
h -1278 584 0
h 1278 -90 -584 0
h -1279 91 0
h -1279 595 0
h 1279 -91 -595 0
h -1280 92 0
h -1280 606 0
h 1280 -92 -606 0
h -1281 93 0
h -1281 617 0
h 1281 -93 -617 0
h -1282 94 0
h -1282 628 0
h 1282 -94 -628 0
h -1283 95 0
h -1283 639 0
h 1283 -95 -639 0
h -1284 96 0
h -1284 650 0
h 1284 -96 -650 0
h -1285 97 0
h -1285 661 0
h 1285 -97 -661 0
h -1286 98 0
h -1286 672 0
h 1286 -98 -672 0
h -1287 99 0
h -1287 683 0
h 1287 -99 -683 0
h -1288 100 0
h -1288 694 0
h 1288 -100 -694 0
h -1289 101 0
h -1289 705 0
h 1289 -101 -705 0
h -1290 102 0
h -1290 716 0
h 1290 -102 -716 0
h -1291 103 0
h -1291 727 0
h 1291 -103 -727 0
h -1292 104 0
h -1292 738 0
h 1292 -104 -738 0
h -1293 105 0
h -1293 749 0
h 1293 -105 -749 0
h -1294 106 0
h -1294 760 0
h 1294 -106 -760 0
h -1295 107 0
h -1295 771 0
h 1295 -107 -771 0
h -1296 108 0
h -1296 782 0
h 1296 -108 -782 0
h 1297 1298 1299 1300 1301 1302 1303 1304 1305 1306 1307 1308 1309 1310 1311 1312 1313 1314 1315 1316 1317 1318 1319 1320 1321 1322 1323 1324 1325 1326 1327 1328 1329 1330 1331 1332 0
h -1297 73 0
h -1297 398 0
h 1297 -73 -398 0
h -1298 74 0
h -1298 409 0
h 1298 -74 -409 0
h -1299 75 0
h -1299 420 0
h 1299 -75 -420 0
h -1300 76 0
h -1300 431 0
h 1300 -76 -431 0
h -1301 77 0
h -1301 442 0
h 1301 -77 -442 0
h -1302 78 0
h -1302 453 0
h 1302 -78 -453 0
h -1303 79 0
h -1303 464 0
h 1303 -79 -464 0
h -1304 80 0
h -1304 475 0
h 1304 -80 -475 0
h -1305 81 0
h -1305 486 0
h 1305 -81 -486 0
h -1306 82 0
h -1306 497 0
h 1306 -82 -497 0
h -1307 83 0
h -1307 508 0
h 1307 -83 -508 0
h -1308 84 0
h -1308 519 0
h 1308 -84 -519 0
h -1309 85 0
h -1309 530 0
h 1309 -85 -530 0
h -1310 86 0
h -1310 541 0
h 1310 -86 -541 0
h -1311 87 0
h -1311 552 0
h 1311 -87 -552 0
h -1312 88 0
h -1312 563 0
h 1312 -88 -563 0
h -1313 89 0
h -1313 574 0
h 1313 -89 -574 0
h -1314 90 0
h -1314 585 0
h 1314 -90 -585 0
h -1315 91 0
h -1315 596 0
h 1315 -91 -596 0
h -1316 92 0
h -1316 607 0
h 1316 -92 -607 0
h -1317 93 0
h -1317 618 0
h 1317 -93 -618 0
h -1318 94 0
h -1318 629 0
h 1318 -94 -629 0
h -1319 95 0
h -1319 640 0
h 1319 -95 -640 0
h -1320 96 0
h -1320 651 0
h 1320 -96 -651 0
h -1321 97 0
h -1321 662 0
h 1321 -97 -662 0
h -1322 98 0
h -1322 673 0
h 1322 -98 -673 0
h -1323 99 0
h -1323 684 0
h 1323 -99 -684 0
h -1324 100 0
h -1324 695 0
h 1324 -100 -695 0
h -1325 101 0
h -1325 706 0
h 1325 -101 -706 0
h -1326 102 0
h -1326 717 0
h 1326 -102 -717 0
h -1327 103 0
h -1327 728 0
h 1327 -103 -728 0
h -1328 104 0
h -1328 739 0
h 1328 -104 -739 0
h -1329 105 0
h -1329 750 0
h 1329 -105 -750 0
h -1330 106 0
h -1330 761 0
h 1330 -106 -761 0
h -1331 107 0
h -1331 772 0
h 1331 -107 -772 0
h -1332 108 0
h -1332 783 0
h 1332 -108 -783 0
h 1333 1334 1335 1336 1337 1338 1339 1340 1341 1342 1343 1344 1345 1346 1347 1348 1349 1350 1351 1352 1353 1354 1355 1356 1357 1358 1359 1360 1361 1362 1363 1364 1365 1366 1367 1368 0
h -1333 73 0
h -1333 399 0
h 1333 -73 -399 0
h -1334 74 0
h -1334 410 0
h 1334 -74 -410 0
h -1335 75 0
h -1335 421 0
h 1335 -75 -421 0
h -1336 76 0
h -1336 432 0
h 1336 -76 -432 0
h -1337 77 0
h -1337 443 0
h 1337 -77 -443 0
h -1338 78 0
h -1338 454 0
h 1338 -78 -454 0
h -1339 79 0
h -1339 465 0
h 1339 -79 -465 0
h -1340 80 0
h -1340 476 0
h 1340 -80 -476 0
h -1341 81 0
h -1341 487 0
h 1341 -81 -487 0
h -1342 82 0
h -1342 498 0
h 1342 -82 -498 0
h -1343 83 0
h -1343 509 0
h 1343 -83 -509 0
h -1344 84 0
h -1344 520 0
h 1344 -84 -520 0
h -1345 85 0
h -1345 531 0
h 1345 -85 -531 0
h -1346 86 0
h -1346 542 0
h 1346 -86 -542 0
h -1347 87 0
h -1347 553 0
h 1347 -87 -553 0
h -1348 88 0
h -1348 564 0
h 1348 -88 -564 0
h -1349 89 0
h -1349 575 0
h 1349 -89 -575 0
h -1350 90 0
h -1350 586 0
h 1350 -90 -586 0
h -1351 91 0
h -1351 597 0
h 1351 -91 -597 0
h -1352 92 0
h -1352 608 0
h 1352 -92 -608 0
h -1353 93 0
h -1353 619 0
h 1353 -93 -619 0
h -1354 94 0
h -1354 630 0
h 1354 -94 -630 0
h -1355 95 0
h -1355 641 0
h 1355 -95 -641 0
h -1356 96 0
h -1356 652 0
h 1356 -96 -652 0
h -1357 97 0
h -1357 663 0
h 1357 -97 -663 0
h -1358 98 0
h -1358 674 0
h 1358 -98 -674 0
h -1359 99 0
h -1359 685 0
h 1359 -99 -685 0
h -1360 100 0
h -1360 696 0
h 1360 -100 -696 0
h -1361 101 0
h -1361 707 0
h 1361 -101 -707 0
h -1362 102 0
h -1362 718 0
h 1362 -102 -718 0
h -1363 103 0
h -1363 729 0
h 1363 -103 -729 0
h -1364 104 0
h -1364 740 0
h 1364 -104 -740 0
h -1365 105 0
h -1365 751 0
h 1365 -105 -751 0
h -1366 106 0
h -1366 762 0
h 1366 -106 -762 0
h -1367 107 0
h -1367 773 0
h 1367 -107 -773 0
h -1368 108 0
h -1368 784 0
h 1368 -108 -784 0
h 1369 1370 1371 1372 1373 1374 1375 1376 1377 1378 1379 1380 1381 1382 1383 1384 1385 1386 1387 1388 1389 1390 1391 1392 1393 1394 1395 1396 1397 1398 1399 1400 1401 1402 1403 1404 0
h -1369 73 0
h -1369 400 0
h 1369 -73 -400 0
h -1370 74 0
h -1370 411 0
h 1370 -74 -411 0
h -1371 75 0
h -1371 422 0
h 1371 -75 -422 0
h -1372 76 0
h -1372 433 0
h 1372 -76 -433 0
h -1373 77 0
h -1373 444 0
h 1373 -77 -444 0
h -1374 78 0
h -1374 455 0
h 1374 -78 -455 0
h -1375 79 0
h -1375 466 0
h 1375 -79 -466 0
h -1376 80 0
h -1376 477 0
h 1376 -80 -477 0
h -1377 81 0
h -1377 488 0
h 1377 -81 -488 0
h -1378 82 0
h -1378 499 0
h 1378 -82 -499 0
h -1379 83 0
h -1379 510 0
h 1379 -83 -510 0
h -1380 84 0
h -1380 521 0
h 1380 -84 -521 0
h -1381 85 0
h -1381 532 0
h 1381 -85 -532 0
h -1382 86 0
h -1382 543 0
h 1382 -86 -543 0
h -1383 87 0
h -1383 554 0
h 1383 -87 -554 0
h -1384 88 0
h -1384 565 0
h 1384 -88 -565 0
h -1385 89 0
h -1385 576 0
h 1385 -89 -576 0
h -1386 90 0
h -1386 587 0
h 1386 -90 -587 0
h -1387 91 0
h -1387 598 0
h 1387 -91 -598 0
h -1388 92 0
h -1388 609 0
h 1388 -92 -609 0
h -1389 93 0
h -1389 620 0
h 1389 -93 -620 0
h -1390 94 0
h -1390 631 0
h 1390 -94 -631 0
h -1391 95 0
h -1391 642 0
h 1391 -95 -642 0
h -1392 96 0
h -1392 653 0
h 1392 -96 -653 0
h -1393 97 0
h -1393 664 0
h 1393 -97 -664 0
h -1394 98 0
h -1394 675 0
h 1394 -98 -675 0
h -1395 99 0
h -1395 686 0
h 1395 -99 -686 0
h -1396 100 0
h -1396 697 0
h 1396 -100 -697 0
h -1397 101 0
h -1397 708 0
h 1397 -101 -708 0
h -1398 102 0
h -1398 719 0
h 1398 -102 -719 0
h -1399 103 0
h -1399 730 0
h 1399 -103 -730 0
h -1400 104 0
h -1400 741 0
h 1400 -104 -741 0
h -1401 105 0
h -1401 752 0
h 1401 -105 -752 0
h -1402 106 0
h -1402 763 0
h 1402 -106 -763 0
h -1403 107 0
h -1403 774 0
h 1403 -107 -774 0
h -1404 108 0
h -1404 785 0
h 1404 -108 -785 0
h 1405 1406 1407 1408 1409 1410 1411 1412 1413 1414 1415 1416 1417 1418 1419 1420 1421 1422 1423 1424 1425 1426 1427 1428 1429 1430 1431 1432 1433 1434 1435 1436 1437 1438 1439 1440 0
h -1405 73 0
h -1405 401 0
h 1405 -73 -401 0
h -1406 74 0
h -1406 412 0
h 1406 -74 -412 0
h -1407 75 0
h -1407 423 0
h 1407 -75 -423 0
h -1408 76 0
h -1408 434 0
h 1408 -76 -434 0
h -1409 77 0
h -1409 445 0
h 1409 -77 -445 0
h -1410 78 0
h -1410 456 0
h 1410 -78 -456 0
h -1411 79 0
h -1411 467 0
h 1411 -79 -467 0
h -1412 80 0
h -1412 478 0
h 1412 -80 -478 0
h -1413 81 0
h -1413 489 0
h 1413 -81 -489 0
h -1414 82 0
h -1414 500 0
h 1414 -82 -500 0
h -1415 83 0
h -1415 511 0
h 1415 -83 -511 0
h -1416 84 0
h -1416 522 0
h 1416 -84 -522 0
h -1417 85 0
h -1417 533 0
h 1417 -85 -533 0
h -1418 86 0
h -1418 544 0
h 1418 -86 -544 0
h -1419 87 0
h -1419 555 0
h 1419 -87 -555 0
h -1420 88 0
h -1420 566 0
h 1420 -88 -566 0
h -1421 89 0
h -1421 577 0
h 1421 -89 -577 0
h -1422 90 0
h -1422 588 0
h 1422 -90 -588 0
h -1423 91 0
h -1423 599 0
h 1423 -91 -599 0
h -1424 92 0
h -1424 610 0
h 1424 -92 -610 0
h -1425 93 0
h -1425 621 0
h 1425 -93 -621 0
h -1426 94 0
h -1426 632 0
h 1426 -94 -632 0
h -1427 95 0
h -1427 643 0
h 1427 -95 -643 0
h -1428 96 0
h -1428 654 0
h 1428 -96 -654 0
h -1429 97 0
h -1429 665 0
h 1429 -97 -665 0
h -1430 98 0
h -1430 676 0
h 1430 -98 -676 0
h -1431 99 0
h -1431 687 0
h 1431 -99 -687 0
h -1432 100 0
h -1432 698 0
h 1432 -100 -698 0
h -1433 101 0
h -1433 709 0
h 1433 -101 -709 0
h -1434 102 0
h -1434 720 0
h 1434 -102 -720 0
h -1435 103 0
h -1435 731 0
h 1435 -103 -731 0
h -1436 104 0
h -1436 742 0
h 1436 -104 -742 0
h -1437 105 0
h -1437 753 0
h 1437 -105 -753 0
h -1438 106 0
h -1438 764 0
h 1438 -106 -764 0
h -1439 107 0
h -1439 775 0
h 1439 -107 -775 0
h -1440 108 0
h -1440 786 0
h 1440 -108 -786 0
h -73 -402 0
h -74 -413 0
h -75 -424 0
h -76 -435 0
h -77 -446 0
h -78 -457 0
h -79 -468 0
h -80 -479 0
h -81 -490 0
h -82 -501 0
h -83 -512 0
h -84 -523 0
h -85 -534 0
h -86 -545 0
h -87 -556 0
h -88 -567 0
h -89 -578 0
h -90 -589 0
h -91 -600 0
h -92 -611 0
h -93 -622 0
h -94 -633 0
h -95 -644 0
h -96 -655 0
h -97 -666 0
h -98 -677 0
h -99 -688 0
h -100 -699 0
h -101 -710 0
h -102 -721 0
h -103 -732 0
h -104 -743 0
h -105 -754 0
h -106 -765 0
h -107 -776 0
h -108 -787 0
h -73 -403 0
h -74 -414 0
h -75 -425 0
h -76 -436 0
h -77 -447 0
h -78 -458 0
h -79 -469 0
h -80 -480 0
h -81 -491 0
h -82 -502 0
h -83 -513 0
h -84 -524 0
h -85 -535 0
h -86 -546 0
h -87 -557 0
h -88 -568 0
h -89 -579 0
h -90 -590 0
h -91 -601 0
h -92 -612 0
h -93 -623 0
h -94 -634 0
h -95 -645 0
h -96 -656 0
h -97 -667 0
h -98 -678 0
h -99 -689 0
h -100 -700 0
h -101 -711 0
h -102 -722 0
h -103 -733 0
h -104 -744 0
h -105 -755 0
h -106 -766 0
h -107 -777 0
h -108 -788 0
h -73 -404 0
h -74 -415 0
h -75 -426 0
h -76 -437 0
h -77 -448 0
h -78 -459 0
h -79 -470 0
h -80 -481 0
h -81 -492 0
h -82 -503 0
h -83 -514 0
h -84 -525 0
h -85 -536 0
h -86 -547 0
h -87 -558 0
h -88 -569 0
h -89 -580 0
h -90 -591 0
h -91 -602 0
h -92 -613 0
h -93 -624 0
h -94 -635 0
h -95 -646 0
h -96 -657 0
h -97 -668 0
h -98 -679 0
h -99 -690 0
h -100 -701 0
h -101 -712 0
h -102 -723 0
h -103 -734 0
h -104 -745 0
h -105 -756 0
h -106 -767 0
h -107 -778 0
h -108 -789 0
h -73 -405 0
h -74 -416 0
h -75 -427 0
h -76 -438 0
h -77 -449 0
h -78 -460 0
h -79 -471 0
h -80 -482 0
h -81 -493 0
h -82 -504 0
h -83 -515 0
h -84 -526 0
h -85 -537 0
h -86 -548 0
h -87 -559 0
h -88 -570 0
h -89 -581 0
h -90 -592 0
h -91 -603 0
h -92 -614 0
h -93 -625 0
h -94 -636 0
h -95 -647 0
h -96 -658 0
h -97 -669 0
h -98 -680 0
h -99 -691 0
h -100 -702 0
h -101 -713 0
h -102 -724 0
h -103 -735 0
h -104 -746 0
h -105 -757 0
h -106 -768 0
h -107 -779 0
h -108 -790 0
h -73 -406 0
h -74 -417 0
h -75 -428 0
h -76 -439 0
h -77 -450 0
h -78 -461 0
h -79 -472 0
h -80 -483 0
h -81 -494 0
h -82 -505 0
h -83 -516 0
h -84 -527 0
h -85 -538 0
h -86 -549 0
h -87 -560 0
h -88 -571 0
h -89 -582 0
h -90 -593 0
h -91 -604 0
h -92 -615 0
h -93 -626 0
h -94 -637 0
h -95 -648 0
h -96 -659 0
h -97 -670 0
h -98 -681 0
h -99 -692 0
h -100 -703 0
h -101 -714 0
h -102 -725 0
h -103 -736 0
h -104 -747 0
h -105 -758 0
h -106 -769 0
h -107 -780 0
h -108 -791 0
h -73 -407 0
h -74 -418 0
h -75 -429 0
h -76 -440 0
h -77 -451 0
h -78 -462 0
h -79 -473 0
h -80 -484 0
h -81 -495 0
h -82 -506 0
h -83 -517 0
h -84 -528 0
h -85 -539 0
h -86 -550 0
h -87 -561 0
h -88 -572 0
h -89 -583 0
h -90 -594 0
h -91 -605 0
h -92 -616 0
h -93 -627 0
h -94 -638 0
h -95 -649 0
h -96 -660 0
h -97 -671 0
h -98 -682 0
h -99 -693 0
h -100 -704 0
h -101 -715 0
h -102 -726 0
h -103 -737 0
h -104 -748 0
h -105 -759 0
h -106 -770 0
h -107 -781 0
h -108 -792 0
h -109 -397 0
h -110 -408 0
h -111 -419 0
h -112 -430 0
h -113 -441 0
h -114 -452 0
h -115 -463 0
h -116 -474 0
h -117 -485 0
h -118 -496 0
h -119 -507 0
h -120 -518 0
h -121 -529 0
h -122 -540 0
h -123 -551 0
h -124 -562 0
h -125 -573 0
h -126 -584 0
h -127 -595 0
h -128 -606 0
h -129 -617 0
h -130 -628 0
h -131 -639 0
h -132 -650 0
h -133 -661 0
h -134 -672 0
h -135 -683 0
h -136 -694 0
h -137 -705 0
h -138 -716 0
h -139 -727 0
h -140 -738 0
h -141 -749 0
h -142 -760 0
h -143 -771 0
h -144 -782 0
h 1441 1442 1443 1444 1445 1446 1447 1448 1449 1450 1451 1452 1453 1454 1455 1456 1457 1458 1459 1460 1461 1462 1463 1464 1465 1466 1467 1468 1469 1470 1471 1472 1473 1474 1475 1476 0
h -1441 109 0
h -1441 398 0
h 1441 -109 -398 0
h -1442 110 0
h -1442 409 0
h 1442 -110 -409 0
h -1443 111 0
h -1443 420 0
h 1443 -111 -420 0
h -1444 112 0
h -1444 431 0
h 1444 -112 -431 0
h -1445 113 0
h -1445 442 0
h 1445 -113 -442 0
h -1446 114 0
h -1446 453 0
h 1446 -114 -453 0
h -1447 115 0
h -1447 464 0
h 1447 -115 -464 0
h -1448 116 0
h -1448 475 0
h 1448 -116 -475 0
h -1449 117 0
h -1449 486 0
h 1449 -117 -486 0
h -1450 118 0
h -1450 497 0
h 1450 -118 -497 0
h -1451 119 0
h -1451 508 0
h 1451 -119 -508 0
h -1452 120 0
h -1452 519 0
h 1452 -120 -519 0
h -1453 121 0
h -1453 530 0
h 1453 -121 -530 0
h -1454 122 0
h -1454 541 0
h 1454 -122 -541 0
h -1455 123 0
h -1455 552 0
h 1455 -123 -552 0
h -1456 124 0
h -1456 563 0
h 1456 -124 -563 0
h -1457 125 0
h -1457 574 0
h 1457 -125 -574 0
h -1458 126 0
h -1458 585 0
h 1458 -126 -585 0
h -1459 127 0
h -1459 596 0
h 1459 -127 -596 0
h -1460 128 0
h -1460 607 0
h 1460 -128 -607 0
h -1461 129 0
h -1461 618 0
h 1461 -129 -618 0
h -1462 130 0
h -1462 629 0
h 1462 -130 -629 0
h -1463 131 0
h -1463 640 0
h 1463 -131 -640 0
h -1464 132 0
h -1464 651 0
h 1464 -132 -651 0
h -1465 133 0
h -1465 662 0
h 1465 -133 -662 0
h -1466 134 0
h -1466 673 0
h 1466 -134 -673 0
h -1467 135 0
h -1467 684 0
h 1467 -135 -684 0
h -1468 136 0
h -1468 695 0
h 1468 -136 -695 0
h -1469 137 0
h -1469 706 0
h 1469 -137 -706 0
h -1470 138 0
h -1470 717 0
h 1470 -138 -717 0
h -1471 139 0
h -1471 728 0
h 1471 -139 -728 0
h -1472 140 0
h -1472 739 0
h 1472 -140 -739 0
h -1473 141 0
h -1473 750 0
h 1473 -141 -750 0
h -1474 142 0
h -1474 761 0
h 1474 -142 -761 0
h -1475 143 0
h -1475 772 0
h 1475 -143 -772 0
h -1476 144 0
h -1476 783 0
h 1476 -144 -783 0
h -109 -399 0
h -110 -410 0
h -111 -421 0
h -112 -432 0
h -113 -443 0
h -114 -454 0
h -115 -465 0
h -116 -476 0
h -117 -487 0
h -118 -498 0
h -119 -509 0
h -120 -520 0
h -121 -531 0
h -122 -542 0
h -123 -553 0
h -124 -564 0
h -125 -575 0
h -126 -586 0
h -127 -597 0
h -128 -608 0
h -129 -619 0
h -130 -630 0
h -131 -641 0
h -132 -652 0
h -133 -663 0
h -134 -674 0
h -135 -685 0
h -136 -696 0
h -137 -707 0
h -138 -718 0
h -139 -729 0
h -140 -740 0
h -141 -751 0
h -142 -762 0
h -143 -773 0
h -144 -784 0
h 1477 1478 1479 1480 1481 1482 1483 1484 1485 1486 1487 1488 1489 1490 1491 1492 1493 1494 1495 1496 1497 1498 1499 1500 1501 1502 1503 1504 1505 1506 1507 1508 1509 1510 1511 1512 0
h -1477 109 0
h -1477 400 0
h 1477 -109 -400 0
h -1478 110 0
h -1478 411 0
h 1478 -110 -411 0
h -1479 111 0
h -1479 422 0
h 1479 -111 -422 0
h -1480 112 0
h -1480 433 0
h 1480 -112 -433 0
h -1481 113 0
h -1481 444 0
h 1481 -113 -444 0
h -1482 114 0
h -1482 455 0
h 1482 -114 -455 0
h -1483 115 0
h -1483 466 0
h 1483 -115 -466 0
h -1484 116 0
h -1484 477 0
h 1484 -116 -477 0
h -1485 117 0
h -1485 488 0
h 1485 -117 -488 0
h -1486 118 0
h -1486 499 0
h 1486 -118 -499 0
h -1487 119 0
h -1487 510 0
h 1487 -119 -510 0
h -1488 120 0
h -1488 521 0
h 1488 -120 -521 0
h -1489 121 0
h -1489 532 0
h 1489 -121 -532 0
h -1490 122 0
h -1490 543 0
h 1490 -122 -543 0
h -1491 123 0
h -1491 554 0
h 1491 -123 -554 0
h -1492 124 0
h -1492 565 0
h 1492 -124 -565 0
h -1493 125 0
h -1493 576 0
h 1493 -125 -576 0
h -1494 126 0
h -1494 587 0
h 1494 -126 -587 0
h -1495 127 0
h -1495 598 0
h 1495 -127 -598 0
h -1496 128 0
h -1496 609 0
h 1496 -128 -609 0
h -1497 129 0
h -1497 620 0
h 1497 -129 -620 0
h -1498 130 0
h -1498 631 0
h 1498 -130 -631 0
h -1499 131 0
h -1499 642 0
h 1499 -131 -642 0
h -1500 132 0
h -1500 653 0
h 1500 -132 -653 0
h -1501 133 0
h -1501 664 0
h 1501 -133 -664 0
h -1502 134 0
h -1502 675 0
h 1502 -134 -675 0
h -1503 135 0
h -1503 686 0
h 1503 -135 -686 0
h -1504 136 0
h -1504 697 0
h 1504 -136 -697 0
h -1505 137 0
h -1505 708 0
h 1505 -137 -708 0
h -1506 138 0
h -1506 719 0
h 1506 -138 -719 0
h -1507 139 0
h -1507 730 0
h 1507 -139 -730 0
h -1508 140 0
h -1508 741 0
h 1508 -140 -741 0
h -1509 141 0
h -1509 752 0
h 1509 -141 -752 0
h -1510 142 0
h -1510 763 0
h 1510 -142 -763 0
h -1511 143 0
h -1511 774 0
h 1511 -143 -774 0
h -1512 144 0
h -1512 785 0
h 1512 -144 -785 0
h -109 -401 0
h -110 -412 0
h -111 -423 0
h -112 -434 0
h -113 -445 0
h -114 -456 0
h -115 -467 0
h -116 -478 0
h -117 -489 0
h -118 -500 0
h -119 -511 0
h -120 -522 0
h -121 -533 0
h -122 -544 0
h -123 -555 0
h -124 -566 0
h -125 -577 0
h -126 -588 0
h -127 -599 0
h -128 -610 0
h -129 -621 0
h -130 -632 0
h -131 -643 0
h -132 -654 0
h -133 -665 0
h -134 -676 0
h -135 -687 0
h -136 -698 0
h -137 -709 0
h -138 -720 0
h -139 -731 0
h -140 -742 0
h -141 -753 0
h -142 -764 0
h -143 -775 0
h -144 -786 0
h -109 -402 0
h -110 -413 0
h -111 -424 0
h -112 -435 0
h -113 -446 0
h -114 -457 0
h -115 -468 0
h -116 -479 0
h -117 -490 0
h -118 -501 0
h -119 -512 0
h -120 -523 0
h -121 -534 0
h -122 -545 0
h -123 -556 0
h -124 -567 0
h -125 -578 0
h -126 -589 0
h -127 -600 0
h -128 -611 0
h -129 -622 0
h -130 -633 0
h -131 -644 0
h -132 -655 0
h -133 -666 0
h -134 -677 0
h -135 -688 0
h -136 -699 0
h -137 -710 0
h -138 -721 0
h -139 -732 0
h -140 -743 0
h -141 -754 0
h -142 -765 0
h -143 -776 0
h -144 -787 0
h -109 -403 0
h -110 -414 0
h -111 -425 0
h -112 -436 0
h -113 -447 0
h -114 -458 0
h -115 -469 0
h -116 -480 0
h -117 -491 0
h -118 -502 0
h -119 -513 0
h -120 -524 0
h -121 -535 0
h -122 -546 0
h -123 -557 0
h -124 -568 0
h -125 -579 0
h -126 -590 0
h -127 -601 0
h -128 -612 0
h -129 -623 0
h -130 -634 0
h -131 -645 0
h -132 -656 0
h -133 -667 0
h -134 -678 0
h -135 -689 0
h -136 -700 0
h -137 -711 0
h -138 -722 0
h -139 -733 0
h -140 -744 0
h -141 -755 0
h -142 -766 0
h -143 -777 0
h -144 -788 0
h -109 -404 0
h -110 -415 0
h -111 -426 0
h -112 -437 0
h -113 -448 0
h -114 -459 0
h -115 -470 0
h -116 -481 0
h -117 -492 0
h -118 -503 0
h -119 -514 0
h -120 -525 0
h -121 -536 0
h -122 -547 0
h -123 -558 0
h -124 -569 0
h -125 -580 0
h -126 -591 0
h -127 -602 0
h -128 -613 0
h -129 -624 0
h -130 -635 0
h -131 -646 0
h -132 -657 0
h -133 -668 0
h -134 -679 0
h -135 -690 0
h -136 -701 0
h -137 -712 0
h -138 -723 0
h -139 -734 0
h -140 -745 0
h -141 -756 0
h -142 -767 0
h -143 -778 0
h -144 -789 0
h -109 -405 0
h -110 -416 0
h -111 -427 0
h -112 -438 0
h -113 -449 0
h -114 -460 0
h -115 -471 0
h -116 -482 0
h -117 -493 0
h -118 -504 0
h -119 -515 0
h -120 -526 0
h -121 -537 0
h -122 -548 0
h -123 -559 0
h -124 -570 0
h -125 -581 0
h -126 -592 0
h -127 -603 0
h -128 -614 0
h -129 -625 0
h -130 -636 0
h -131 -647 0
h -132 -658 0
h -133 -669 0
h -134 -680 0
h -135 -691 0
h -136 -702 0
h -137 -713 0
h -138 -724 0
h -139 -735 0
h -140 -746 0
h -141 -757 0
h -142 -768 0
h -143 -779 0
h -144 -790 0
h -109 -406 0
h -110 -417 0
h -111 -428 0
h -112 -439 0
h -113 -450 0
h -114 -461 0
h -115 -472 0
h -116 -483 0
h -117 -494 0
h -118 -505 0
h -119 -516 0
h -120 -527 0
h -121 -538 0
h -122 -549 0
h -123 -560 0
h -124 -571 0
h -125 -582 0
h -126 -593 0
h -127 -604 0
h -128 -615 0
h -129 -626 0
h -130 -637 0
h -131 -648 0
h -132 -659 0
h -133 -670 0
h -134 -681 0
h -135 -692 0
h -136 -703 0
h -137 -714 0
h -138 -725 0
h -139 -736 0
h -140 -747 0
h -141 -758 0
h -142 -769 0
h -143 -780 0
h -144 -791 0
h -109 -407 0
h -110 -418 0
h -111 -429 0
h -112 -440 0
h -113 -451 0
h -114 -462 0
h -115 -473 0
h -116 -484 0
h -117 -495 0
h -118 -506 0
h -119 -517 0
h -120 -528 0
h -121 -539 0
h -122 -550 0
h -123 -561 0
h -124 -572 0
h -125 -583 0
h -126 -594 0
h -127 -605 0
h -128 -616 0
h -129 -627 0
h -130 -638 0
h -131 -649 0
h -132 -660 0
h -133 -671 0
h -134 -682 0
h -135 -693 0
h -136 -704 0
h -137 -715 0
h -138 -726 0
h -139 -737 0
h -140 -748 0
h -141 -759 0
h -142 -770 0
h -143 -781 0
h -144 -792 0
h 1513 1514 1515 1516 1517 1518 1519 1520 1521 1522 1523 1524 1525 1526 1527 1528 1529 1530 1531 1532 1533 1534 1535 1536 1537 1538 1539 1540 1541 1542 1543 1544 1545 1546 1547 1548 0
h -1513 145 0
h -1513 397 0
h 1513 -145 -397 0
h -1514 146 0
h -1514 408 0
h 1514 -146 -408 0
h -1515 147 0
h -1515 419 0
h 1515 -147 -419 0
h -1516 148 0
h -1516 430 0
h 1516 -148 -430 0
h -1517 149 0
h -1517 441 0
h 1517 -149 -441 0
h -1518 150 0
h -1518 452 0
h 1518 -150 -452 0
h -1519 151 0
h -1519 463 0
h 1519 -151 -463 0
h -1520 152 0
h -1520 474 0
h 1520 -152 -474 0
h -1521 153 0
h -1521 485 0
h 1521 -153 -485 0
h -1522 154 0
h -1522 496 0
h 1522 -154 -496 0
h -1523 155 0
h -1523 507 0
h 1523 -155 -507 0
h -1524 156 0
h -1524 518 0
h 1524 -156 -518 0
h -1525 157 0
h -1525 529 0
h 1525 -157 -529 0
h -1526 158 0
h -1526 540 0
h 1526 -158 -540 0
h -1527 159 0
h -1527 551 0
h 1527 -159 -551 0
h -1528 160 0
h -1528 562 0
h 1528 -160 -562 0
h -1529 161 0
h -1529 573 0
h 1529 -161 -573 0
h -1530 162 0
h -1530 584 0
h 1530 -162 -584 0
h -1531 163 0
h -1531 595 0
h 1531 -163 -595 0
h -1532 164 0
h -1532 606 0
h 1532 -164 -606 0
h -1533 165 0
h -1533 617 0
h 1533 -165 -617 0
h -1534 166 0
h -1534 628 0
h 1534 -166 -628 0
h -1535 167 0
h -1535 639 0
h 1535 -167 -639 0
h -1536 168 0
h -1536 650 0
h 1536 -168 -650 0
h -1537 169 0
h -1537 661 0
h 1537 -169 -661 0
h -1538 170 0
h -1538 672 0
h 1538 -170 -672 0
h -1539 171 0
h -1539 683 0
h 1539 -171 -683 0
h -1540 172 0
h -1540 694 0
h 1540 -172 -694 0
h -1541 173 0
h -1541 705 0
h 1541 -173 -705 0
h -1542 174 0
h -1542 716 0
h 1542 -174 -716 0
h -1543 175 0
h -1543 727 0
h 1543 -175 -727 0
h -1544 176 0
h -1544 738 0
h 1544 -176 -738 0
h -1545 177 0
h -1545 749 0
h 1545 -177 -749 0
h -1546 178 0
h -1546 760 0
h 1546 -178 -760 0
h -1547 179 0
h -1547 771 0
h 1547 -179 -771 0
h -1548 180 0
h -1548 782 0
h 1548 -180 -782 0
h 1549 1550 1551 1552 1553 1554 1555 1556 1557 1558 1559 1560 1561 1562 1563 1564 1565 1566 1567 1568 1569 1570 1571 1572 1573 1574 1575 1576 1577 1578 1579 1580 1581 1582 1583 1584 0
h -1549 145 0
h -1549 398 0
h 1549 -145 -398 0
h -1550 146 0
h -1550 409 0
h 1550 -146 -409 0
h -1551 147 0
h -1551 420 0
h 1551 -147 -420 0
h -1552 148 0
h -1552 431 0
h 1552 -148 -431 0
h -1553 149 0
h -1553 442 0
h 1553 -149 -442 0
h -1554 150 0
h -1554 453 0
h 1554 -150 -453 0
h -1555 151 0
h -1555 464 0
h 1555 -151 -464 0
h -1556 152 0
h -1556 475 0
h 1556 -152 -475 0
h -1557 153 0
h -1557 486 0
h 1557 -153 -486 0
h -1558 154 0
h -1558 497 0
h 1558 -154 -497 0
h -1559 155 0
h -1559 508 0
h 1559 -155 -508 0
h -1560 156 0
h -1560 519 0
h 1560 -156 -519 0
h -1561 157 0
h -1561 530 0
h 1561 -157 -530 0
h -1562 158 0
h -1562 541 0
h 1562 -158 -541 0
h -1563 159 0
h -1563 552 0
h 1563 -159 -552 0
h -1564 160 0
h -1564 563 0
h 1564 -160 -563 0
h -1565 161 0
h -1565 574 0
h 1565 -161 -574 0
h -1566 162 0
h -1566 585 0
h 1566 -162 -585 0
h -1567 163 0
h -1567 596 0
h 1567 -163 -596 0
h -1568 164 0
h -1568 607 0
h 1568 -164 -607 0
h -1569 165 0
h -1569 618 0
h 1569 -165 -618 0
h -1570 166 0
h -1570 629 0
h 1570 -166 -629 0
h -1571 167 0
h -1571 640 0
h 1571 -167 -640 0
h -1572 168 0
h -1572 651 0
h 1572 -168 -651 0
h -1573 169 0
h -1573 662 0
h 1573 -169 -662 0
h -1574 170 0
h -1574 673 0
h 1574 -170 -673 0
h -1575 171 0
h -1575 684 0
h 1575 -171 -684 0
h -1576 172 0
h -1576 695 0
h 1576 -172 -695 0
h -1577 173 0
h -1577 706 0
h 1577 -173 -706 0
h -1578 174 0
h -1578 717 0
h 1578 -174 -717 0
h -1579 175 0
h -1579 728 0
h 1579 -175 -728 0
h -1580 176 0
h -1580 739 0
h 1580 -176 -739 0
h -1581 177 0
h -1581 750 0
h 1581 -177 -750 0
h -1582 178 0
h -1582 761 0
h 1582 -178 -761 0
h -1583 179 0
h -1583 772 0
h 1583 -179 -772 0
h -1584 180 0
h -1584 783 0
h 1584 -180 -783 0
h 1585 1586 1587 1588 1589 1590 1591 1592 1593 1594 1595 1596 1597 1598 1599 1600 1601 1602 1603 1604 1605 1606 1607 1608 1609 1610 1611 1612 1613 1614 1615 1616 1617 1618 1619 1620 0
h -1585 145 0
h -1585 399 0
h 1585 -145 -399 0
h -1586 146 0
h -1586 410 0
h 1586 -146 -410 0
h -1587 147 0
h -1587 421 0
h 1587 -147 -421 0
h -1588 148 0
h -1588 432 0
h 1588 -148 -432 0
h -1589 149 0
h -1589 443 0
h 1589 -149 -443 0
h -1590 150 0
h -1590 454 0
h 1590 -150 -454 0
h -1591 151 0
h -1591 465 0
h 1591 -151 -465 0
h -1592 152 0
h -1592 476 0
h 1592 -152 -476 0
h -1593 153 0
h -1593 487 0
h 1593 -153 -487 0
h -1594 154 0
h -1594 498 0
h 1594 -154 -498 0
h -1595 155 0
h -1595 509 0
h 1595 -155 -509 0
h -1596 156 0
h -1596 520 0
h 1596 -156 -520 0
h -1597 157 0
h -1597 531 0
h 1597 -157 -531 0
h -1598 158 0
h -1598 542 0
h 1598 -158 -542 0
h -1599 159 0
h -1599 553 0
h 1599 -159 -553 0
h -1600 160 0
h -1600 564 0
h 1600 -160 -564 0
h -1601 161 0
h -1601 575 0
h 1601 -161 -575 0
h -1602 162 0
h -1602 586 0
h 1602 -162 -586 0
h -1603 163 0
h -1603 597 0
h 1603 -163 -597 0
h -1604 164 0
h -1604 608 0
h 1604 -164 -608 0
h -1605 165 0
h -1605 619 0
h 1605 -165 -619 0
h -1606 166 0
h -1606 630 0
h 1606 -166 -630 0
h -1607 167 0
h -1607 641 0
h 1607 -167 -641 0
h -1608 168 0
h -1608 652 0
h 1608 -168 -652 0
h -1609 169 0
h -1609 663 0
h 1609 -169 -663 0
h -1610 170 0
h -1610 674 0
h 1610 -170 -674 0
h -1611 171 0
h -1611 685 0
h 1611 -171 -685 0
h -1612 172 0
h -1612 696 0
h 1612 -172 -696 0
h -1613 173 0
h -1613 707 0
h 1613 -173 -707 0
h -1614 174 0
h -1614 718 0
h 1614 -174 -718 0
h -1615 175 0
h -1615 729 0
h 1615 -175 -729 0
h -1616 176 0
h -1616 740 0
h 1616 -176 -740 0
h -1617 177 0
h -1617 751 0
h 1617 -177 -751 0
h -1618 178 0
h -1618 762 0
h 1618 -178 -762 0
h -1619 179 0
h -1619 773 0
h 1619 -179 -773 0
h -1620 180 0
h -1620 784 0
h 1620 -180 -784 0
h 1621 1622 1623 1624 1625 1626 1627 1628 1629 1630 1631 1632 1633 1634 1635 1636 1637 1638 1639 1640 1641 1642 1643 1644 1645 1646 1647 1648 1649 1650 1651 1652 1653 1654 1655 1656 0
h -1621 145 0
h -1621 400 0
h 1621 -145 -400 0
h -1622 146 0
h -1622 411 0
h 1622 -146 -411 0
h -1623 147 0
h -1623 422 0
h 1623 -147 -422 0
h -1624 148 0
h -1624 433 0
h 1624 -148 -433 0
h -1625 149 0
h -1625 444 0
h 1625 -149 -444 0
h -1626 150 0
h -1626 455 0
h 1626 -150 -455 0
h -1627 151 0
h -1627 466 0
h 1627 -151 -466 0
h -1628 152 0
h -1628 477 0
h 1628 -152 -477 0
h -1629 153 0
h -1629 488 0
h 1629 -153 -488 0
h -1630 154 0
h -1630 499 0
h 1630 -154 -499 0
h -1631 155 0
h -1631 510 0
h 1631 -155 -510 0
h -1632 156 0
h -1632 521 0
h 1632 -156 -521 0
h -1633 157 0
h -1633 532 0
h 1633 -157 -532 0
h -1634 158 0
h -1634 543 0
h 1634 -158 -543 0
h -1635 159 0
h -1635 554 0
h 1635 -159 -554 0
h -1636 160 0
h -1636 565 0
h 1636 -160 -565 0
h -1637 161 0
h -1637 576 0
h 1637 -161 -576 0
h -1638 162 0
h -1638 587 0
h 1638 -162 -587 0
h -1639 163 0
h -1639 598 0
h 1639 -163 -598 0
h -1640 164 0
h -1640 609 0
h 1640 -164 -609 0
h -1641 165 0
h -1641 620 0
h 1641 -165 -620 0
h -1642 166 0
h -1642 631 0
h 1642 -166 -631 0
h -1643 167 0
h -1643 642 0
h 1643 -167 -642 0
h -1644 168 0
h -1644 653 0
h 1644 -168 -653 0
h -1645 169 0
h -1645 664 0
h 1645 -169 -664 0
h -1646 170 0
h -1646 675 0
h 1646 -170 -675 0
h -1647 171 0
h -1647 686 0
h 1647 -171 -686 0
h -1648 172 0
h -1648 697 0
h 1648 -172 -697 0
h -1649 173 0
h -1649 708 0
h 1649 -173 -708 0
h -1650 174 0
h -1650 719 0
h 1650 -174 -719 0
h -1651 175 0
h -1651 730 0
h 1651 -175 -730 0
h -1652 176 0
h -1652 741 0
h 1652 -176 -741 0
h -1653 177 0
h -1653 752 0
h 1653 -177 -752 0
h -1654 178 0
h -1654 763 0
h 1654 -178 -763 0
h -1655 179 0
h -1655 774 0
h 1655 -179 -774 0
h -1656 180 0
h -1656 785 0
h 1656 -180 -785 0
h -145 -401 0
h -146 -412 0
h -147 -423 0
h -148 -434 0
h -149 -445 0
h -150 -456 0
h -151 -467 0
h -152 -478 0
h -153 -489 0
h -154 -500 0
h -155 -511 0
h -156 -522 0
h -157 -533 0
h -158 -544 0
h -159 -555 0
h -160 -566 0
h -161 -577 0
h -162 -588 0
h -163 -599 0
h -164 -610 0
h -165 -621 0
h -166 -632 0
h -167 -643 0
h -168 -654 0
h -169 -665 0
h -170 -676 0
h -171 -687 0
h -172 -698 0
h -173 -709 0
h -174 -720 0
h -175 -731 0
h -176 -742 0
h -177 -753 0
h -178 -764 0
h -179 -775 0
h -180 -786 0
h 1657 1658 1659 1660 1661 1662 1663 1664 1665 1666 1667 1668 1669 1670 1671 1672 1673 1674 1675 1676 1677 1678 1679 1680 1681 1682 1683 1684 1685 1686 1687 1688 1689 1690 1691 1692 0
h -1657 145 0
h -1657 402 0
h 1657 -145 -402 0
h -1658 146 0
h -1658 413 0
h 1658 -146 -413 0
h -1659 147 0
h -1659 424 0
h 1659 -147 -424 0
h -1660 148 0
h -1660 435 0
h 1660 -148 -435 0
h -1661 149 0
h -1661 446 0
h 1661 -149 -446 0
h -1662 150 0
h -1662 457 0
h 1662 -150 -457 0
h -1663 151 0
h -1663 468 0
h 1663 -151 -468 0
h -1664 152 0
h -1664 479 0
h 1664 -152 -479 0
h -1665 153 0
h -1665 490 0
h 1665 -153 -490 0
h -1666 154 0
h -1666 501 0
h 1666 -154 -501 0
h -1667 155 0
h -1667 512 0
h 1667 -155 -512 0
h -1668 156 0
h -1668 523 0
h 1668 -156 -523 0
h -1669 157 0
h -1669 534 0
h 1669 -157 -534 0
h -1670 158 0
h -1670 545 0
h 1670 -158 -545 0
h -1671 159 0
h -1671 556 0
h 1671 -159 -556 0
h -1672 160 0
h -1672 567 0
h 1672 -160 -567 0
h -1673 161 0
h -1673 578 0
h 1673 -161 -578 0
h -1674 162 0
h -1674 589 0
h 1674 -162 -589 0
h -1675 163 0
h -1675 600 0
h 1675 -163 -600 0
h -1676 164 0
h -1676 611 0
h 1676 -164 -611 0
h -1677 165 0
h -1677 622 0
h 1677 -165 -622 0
h -1678 166 0
h -1678 633 0
h 1678 -166 -633 0
h -1679 167 0
h -1679 644 0
h 1679 -167 -644 0
h -1680 168 0
h -1680 655 0
h 1680 -168 -655 0
h -1681 169 0
h -1681 666 0
h 1681 -169 -666 0
h -1682 170 0
h -1682 677 0
h 1682 -170 -677 0
h -1683 171 0
h -1683 688 0
h 1683 -171 -688 0
h -1684 172 0
h -1684 699 0
h 1684 -172 -699 0
h -1685 173 0
h -1685 710 0
h 1685 -173 -710 0
h -1686 174 0
h -1686 721 0
h 1686 -174 -721 0
h -1687 175 0
h -1687 732 0
h 1687 -175 -732 0
h -1688 176 0
h -1688 743 0
h 1688 -176 -743 0
h -1689 177 0
h -1689 754 0
h 1689 -177 -754 0
h -1690 178 0
h -1690 765 0
h 1690 -178 -765 0
h -1691 179 0
h -1691 776 0
h 1691 -179 -776 0
h -1692 180 0
h -1692 787 0
h 1692 -180 -787 0
h -145 -403 0
h -146 -414 0
h -147 -425 0
h -148 -436 0
h -149 -447 0
h -150 -458 0
h -151 -469 0
h -152 -480 0
h -153 -491 0
h -154 -502 0
h -155 -513 0
h -156 -524 0
h -157 -535 0
h -158 -546 0
h -159 -557 0
h -160 -568 0
h -161 -579 0
h -162 -590 0
h -163 -601 0
h -164 -612 0
h -165 -623 0
h -166 -634 0
h -167 -645 0
h -168 -656 0
h -169 -667 0
h -170 -678 0
h -171 -689 0
h -172 -700 0
h -173 -711 0
h -174 -722 0
h -175 -733 0
h -176 -744 0
h -177 -755 0
h -178 -766 0
h -179 -777 0
h -180 -788 0
h -145 -404 0
h -146 -415 0
h -147 -426 0
h -148 -437 0
h -149 -448 0
h -150 -459 0
h -151 -470 0
h -152 -481 0
h -153 -492 0
h -154 -503 0
h -155 -514 0
h -156 -525 0
h -157 -536 0
h -158 -547 0
h -159 -558 0
h -160 -569 0
h -161 -580 0
h -162 -591 0
h -163 -602 0
h -164 -613 0
h -165 -624 0
h -166 -635 0
h -167 -646 0
h -168 -657 0
h -169 -668 0
h -170 -679 0
h -171 -690 0
h -172 -701 0
h -173 -712 0
h -174 -723 0
h -175 -734 0
h -176 -745 0
h -177 -756 0
h -178 -767 0
h -179 -778 0
h -180 -789 0
h -145 -405 0
h -146 -416 0
h -147 -427 0
h -148 -438 0
h -149 -449 0
h -150 -460 0
h -151 -471 0
h -152 -482 0
h -153 -493 0
h -154 -504 0
h -155 -515 0
h -156 -526 0
h -157 -537 0
h -158 -548 0
h -159 -559 0
h -160 -570 0
h -161 -581 0
h -162 -592 0
h -163 -603 0
h -164 -614 0
h -165 -625 0
h -166 -636 0
h -167 -647 0
h -168 -658 0
h -169 -669 0
h -170 -680 0
h -171 -691 0
h -172 -702 0
h -173 -713 0
h -174 -724 0
h -175 -735 0
h -176 -746 0
h -177 -757 0
h -178 -768 0
h -179 -779 0
h -180 -790 0
h -145 -406 0
h -146 -417 0
h -147 -428 0
h -148 -439 0
h -149 -450 0
h -150 -461 0
h -151 -472 0
h -152 -483 0
h -153 -494 0
h -154 -505 0
h -155 -516 0
h -156 -527 0
h -157 -538 0
h -158 -549 0
h -159 -560 0
h -160 -571 0
h -161 -582 0
h -162 -593 0
h -163 -604 0
h -164 -615 0
h -165 -626 0
h -166 -637 0
h -167 -648 0
h -168 -659 0
h -169 -670 0
h -170 -681 0
h -171 -692 0
h -172 -703 0
h -173 -714 0
h -174 -725 0
h -175 -736 0
h -176 -747 0
h -177 -758 0
h -178 -769 0
h -179 -780 0
h -180 -791 0
h -145 -407 0
h -146 -418 0
h -147 -429 0
h -148 -440 0
h -149 -451 0
h -150 -462 0
h -151 -473 0
h -152 -484 0
h -153 -495 0
h -154 -506 0
h -155 -517 0
h -156 -528 0
h -157 -539 0
h -158 -550 0
h -159 -561 0
h -160 -572 0
h -161 -583 0
h -162 -594 0
h -163 -605 0
h -164 -616 0
h -165 -627 0
h -166 -638 0
h -167 -649 0
h -168 -660 0
h -169 -671 0
h -170 -682 0
h -171 -693 0
h -172 -704 0
h -173 -715 0
h -174 -726 0
h -175 -737 0
h -176 -748 0
h -177 -759 0
h -178 -770 0
h -179 -781 0
h -180 -792 0
h -181 -397 0
h -182 -408 0
h -183 -419 0
h -184 -430 0
h -185 -441 0
h -186 -452 0
h -187 -463 0
h -188 -474 0
h -189 -485 0
h -190 -496 0
h -191 -507 0
h -192 -518 0
h -193 -529 0
h -194 -540 0
h -195 -551 0
h -196 -562 0
h -197 -573 0
h -198 -584 0
h -199 -595 0
h -200 -606 0
h -201 -617 0
h -202 -628 0
h -203 -639 0
h -204 -650 0
h -205 -661 0
h -206 -672 0
h -207 -683 0
h -208 -694 0
h -209 -705 0
h -210 -716 0
h -211 -727 0
h -212 -738 0
h -213 -749 0
h -214 -760 0
h -215 -771 0
h -216 -782 0
h -181 -398 0
h -182 -409 0
h -183 -420 0
h -184 -431 0
h -185 -442 0
h -186 -453 0
h -187 -464 0
h -188 -475 0
h -189 -486 0
h -190 -497 0
h -191 -508 0
h -192 -519 0
h -193 -530 0
h -194 -541 0
h -195 -552 0
h -196 -563 0
h -197 -574 0
h -198 -585 0
h -199 -596 0
h -200 -607 0
h -201 -618 0
h -202 -629 0
h -203 -640 0
h -204 -651 0
h -205 -662 0
h -206 -673 0
h -207 -684 0
h -208 -695 0
h -209 -706 0
h -210 -717 0
h -211 -728 0
h -212 -739 0
h -213 -750 0
h -214 -761 0
h -215 -772 0
h -216 -783 0
h -181 -399 0
h -182 -410 0
h -183 -421 0
h -184 -432 0
h -185 -443 0
h -186 -454 0
h -187 -465 0
h -188 -476 0
h -189 -487 0
h -190 -498 0
h -191 -509 0
h -192 -520 0
h -193 -531 0
h -194 -542 0
h -195 -553 0
h -196 -564 0
h -197 -575 0
h -198 -586 0
h -199 -597 0
h -200 -608 0
h -201 -619 0
h -202 -630 0
h -203 -641 0
h -204 -652 0
h -205 -663 0
h -206 -674 0
h -207 -685 0
h -208 -696 0
h -209 -707 0
h -210 -718 0
h -211 -729 0
h -212 -740 0
h -213 -751 0
h -214 -762 0
h -215 -773 0
h -216 -784 0
h -181 -400 0
h -182 -411 0
h -183 -422 0
h -184 -433 0
h -185 -444 0
h -186 -455 0
h -187 -466 0
h -188 -477 0
h -189 -488 0
h -190 -499 0
h -191 -510 0
h -192 -521 0
h -193 -532 0
h -194 -543 0
h -195 -554 0
h -196 -565 0
h -197 -576 0
h -198 -587 0
h -199 -598 0
h -200 -609 0
h -201 -620 0
h -202 -631 0
h -203 -642 0
h -204 -653 0
h -205 -664 0
h -206 -675 0
h -207 -686 0
h -208 -697 0
h -209 -708 0
h -210 -719 0
h -211 -730 0
h -212 -741 0
h -213 -752 0
h -214 -763 0
h -215 -774 0
h -216 -785 0
h -181 -401 0
h -182 -412 0
h -183 -423 0
h -184 -434 0
h -185 -445 0
h -186 -456 0
h -187 -467 0
h -188 -478 0
h -189 -489 0
h -190 -500 0
h -191 -511 0
h -192 -522 0
h -193 -533 0
h -194 -544 0
h -195 -555 0
h -196 -566 0
h -197 -577 0
h -198 -588 0
h -199 -599 0
h -200 -610 0
h -201 -621 0
h -202 -632 0
h -203 -643 0
h -204 -654 0
h -205 -665 0
h -206 -676 0
h -207 -687 0
h -208 -698 0
h -209 -709 0
h -210 -720 0
h -211 -731 0
h -212 -742 0
h -213 -753 0
h -214 -764 0
h -215 -775 0
h -216 -786 0
h -181 -402 0
h -182 -413 0
h -183 -424 0
h -184 -435 0
h -185 -446 0
h -186 -457 0
h -187 -468 0
h -188 -479 0
h -189 -490 0
h -190 -501 0
h -191 -512 0
h -192 -523 0
h -193 -534 0
h -194 -545 0
h -195 -556 0
h -196 -567 0
h -197 -578 0
h -198 -589 0
h -199 -600 0
h -200 -611 0
h -201 -622 0
h -202 -633 0
h -203 -644 0
h -204 -655 0
h -205 -666 0
h -206 -677 0
h -207 -688 0
h -208 -699 0
h -209 -710 0
h -210 -721 0
h -211 -732 0
h -212 -743 0
h -213 -754 0
h -214 -765 0
h -215 -776 0
h -216 -787 0
h -181 -403 0
h -182 -414 0
h -183 -425 0
h -184 -436 0
h -185 -447 0
h -186 -458 0
h -187 -469 0
h -188 -480 0
h -189 -491 0
h -190 -502 0
h -191 -513 0
h -192 -524 0
h -193 -535 0
h -194 -546 0
h -195 -557 0
h -196 -568 0
h -197 -579 0
h -198 -590 0
h -199 -601 0
h -200 -612 0
h -201 -623 0
h -202 -634 0
h -203 -645 0
h -204 -656 0
h -205 -667 0
h -206 -678 0
h -207 -689 0
h -208 -700 0
h -209 -711 0
h -210 -722 0
h -211 -733 0
h -212 -744 0
h -213 -755 0
h -214 -766 0
h -215 -777 0
h -216 -788 0
h -181 -404 0
h -182 -415 0
h -183 -426 0
h -184 -437 0
h -185 -448 0
h -186 -459 0
h -187 -470 0
h -188 -481 0
h -189 -492 0
h -190 -503 0
h -191 -514 0
h -192 -525 0
h -193 -536 0
h -194 -547 0
h -195 -558 0
h -196 -569 0
h -197 -580 0
h -198 -591 0
h -199 -602 0
h -200 -613 0
h -201 -624 0
h -202 -635 0
h -203 -646 0
h -204 -657 0
h -205 -668 0
h -206 -679 0
h -207 -690 0
h -208 -701 0
h -209 -712 0
h -210 -723 0
h -211 -734 0
h -212 -745 0
h -213 -756 0
h -214 -767 0
h -215 -778 0
h -216 -789 0
h -181 -405 0
h -182 -416 0
h -183 -427 0
h -184 -438 0
h -185 -449 0
h -186 -460 0
h -187 -471 0
h -188 -482 0
h -189 -493 0
h -190 -504 0
h -191 -515 0
h -192 -526 0
h -193 -537 0
h -194 -548 0
h -195 -559 0
h -196 -570 0
h -197 -581 0
h -198 -592 0
h -199 -603 0
h -200 -614 0
h -201 -625 0
h -202 -636 0
h -203 -647 0
h -204 -658 0
h -205 -669 0
h -206 -680 0
h -207 -691 0
h -208 -702 0
h -209 -713 0
h -210 -724 0
h -211 -735 0
h -212 -746 0
h -213 -757 0
h -214 -768 0
h -215 -779 0
h -216 -790 0
h -181 -406 0
h -182 -417 0
h -183 -428 0
h -184 -439 0
h -185 -450 0
h -186 -461 0
h -187 -472 0
h -188 -483 0
h -189 -494 0
h -190 -505 0
h -191 -516 0
h -192 -527 0
h -193 -538 0
h -194 -549 0
h -195 -560 0
h -196 -571 0
h -197 -582 0
h -198 -593 0
h -199 -604 0
h -200 -615 0
h -201 -626 0
h -202 -637 0
h -203 -648 0
h -204 -659 0
h -205 -670 0
h -206 -681 0
h -207 -692 0
h -208 -703 0
h -209 -714 0
h -210 -725 0
h -211 -736 0
h -212 -747 0
h -213 -758 0
h -214 -769 0
h -215 -780 0
h -216 -791 0
h -181 -407 0
h -182 -418 0
h -183 -429 0
h -184 -440 0
h -185 -451 0
h -186 -462 0
h -187 -473 0
h -188 -484 0
h -189 -495 0
h -190 -506 0
h -191 -517 0
h -192 -528 0
h -193 -539 0
h -194 -550 0
h -195 -561 0
h -196 -572 0
h -197 -583 0
h -198 -594 0
h -199 -605 0
h -200 -616 0
h -201 -627 0
h -202 -638 0
h -203 -649 0
h -204 -660 0
h -205 -671 0
h -206 -682 0
h -207 -693 0
h -208 -704 0
h -209 -715 0
h -210 -726 0
h -211 -737 0
h -212 -748 0
h -213 -759 0
h -214 -770 0
h -215 -781 0
h -216 -792 0
h 1693 1694 1695 1696 1697 1698 1699 1700 1701 1702 1703 1704 1705 1706 1707 1708 1709 1710 1711 1712 1713 1714 1715 1716 1717 1718 1719 1720 1721 1722 1723 1724 1725 1726 1727 1728 0
h -1693 217 0
h -1693 397 0
h 1693 -217 -397 0
h -1694 218 0
h -1694 408 0
h 1694 -218 -408 0
h -1695 219 0
h -1695 419 0
h 1695 -219 -419 0
h -1696 220 0
h -1696 430 0
h 1696 -220 -430 0
h -1697 221 0
h -1697 441 0
h 1697 -221 -441 0
h -1698 222 0
h -1698 452 0
h 1698 -222 -452 0
h -1699 223 0
h -1699 463 0
h 1699 -223 -463 0
h -1700 224 0
h -1700 474 0
h 1700 -224 -474 0
h -1701 225 0
h -1701 485 0
h 1701 -225 -485 0
h -1702 226 0
h -1702 496 0
h 1702 -226 -496 0
h -1703 227 0
h -1703 507 0
h 1703 -227 -507 0
h -1704 228 0
h -1704 518 0
h 1704 -228 -518 0
h -1705 229 0
h -1705 529 0
h 1705 -229 -529 0
h -1706 230 0
h -1706 540 0
h 1706 -230 -540 0
h -1707 231 0
h -1707 551 0
h 1707 -231 -551 0
h -1708 232 0
h -1708 562 0
h 1708 -232 -562 0
h -1709 233 0
h -1709 573 0
h 1709 -233 -573 0
h -1710 234 0
h -1710 584 0
h 1710 -234 -584 0
h -1711 235 0
h -1711 595 0
h 1711 -235 -595 0
h -1712 236 0
h -1712 606 0
h 1712 -236 -606 0
h -1713 237 0
h -1713 617 0
h 1713 -237 -617 0
h -1714 238 0
h -1714 628 0
h 1714 -238 -628 0
h -1715 239 0
h -1715 639 0
h 1715 -239 -639 0
h -1716 240 0
h -1716 650 0
h 1716 -240 -650 0
h -1717 241 0
h -1717 661 0
h 1717 -241 -661 0
h -1718 242 0
h -1718 672 0
h 1718 -242 -672 0
h -1719 243 0
h -1719 683 0
h 1719 -243 -683 0
h -1720 244 0
h -1720 694 0
h 1720 -244 -694 0
h -1721 245 0
h -1721 705 0
h 1721 -245 -705 0
h -1722 246 0
h -1722 716 0
h 1722 -246 -716 0
h -1723 247 0
h -1723 727 0
h 1723 -247 -727 0
h -1724 248 0
h -1724 738 0
h 1724 -248 -738 0
h -1725 249 0
h -1725 749 0
h 1725 -249 -749 0
h -1726 250 0
h -1726 760 0
h 1726 -250 -760 0
h -1727 251 0
h -1727 771 0
h 1727 -251 -771 0
h -1728 252 0
h -1728 782 0
h 1728 -252 -782 0
h -217 -398 0
h -218 -409 0
h -219 -420 0
h -220 -431 0
h -221 -442 0
h -222 -453 0
h -223 -464 0
h -224 -475 0
h -225 -486 0
h -226 -497 0
h -227 -508 0
h -228 -519 0
h -229 -530 0
h -230 -541 0
h -231 -552 0
h -232 -563 0
h -233 -574 0
h -234 -585 0
h -235 -596 0
h -236 -607 0
h -237 -618 0
h -238 -629 0
h -239 -640 0
h -240 -651 0
h -241 -662 0
h -242 -673 0
h -243 -684 0
h -244 -695 0
h -245 -706 0
h -246 -717 0
h -247 -728 0
h -248 -739 0
h -249 -750 0
h -250 -761 0
h -251 -772 0
h -252 -783 0
h -217 -399 0
h -218 -410 0
h -219 -421 0
h -220 -432 0
h -221 -443 0
h -222 -454 0
h -223 -465 0
h -224 -476 0
h -225 -487 0
h -226 -498 0
h -227 -509 0
h -228 -520 0
h -229 -531 0
h -230 -542 0
h -231 -553 0
h -232 -564 0
h -233 -575 0
h -234 -586 0
h -235 -597 0
h -236 -608 0
h -237 -619 0
h -238 -630 0
h -239 -641 0
h -240 -652 0
h -241 -663 0
h -242 -674 0
h -243 -685 0
h -244 -696 0
h -245 -707 0
h -246 -718 0
h -247 -729 0
h -248 -740 0
h -249 -751 0
h -250 -762 0
h -251 -773 0
h -252 -784 0
h -217 -400 0
h -218 -411 0
h -219 -422 0
h -220 -433 0
h -221 -444 0
h -222 -455 0
h -223 -466 0
h -224 -477 0
h -225 -488 0
h -226 -499 0
h -227 -510 0
h -228 -521 0
h -229 -532 0
h -230 -543 0
h -231 -554 0
h -232 -565 0
h -233 -576 0
h -234 -587 0
h -235 -598 0
h -236 -609 0
h -237 -620 0
h -238 -631 0
h -239 -642 0
h -240 -653 0
h -241 -664 0
h -242 -675 0
h -243 -686 0
h -244 -697 0
h -245 -708 0
h -246 -719 0
h -247 -730 0
h -248 -741 0
h -249 -752 0
h -250 -763 0
h -251 -774 0
h -252 -785 0
h -217 -401 0
h -218 -412 0
h -219 -423 0
h -220 -434 0
h -221 -445 0
h -222 -456 0
h -223 -467 0
h -224 -478 0
h -225 -489 0
h -226 -500 0
h -227 -511 0
h -228 -522 0
h -229 -533 0
h -230 -544 0
h -231 -555 0
h -232 -566 0
h -233 -577 0
h -234 -588 0
h -235 -599 0
h -236 -610 0
h -237 -621 0
h -238 -632 0
h -239 -643 0
h -240 -654 0
h -241 -665 0
h -242 -676 0
h -243 -687 0
h -244 -698 0
h -245 -709 0
h -246 -720 0
h -247 -731 0
h -248 -742 0
h -249 -753 0
h -250 -764 0
h -251 -775 0
h -252 -786 0
h -217 -402 0
h -218 -413 0
h -219 -424 0
h -220 -435 0
h -221 -446 0
h -222 -457 0
h -223 -468 0
h -224 -479 0
h -225 -490 0
h -226 -501 0
h -227 -512 0
h -228 -523 0
h -229 -534 0
h -230 -545 0
h -231 -556 0
h -232 -567 0
h -233 -578 0
h -234 -589 0
h -235 -600 0
h -236 -611 0
h -237 -622 0
h -238 -633 0
h -239 -644 0
h -240 -655 0
h -241 -666 0
h -242 -677 0
h -243 -688 0
h -244 -699 0
h -245 -710 0
h -246 -721 0
h -247 -732 0
h -248 -743 0
h -249 -754 0
h -250 -765 0
h -251 -776 0
h -252 -787 0
h -217 -403 0
h -218 -414 0
h -219 -425 0
h -220 -436 0
h -221 -447 0
h -222 -458 0
h -223 -469 0
h -224 -480 0
h -225 -491 0
h -226 -502 0
h -227 -513 0
h -228 -524 0
h -229 -535 0
h -230 -546 0
h -231 -557 0
h -232 -568 0
h -233 -579 0
h -234 -590 0
h -235 -601 0
h -236 -612 0
h -237 -623 0
h -238 -634 0
h -239 -645 0
h -240 -656 0
h -241 -667 0
h -242 -678 0
h -243 -689 0
h -244 -700 0
h -245 -711 0
h -246 -722 0
h -247 -733 0
h -248 -744 0
h -249 -755 0
h -250 -766 0
h -251 -777 0
h -252 -788 0
h -217 -404 0
h -218 -415 0
h -219 -426 0
h -220 -437 0
h -221 -448 0
h -222 -459 0
h -223 -470 0
h -224 -481 0
h -225 -492 0
h -226 -503 0
h -227 -514 0
h -228 -525 0
h -229 -536 0
h -230 -547 0
h -231 -558 0
h -232 -569 0
h -233 -580 0
h -234 -591 0
h -235 -602 0
h -236 -613 0
h -237 -624 0
h -238 -635 0
h -239 -646 0
h -240 -657 0
h -241 -668 0
h -242 -679 0
h -243 -690 0
h -244 -701 0
h -245 -712 0
h -246 -723 0
h -247 -734 0
h -248 -745 0
h -249 -756 0
h -250 -767 0
h -251 -778 0
h -252 -789 0
h -217 -405 0
h -218 -416 0
h -219 -427 0
h -220 -438 0
h -221 -449 0
h -222 -460 0
h -223 -471 0
h -224 -482 0
h -225 -493 0
h -226 -504 0
h -227 -515 0
h -228 -526 0
h -229 -537 0
h -230 -548 0
h -231 -559 0
h -232 -570 0
h -233 -581 0
h -234 -592 0
h -235 -603 0
h -236 -614 0
h -237 -625 0
h -238 -636 0
h -239 -647 0
h -240 -658 0
h -241 -669 0
h -242 -680 0
h -243 -691 0
h -244 -702 0
h -245 -713 0
h -246 -724 0
h -247 -735 0
h -248 -746 0
h -249 -757 0
h -250 -768 0
h -251 -779 0
h -252 -790 0
h -217 -406 0
h -218 -417 0
h -219 -428 0
h -220 -439 0
h -221 -450 0
h -222 -461 0
h -223 -472 0
h -224 -483 0
h -225 -494 0
h -226 -505 0
h -227 -516 0
h -228 -527 0
h -229 -538 0
h -230 -549 0
h -231 -560 0
h -232 -571 0
h -233 -582 0
h -234 -593 0
h -235 -604 0
h -236 -615 0
h -237 -626 0
h -238 -637 0
h -239 -648 0
h -240 -659 0
h -241 -670 0
h -242 -681 0
h -243 -692 0
h -244 -703 0
h -245 -714 0
h -246 -725 0
h -247 -736 0
h -248 -747 0
h -249 -758 0
h -250 -769 0
h -251 -780 0
h -252 -791 0
h -217 -407 0
h -218 -418 0
h -219 -429 0
h -220 -440 0
h -221 -451 0
h -222 -462 0
h -223 -473 0
h -224 -484 0
h -225 -495 0
h -226 -506 0
h -227 -517 0
h -228 -528 0
h -229 -539 0
h -230 -550 0
h -231 -561 0
h -232 -572 0
h -233 -583 0
h -234 -594 0
h -235 -605 0
h -236 -616 0
h -237 -627 0
h -238 -638 0
h -239 -649 0
h -240 -660 0
h -241 -671 0
h -242 -682 0
h -243 -693 0
h -244 -704 0
h -245 -715 0
h -246 -726 0
h -247 -737 0
h -248 -748 0
h -249 -759 0
h -250 -770 0
h -251 -781 0
h -252 -792 0
h -253 -397 0
h -254 -408 0
h -255 -419 0
h -256 -430 0
h -257 -441 0
h -258 -452 0
h -259 -463 0
h -260 -474 0
h -261 -485 0
h -262 -496 0
h -263 -507 0
h -264 -518 0
h -265 -529 0
h -266 -540 0
h -267 -551 0
h -268 -562 0
h -269 -573 0
h -270 -584 0
h -271 -595 0
h -272 -606 0
h -273 -617 0
h -274 -628 0
h -275 -639 0
h -276 -650 0
h -277 -661 0
h -278 -672 0
h -279 -683 0
h -280 -694 0
h -281 -705 0
h -282 -716 0
h -283 -727 0
h -284 -738 0
h -285 -749 0
h -286 -760 0
h -287 -771 0
h -288 -782 0
h -253 -398 0
h -254 -409 0
h -255 -420 0
h -256 -431 0
h -257 -442 0
h -258 -453 0
h -259 -464 0
h -260 -475 0
h -261 -486 0
h -262 -497 0
h -263 -508 0
h -264 -519 0
h -265 -530 0
h -266 -541 0
h -267 -552 0
h -268 -563 0
h -269 -574 0
h -270 -585 0
h -271 -596 0
h -272 -607 0
h -273 -618 0
h -274 -629 0
h -275 -640 0
h -276 -651 0
h -277 -662 0
h -278 -673 0
h -279 -684 0
h -280 -695 0
h -281 -706 0
h -282 -717 0
h -283 -728 0
h -284 -739 0
h -285 -750 0
h -286 -761 0
h -287 -772 0
h -288 -783 0
h -253 -399 0
h -254 -410 0
h -255 -421 0
h -256 -432 0
h -257 -443 0
h -258 -454 0
h -259 -465 0
h -260 -476 0
h -261 -487 0
h -262 -498 0
h -263 -509 0
h -264 -520 0
h -265 -531 0
h -266 -542 0
h -267 -553 0
h -268 -564 0
h -269 -575 0
h -270 -586 0
h -271 -597 0
h -272 -608 0
h -273 -619 0
h -274 -630 0
h -275 -641 0
h -276 -652 0
h -277 -663 0
h -278 -674 0
h -279 -685 0
h -280 -696 0
h -281 -707 0
h -282 -718 0
h -283 -729 0
h -284 -740 0
h -285 -751 0
h -286 -762 0
h -287 -773 0
h -288 -784 0
h -253 -400 0
h -254 -411 0
h -255 -422 0
h -256 -433 0
h -257 -444 0
h -258 -455 0
h -259 -466 0
h -260 -477 0
h -261 -488 0
h -262 -499 0
h -263 -510 0
h -264 -521 0
h -265 -532 0
h -266 -543 0
h -267 -554 0
h -268 -565 0
h -269 -576 0
h -270 -587 0
h -271 -598 0
h -272 -609 0
h -273 -620 0
h -274 -631 0
h -275 -642 0
h -276 -653 0
h -277 -664 0
h -278 -675 0
h -279 -686 0
h -280 -697 0
h -281 -708 0
h -282 -719 0
h -283 -730 0
h -284 -741 0
h -285 -752 0
h -286 -763 0
h -287 -774 0
h -288 -785 0
h -253 -401 0
h -254 -412 0
h -255 -423 0
h -256 -434 0
h -257 -445 0
h -258 -456 0
h -259 -467 0
h -260 -478 0
h -261 -489 0
h -262 -500 0
h -263 -511 0
h -264 -522 0
h -265 -533 0
h -266 -544 0
h -267 -555 0
h -268 -566 0
h -269 -577 0
h -270 -588 0
h -271 -599 0
h -272 -610 0
h -273 -621 0
h -274 -632 0
h -275 -643 0
h -276 -654 0
h -277 -665 0
h -278 -676 0
h -279 -687 0
h -280 -698 0
h -281 -709 0
h -282 -720 0
h -283 -731 0
h -284 -742 0
h -285 -753 0
h -286 -764 0
h -287 -775 0
h -288 -786 0
h -253 -402 0
h -254 -413 0
h -255 -424 0
h -256 -435 0
h -257 -446 0
h -258 -457 0
h -259 -468 0
h -260 -479 0
h -261 -490 0
h -262 -501 0
h -263 -512 0
h -264 -523 0
h -265 -534 0
h -266 -545 0
h -267 -556 0
h -268 -567 0
h -269 -578 0
h -270 -589 0
h -271 -600 0
h -272 -611 0
h -273 -622 0
h -274 -633 0
h -275 -644 0
h -276 -655 0
h -277 -666 0
h -278 -677 0
h -279 -688 0
h -280 -699 0
h -281 -710 0
h -282 -721 0
h -283 -732 0
h -284 -743 0
h -285 -754 0
h -286 -765 0
h -287 -776 0
h -288 -787 0
h -253 -403 0
h -254 -414 0
h -255 -425 0
h -256 -436 0
h -257 -447 0
h -258 -458 0
h -259 -469 0
h -260 -480 0
h -261 -491 0
h -262 -502 0
h -263 -513 0
h -264 -524 0
h -265 -535 0
h -266 -546 0
h -267 -557 0
h -268 -568 0
h -269 -579 0
h -270 -590 0
h -271 -601 0
h -272 -612 0
h -273 -623 0
h -274 -634 0
h -275 -645 0
h -276 -656 0
h -277 -667 0
h -278 -678 0
h -279 -689 0
h -280 -700 0
h -281 -711 0
h -282 -722 0
h -283 -733 0
h -284 -744 0
h -285 -755 0
h -286 -766 0
h -287 -777 0
h -288 -788 0
h 1729 1730 1731 1732 1733 1734 1735 1736 1737 1738 1739 1740 1741 1742 1743 1744 1745 1746 1747 1748 1749 1750 1751 1752 1753 1754 1755 1756 1757 1758 1759 1760 1761 1762 1763 1764 0
h -1729 253 0
h -1729 404 0
h 1729 -253 -404 0
h -1730 254 0
h -1730 415 0
h 1730 -254 -415 0
h -1731 255 0
h -1731 426 0
h 1731 -255 -426 0
h -1732 256 0
h -1732 437 0
h 1732 -256 -437 0
h -1733 257 0
h -1733 448 0
h 1733 -257 -448 0
h -1734 258 0
h -1734 459 0
h 1734 -258 -459 0
h -1735 259 0
h -1735 470 0
h 1735 -259 -470 0
h -1736 260 0
h -1736 481 0
h 1736 -260 -481 0
h -1737 261 0
h -1737 492 0
h 1737 -261 -492 0
h -1738 262 0
h -1738 503 0
h 1738 -262 -503 0
h -1739 263 0
h -1739 514 0
h 1739 -263 -514 0
h -1740 264 0
h -1740 525 0
h 1740 -264 -525 0
h -1741 265 0
h -1741 536 0
h 1741 -265 -536 0
h -1742 266 0
h -1742 547 0
h 1742 -266 -547 0
h -1743 267 0
h -1743 558 0
h 1743 -267 -558 0
h -1744 268 0
h -1744 569 0
h 1744 -268 -569 0
h -1745 269 0
h -1745 580 0
h 1745 -269 -580 0
h -1746 270 0
h -1746 591 0
h 1746 -270 -591 0
h -1747 271 0
h -1747 602 0
h 1747 -271 -602 0
h -1748 272 0
h -1748 613 0
h 1748 -272 -613 0
h -1749 273 0
h -1749 624 0
h 1749 -273 -624 0
h -1750 274 0
h -1750 635 0
h 1750 -274 -635 0
h -1751 275 0
h -1751 646 0
h 1751 -275 -646 0
h -1752 276 0
h -1752 657 0
h 1752 -276 -657 0
h -1753 277 0
h -1753 668 0
h 1753 -277 -668 0
h -1754 278 0
h -1754 679 0
h 1754 -278 -679 0
h -1755 279 0
h -1755 690 0
h 1755 -279 -690 0
h -1756 280 0
h -1756 701 0
h 1756 -280 -701 0
h -1757 281 0
h -1757 712 0
h 1757 -281 -712 0
h -1758 282 0
h -1758 723 0
h 1758 -282 -723 0
h -1759 283 0
h -1759 734 0
h 1759 -283 -734 0
h -1760 284 0
h -1760 745 0
h 1760 -284 -745 0
h -1761 285 0
h -1761 756 0
h 1761 -285 -756 0
h -1762 286 0
h -1762 767 0
h 1762 -286 -767 0
h -1763 287 0
h -1763 778 0
h 1763 -287 -778 0
h -1764 288 0
h -1764 789 0
h 1764 -288 -789 0
h -253 -405 0
h -254 -416 0
h -255 -427 0
h -256 -438 0
h -257 -449 0
h -258 -460 0
h -259 -471 0
h -260 -482 0
h -261 -493 0
h -262 -504 0
h -263 -515 0
h -264 -526 0
h -265 -537 0
h -266 -548 0
h -267 -559 0
h -268 -570 0
h -269 -581 0
h -270 -592 0
h -271 -603 0
h -272 -614 0
h -273 -625 0
h -274 -636 0
h -275 -647 0
h -276 -658 0
h -277 -669 0
h -278 -680 0
h -279 -691 0
h -280 -702 0
h -281 -713 0
h -282 -724 0
h -283 -735 0
h -284 -746 0
h -285 -757 0
h -286 -768 0
h -287 -779 0
h -288 -790 0
h -253 -406 0
h -254 -417 0
h -255 -428 0
h -256 -439 0
h -257 -450 0
h -258 -461 0
h -259 -472 0
h -260 -483 0
h -261 -494 0
h -262 -505 0
h -263 -516 0
h -264 -527 0
h -265 -538 0
h -266 -549 0
h -267 -560 0
h -268 -571 0
h -269 -582 0
h -270 -593 0
h -271 -604 0
h -272 -615 0
h -273 -626 0
h -274 -637 0
h -275 -648 0
h -276 -659 0
h -277 -670 0
h -278 -681 0
h -279 -692 0
h -280 -703 0
h -281 -714 0
h -282 -725 0
h -283 -736 0
h -284 -747 0
h -285 -758 0
h -286 -769 0
h -287 -780 0
h -288 -791 0
h -253 -407 0
h -254 -418 0
h -255 -429 0
h -256 -440 0
h -257 -451 0
h -258 -462 0
h -259 -473 0
h -260 -484 0
h -261 -495 0
h -262 -506 0
h -263 -517 0
h -264 -528 0
h -265 -539 0
h -266 -550 0
h -267 -561 0
h -268 -572 0
h -269 -583 0
h -270 -594 0
h -271 -605 0
h -272 -616 0
h -273 -627 0
h -274 -638 0
h -275 -649 0
h -276 -660 0
h -277 -671 0
h -278 -682 0
h -279 -693 0
h -280 -704 0
h -281 -715 0
h -282 -726 0
h -283 -737 0
h -284 -748 0
h -285 -759 0
h -286 -770 0
h -287 -781 0
h -288 -792 0
h -289 -397 0
h -290 -408 0
h -291 -419 0
h -292 -430 0
h -293 -441 0
h -294 -452 0
h -295 -463 0
h -296 -474 0
h -297 -485 0
h -298 -496 0
h -299 -507 0
h -300 -518 0
h -301 -529 0
h -302 -540 0
h -303 -551 0
h -304 -562 0
h -305 -573 0
h -306 -584 0
h -307 -595 0
h -308 -606 0
h -309 -617 0
h -310 -628 0
h -311 -639 0
h -312 -650 0
h -313 -661 0
h -314 -672 0
h -315 -683 0
h -316 -694 0
h -317 -705 0
h -318 -716 0
h -319 -727 0
h -320 -738 0
h -321 -749 0
h -322 -760 0
h -323 -771 0
h -324 -782 0
h 1765 1766 1767 1768 1769 1770 1771 1772 1773 1774 1775 1776 1777 1778 1779 1780 1781 1782 1783 1784 1785 1786 1787 1788 1789 1790 1791 1792 1793 1794 1795 1796 1797 1798 1799 1800 0
h -1765 289 0
h -1765 398 0
h 1765 -289 -398 0
h -1766 290 0
h -1766 409 0
h 1766 -290 -409 0
h -1767 291 0
h -1767 420 0
h 1767 -291 -420 0
h -1768 292 0
h -1768 431 0
h 1768 -292 -431 0
h -1769 293 0
h -1769 442 0
h 1769 -293 -442 0
h -1770 294 0
h -1770 453 0
h 1770 -294 -453 0
h -1771 295 0
h -1771 464 0
h 1771 -295 -464 0
h -1772 296 0
h -1772 475 0
h 1772 -296 -475 0
h -1773 297 0
h -1773 486 0
h 1773 -297 -486 0
h -1774 298 0
h -1774 497 0
h 1774 -298 -497 0
h -1775 299 0
h -1775 508 0
h 1775 -299 -508 0
h -1776 300 0
h -1776 519 0
h 1776 -300 -519 0
h -1777 301 0
h -1777 530 0
h 1777 -301 -530 0
h -1778 302 0
h -1778 541 0
h 1778 -302 -541 0
h -1779 303 0
h -1779 552 0
h 1779 -303 -552 0
h -1780 304 0
h -1780 563 0
h 1780 -304 -563 0
h -1781 305 0
h -1781 574 0
h 1781 -305 -574 0
h -1782 306 0
h -1782 585 0
h 1782 -306 -585 0
h -1783 307 0
h -1783 596 0
h 1783 -307 -596 0
h -1784 308 0
h -1784 607 0
h 1784 -308 -607 0
h -1785 309 0
h -1785 618 0
h 1785 -309 -618 0
h -1786 310 0
h -1786 629 0
h 1786 -310 -629 0
h -1787 311 0
h -1787 640 0
h 1787 -311 -640 0
h -1788 312 0
h -1788 651 0
h 1788 -312 -651 0
h -1789 313 0
h -1789 662 0
h 1789 -313 -662 0
h -1790 314 0
h -1790 673 0
h 1790 -314 -673 0
h -1791 315 0
h -1791 684 0
h 1791 -315 -684 0
h -1792 316 0
h -1792 695 0
h 1792 -316 -695 0
h -1793 317 0
h -1793 706 0
h 1793 -317 -706 0
h -1794 318 0
h -1794 717 0
h 1794 -318 -717 0
h -1795 319 0
h -1795 728 0
h 1795 -319 -728 0
h -1796 320 0
h -1796 739 0
h 1796 -320 -739 0
h -1797 321 0
h -1797 750 0
h 1797 -321 -750 0
h -1798 322 0
h -1798 761 0
h 1798 -322 -761 0
h -1799 323 0
h -1799 772 0
h 1799 -323 -772 0
h -1800 324 0
h -1800 783 0
h 1800 -324 -783 0
h -289 -399 0
h -290 -410 0
h -291 -421 0
h -292 -432 0
h -293 -443 0
h -294 -454 0
h -295 -465 0
h -296 -476 0
h -297 -487 0
h -298 -498 0
h -299 -509 0
h -300 -520 0
h -301 -531 0
h -302 -542 0
h -303 -553 0
h -304 -564 0
h -305 -575 0
h -306 -586 0
h -307 -597 0
h -308 -608 0
h -309 -619 0
h -310 -630 0
h -311 -641 0
h -312 -652 0
h -313 -663 0
h -314 -674 0
h -315 -685 0
h -316 -696 0
h -317 -707 0
h -318 -718 0
h -319 -729 0
h -320 -740 0
h -321 -751 0
h -322 -762 0
h -323 -773 0
h -324 -784 0
h -289 -400 0
h -290 -411 0
h -291 -422 0
h -292 -433 0
h -293 -444 0
h -294 -455 0
h -295 -466 0
h -296 -477 0
h -297 -488 0
h -298 -499 0
h -299 -510 0
h -300 -521 0
h -301 -532 0
h -302 -543 0
h -303 -554 0
h -304 -565 0
h -305 -576 0
h -306 -587 0
h -307 -598 0
h -308 -609 0
h -309 -620 0
h -310 -631 0
h -311 -642 0
h -312 -653 0
h -313 -664 0
h -314 -675 0
h -315 -686 0
h -316 -697 0
h -317 -708 0
h -318 -719 0
h -319 -730 0
h -320 -741 0
h -321 -752 0
h -322 -763 0
h -323 -774 0
h -324 -785 0
h 1801 1802 1803 1804 1805 1806 1807 1808 1809 1810 1811 1812 1813 1814 1815 1816 1817 1818 1819 1820 1821 1822 1823 1824 1825 1826 1827 1828 1829 1830 1831 1832 1833 1834 1835 1836 0
h -1801 289 0
h -1801 401 0
h 1801 -289 -401 0
h -1802 290 0
h -1802 412 0
h 1802 -290 -412 0
h -1803 291 0
h -1803 423 0
h 1803 -291 -423 0
h -1804 292 0
h -1804 434 0
h 1804 -292 -434 0
h -1805 293 0
h -1805 445 0
h 1805 -293 -445 0
h -1806 294 0
h -1806 456 0
h 1806 -294 -456 0
h -1807 295 0
h -1807 467 0
h 1807 -295 -467 0
h -1808 296 0
h -1808 478 0
h 1808 -296 -478 0
h -1809 297 0
h -1809 489 0
h 1809 -297 -489 0
h -1810 298 0
h -1810 500 0
h 1810 -298 -500 0
h -1811 299 0
h -1811 511 0
h 1811 -299 -511 0
h -1812 300 0
h -1812 522 0
h 1812 -300 -522 0
h -1813 301 0
h -1813 533 0
h 1813 -301 -533 0
h -1814 302 0
h -1814 544 0
h 1814 -302 -544 0
h -1815 303 0
h -1815 555 0
h 1815 -303 -555 0
h -1816 304 0
h -1816 566 0
h 1816 -304 -566 0
h -1817 305 0
h -1817 577 0
h 1817 -305 -577 0
h -1818 306 0
h -1818 588 0
h 1818 -306 -588 0
h -1819 307 0
h -1819 599 0
h 1819 -307 -599 0
h -1820 308 0
h -1820 610 0
h 1820 -308 -610 0
h -1821 309 0
h -1821 621 0
h 1821 -309 -621 0
h -1822 310 0
h -1822 632 0
h 1822 -310 -632 0
h -1823 311 0
h -1823 643 0
h 1823 -311 -643 0
h -1824 312 0
h -1824 654 0
h 1824 -312 -654 0
h -1825 313 0
h -1825 665 0
h 1825 -313 -665 0
h -1826 314 0
h -1826 676 0
h 1826 -314 -676 0
h -1827 315 0
h -1827 687 0
h 1827 -315 -687 0
h -1828 316 0
h -1828 698 0
h 1828 -316 -698 0
h -1829 317 0
h -1829 709 0
h 1829 -317 -709 0
h -1830 318 0
h -1830 720 0
h 1830 -318 -720 0
h -1831 319 0
h -1831 731 0
h 1831 -319 -731 0
h -1832 320 0
h -1832 742 0
h 1832 -320 -742 0
h -1833 321 0
h -1833 753 0
h 1833 -321 -753 0
h -1834 322 0
h -1834 764 0
h 1834 -322 -764 0
h -1835 323 0
h -1835 775 0
h 1835 -323 -775 0
h -1836 324 0
h -1836 786 0
h 1836 -324 -786 0
h 1837 1838 1839 1840 1841 1842 1843 1844 1845 1846 1847 1848 1849 1850 1851 1852 1853 1854 1855 1856 1857 1858 1859 1860 1861 1862 1863 1864 1865 1866 1867 1868 1869 1870 1871 1872 0
h -1837 289 0
h -1837 402 0
h 1837 -289 -402 0
h -1838 290 0
h -1838 413 0
h 1838 -290 -413 0
h -1839 291 0
h -1839 424 0
h 1839 -291 -424 0
h -1840 292 0
h -1840 435 0
h 1840 -292 -435 0
h -1841 293 0
h -1841 446 0
h 1841 -293 -446 0
h -1842 294 0
h -1842 457 0
h 1842 -294 -457 0
h -1843 295 0
h -1843 468 0
h 1843 -295 -468 0
h -1844 296 0
h -1844 479 0
h 1844 -296 -479 0
h -1845 297 0
h -1845 490 0
h 1845 -297 -490 0
h -1846 298 0
h -1846 501 0
h 1846 -298 -501 0
h -1847 299 0
h -1847 512 0
h 1847 -299 -512 0
h -1848 300 0
h -1848 523 0
h 1848 -300 -523 0
h -1849 301 0
h -1849 534 0
h 1849 -301 -534 0
h -1850 302 0
h -1850 545 0
h 1850 -302 -545 0
h -1851 303 0
h -1851 556 0
h 1851 -303 -556 0
h -1852 304 0
h -1852 567 0
h 1852 -304 -567 0
h -1853 305 0
h -1853 578 0
h 1853 -305 -578 0
h -1854 306 0
h -1854 589 0
h 1854 -306 -589 0
h -1855 307 0
h -1855 600 0
h 1855 -307 -600 0
h -1856 308 0
h -1856 611 0
h 1856 -308 -611 0
h -1857 309 0
h -1857 622 0
h 1857 -309 -622 0
h -1858 310 0
h -1858 633 0
h 1858 -310 -633 0
h -1859 311 0
h -1859 644 0
h 1859 -311 -644 0
h -1860 312 0
h -1860 655 0
h 1860 -312 -655 0
h -1861 313 0
h -1861 666 0
h 1861 -313 -666 0
h -1862 314 0
h -1862 677 0
h 1862 -314 -677 0
h -1863 315 0
h -1863 688 0
h 1863 -315 -688 0
h -1864 316 0
h -1864 699 0
h 1864 -316 -699 0
h -1865 317 0
h -1865 710 0
h 1865 -317 -710 0
h -1866 318 0
h -1866 721 0
h 1866 -318 -721 0
h -1867 319 0
h -1867 732 0
h 1867 -319 -732 0
h -1868 320 0
h -1868 743 0
h 1868 -320 -743 0
h -1869 321 0
h -1869 754 0
h 1869 -321 -754 0
h -1870 322 0
h -1870 765 0
h 1870 -322 -765 0
h -1871 323 0
h -1871 776 0
h 1871 -323 -776 0
h -1872 324 0
h -1872 787 0
h 1872 -324 -787 0
h -289 -403 0
h -290 -414 0
h -291 -425 0
h -292 -436 0
h -293 -447 0
h -294 -458 0
h -295 -469 0
h -296 -480 0
h -297 -491 0
h -298 -502 0
h -299 -513 0
h -300 -524 0
h -301 -535 0
h -302 -546 0
h -303 -557 0
h -304 -568 0
h -305 -579 0
h -306 -590 0
h -307 -601 0
h -308 -612 0
h -309 -623 0
h -310 -634 0
h -311 -645 0
h -312 -656 0
h -313 -667 0
h -314 -678 0
h -315 -689 0
h -316 -700 0
h -317 -711 0
h -318 -722 0
h -319 -733 0
h -320 -744 0
h -321 -755 0
h -322 -766 0
h -323 -777 0
h -324 -788 0
h -289 -404 0
h -290 -415 0
h -291 -426 0
h -292 -437 0
h -293 -448 0
h -294 -459 0
h -295 -470 0
h -296 -481 0
h -297 -492 0
h -298 -503 0
h -299 -514 0
h -300 -525 0
h -301 -536 0
h -302 -547 0
h -303 -558 0
h -304 -569 0
h -305 -580 0
h -306 -591 0
h -307 -602 0
h -308 -613 0
h -309 -624 0
h -310 -635 0
h -311 -646 0
h -312 -657 0
h -313 -668 0
h -314 -679 0
h -315 -690 0
h -316 -701 0
h -317 -712 0
h -318 -723 0
h -319 -734 0
h -320 -745 0
h -321 -756 0
h -322 -767 0
h -323 -778 0
h -324 -789 0
h 1873 1874 1875 1876 1877 1878 1879 1880 1881 1882 1883 1884 1885 1886 1887 1888 1889 1890 1891 1892 1893 1894 1895 1896 1897 1898 1899 1900 1901 1902 1903 1904 1905 1906 1907 1908 0
h -1873 289 0
h -1873 405 0
h 1873 -289 -405 0
h -1874 290 0
h -1874 416 0
h 1874 -290 -416 0
h -1875 291 0
h -1875 427 0
h 1875 -291 -427 0
h -1876 292 0
h -1876 438 0
h 1876 -292 -438 0
h -1877 293 0
h -1877 449 0
h 1877 -293 -449 0
h -1878 294 0
h -1878 460 0
h 1878 -294 -460 0
h -1879 295 0
h -1879 471 0
h 1879 -295 -471 0
h -1880 296 0
h -1880 482 0
h 1880 -296 -482 0
h -1881 297 0
h -1881 493 0
h 1881 -297 -493 0
h -1882 298 0
h -1882 504 0
h 1882 -298 -504 0
h -1883 299 0
h -1883 515 0
h 1883 -299 -515 0
h -1884 300 0
h -1884 526 0
h 1884 -300 -526 0
h -1885 301 0
h -1885 537 0
h 1885 -301 -537 0
h -1886 302 0
h -1886 548 0
h 1886 -302 -548 0
h -1887 303 0
h -1887 559 0
h 1887 -303 -559 0
h -1888 304 0
h -1888 570 0
h 1888 -304 -570 0
h -1889 305 0
h -1889 581 0
h 1889 -305 -581 0
h -1890 306 0
h -1890 592 0
h 1890 -306 -592 0
h -1891 307 0
h -1891 603 0
h 1891 -307 -603 0
h -1892 308 0
h -1892 614 0
h 1892 -308 -614 0
h -1893 309 0
h -1893 625 0
h 1893 -309 -625 0
h -1894 310 0
h -1894 636 0
h 1894 -310 -636 0
h -1895 311 0
h -1895 647 0
h 1895 -311 -647 0
h -1896 312 0
h -1896 658 0
h 1896 -312 -658 0
h -1897 313 0
h -1897 669 0
h 1897 -313 -669 0
h -1898 314 0
h -1898 680 0
h 1898 -314 -680 0
h -1899 315 0
h -1899 691 0
h 1899 -315 -691 0
h -1900 316 0
h -1900 702 0
h 1900 -316 -702 0
h -1901 317 0
h -1901 713 0
h 1901 -317 -713 0
h -1902 318 0
h -1902 724 0
h 1902 -318 -724 0
h -1903 319 0
h -1903 735 0
h 1903 -319 -735 0
h -1904 320 0
h -1904 746 0
h 1904 -320 -746 0
h -1905 321 0
h -1905 757 0
h 1905 -321 -757 0
h -1906 322 0
h -1906 768 0
h 1906 -322 -768 0
h -1907 323 0
h -1907 779 0
h 1907 -323 -779 0
h -1908 324 0
h -1908 790 0
h 1908 -324 -790 0
h -289 -406 0
h -290 -417 0
h -291 -428 0
h -292 -439 0
h -293 -450 0
h -294 -461 0
h -295 -472 0
h -296 -483 0
h -297 -494 0
h -298 -505 0
h -299 -516 0
h -300 -527 0
h -301 -538 0
h -302 -549 0
h -303 -560 0
h -304 -571 0
h -305 -582 0
h -306 -593 0
h -307 -604 0
h -308 -615 0
h -309 -626 0
h -310 -637 0
h -311 -648 0
h -312 -659 0
h -313 -670 0
h -314 -681 0
h -315 -692 0
h -316 -703 0
h -317 -714 0
h -318 -725 0
h -319 -736 0
h -320 -747 0
h -321 -758 0
h -322 -769 0
h -323 -780 0
h -324 -791 0
h -289 -407 0
h -290 -418 0
h -291 -429 0
h -292 -440 0
h -293 -451 0
h -294 -462 0
h -295 -473 0
h -296 -484 0
h -297 -495 0
h -298 -506 0
h -299 -517 0
h -300 -528 0
h -301 -539 0
h -302 -550 0
h -303 -561 0
h -304 -572 0
h -305 -583 0
h -306 -594 0
h -307 -605 0
h -308 -616 0
h -309 -627 0
h -310 -638 0
h -311 -649 0
h -312 -660 0
h -313 -671 0
h -314 -682 0
h -315 -693 0
h -316 -704 0
h -317 -715 0
h -318 -726 0
h -319 -737 0
h -320 -748 0
h -321 -759 0
h -322 -770 0
h -323 -781 0
h -324 -792 0
h 1909 1910 1911 1912 1913 1914 1915 1916 1917 1918 1919 1920 1921 1922 1923 1924 1925 1926 1927 1928 1929 1930 1931 1932 1933 1934 1935 1936 1937 1938 1939 1940 1941 1942 1943 1944 0
h -1909 325 0
h -1909 397 0
h 1909 -325 -397 0
h -1910 326 0
h -1910 408 0
h 1910 -326 -408 0
h -1911 327 0
h -1911 419 0
h 1911 -327 -419 0
h -1912 328 0
h -1912 430 0
h 1912 -328 -430 0
h -1913 329 0
h -1913 441 0
h 1913 -329 -441 0
h -1914 330 0
h -1914 452 0
h 1914 -330 -452 0
h -1915 331 0
h -1915 463 0
h 1915 -331 -463 0
h -1916 332 0
h -1916 474 0
h 1916 -332 -474 0
h -1917 333 0
h -1917 485 0
h 1917 -333 -485 0
h -1918 334 0
h -1918 496 0
h 1918 -334 -496 0
h -1919 335 0
h -1919 507 0
h 1919 -335 -507 0
h -1920 336 0
h -1920 518 0
h 1920 -336 -518 0
h -1921 337 0
h -1921 529 0
h 1921 -337 -529 0
h -1922 338 0
h -1922 540 0
h 1922 -338 -540 0
h -1923 339 0
h -1923 551 0
h 1923 -339 -551 0
h -1924 340 0
h -1924 562 0
h 1924 -340 -562 0
h -1925 341 0
h -1925 573 0
h 1925 -341 -573 0
h -1926 342 0
h -1926 584 0
h 1926 -342 -584 0
h -1927 343 0
h -1927 595 0
h 1927 -343 -595 0
h -1928 344 0
h -1928 606 0
h 1928 -344 -606 0
h -1929 345 0
h -1929 617 0
h 1929 -345 -617 0
h -1930 346 0
h -1930 628 0
h 1930 -346 -628 0
h -1931 347 0
h -1931 639 0
h 1931 -347 -639 0
h -1932 348 0
h -1932 650 0
h 1932 -348 -650 0
h -1933 349 0
h -1933 661 0
h 1933 -349 -661 0
h -1934 350 0
h -1934 672 0
h 1934 -350 -672 0
h -1935 351 0
h -1935 683 0
h 1935 -351 -683 0
h -1936 352 0
h -1936 694 0
h 1936 -352 -694 0
h -1937 353 0
h -1937 705 0
h 1937 -353 -705 0
h -1938 354 0
h -1938 716 0
h 1938 -354 -716 0
h -1939 355 0
h -1939 727 0
h 1939 -355 -727 0
h -1940 356 0
h -1940 738 0
h 1940 -356 -738 0
h -1941 357 0
h -1941 749 0
h 1941 -357 -749 0
h -1942 358 0
h -1942 760 0
h 1942 -358 -760 0
h -1943 359 0
h -1943 771 0
h 1943 -359 -771 0
h -1944 360 0
h -1944 782 0
h 1944 -360 -782 0
h 1945 1946 1947 1948 1949 1950 1951 1952 1953 1954 1955 1956 1957 1958 1959 1960 1961 1962 1963 1964 1965 1966 1967 1968 1969 1970 1971 1972 1973 1974 1975 1976 1977 1978 1979 1980 0
h -1945 325 0
h -1945 398 0
h 1945 -325 -398 0
h -1946 326 0
h -1946 409 0
h 1946 -326 -409 0
h -1947 327 0
h -1947 420 0
h 1947 -327 -420 0
h -1948 328 0
h -1948 431 0
h 1948 -328 -431 0
h -1949 329 0
h -1949 442 0
h 1949 -329 -442 0
h -1950 330 0
h -1950 453 0
h 1950 -330 -453 0
h -1951 331 0
h -1951 464 0
h 1951 -331 -464 0
h -1952 332 0
h -1952 475 0
h 1952 -332 -475 0
h -1953 333 0
h -1953 486 0
h 1953 -333 -486 0
h -1954 334 0
h -1954 497 0
h 1954 -334 -497 0
h -1955 335 0
h -1955 508 0
h 1955 -335 -508 0
h -1956 336 0
h -1956 519 0
h 1956 -336 -519 0
h -1957 337 0
h -1957 530 0
h 1957 -337 -530 0
h -1958 338 0
h -1958 541 0
h 1958 -338 -541 0
h -1959 339 0
h -1959 552 0
h 1959 -339 -552 0
h -1960 340 0
h -1960 563 0
h 1960 -340 -563 0
h -1961 341 0
h -1961 574 0
h 1961 -341 -574 0
h -1962 342 0
h -1962 585 0
h 1962 -342 -585 0
h -1963 343 0
h -1963 596 0
h 1963 -343 -596 0
h -1964 344 0
h -1964 607 0
h 1964 -344 -607 0
h -1965 345 0
h -1965 618 0
h 1965 -345 -618 0
h -1966 346 0
h -1966 629 0
h 1966 -346 -629 0
h -1967 347 0
h -1967 640 0
h 1967 -347 -640 0
h -1968 348 0
h -1968 651 0
h 1968 -348 -651 0
h -1969 349 0
h -1969 662 0
h 1969 -349 -662 0
h -1970 350 0
h -1970 673 0
h 1970 -350 -673 0
h -1971 351 0
h -1971 684 0
h 1971 -351 -684 0
h -1972 352 0
h -1972 695 0
h 1972 -352 -695 0
h -1973 353 0
h -1973 706 0
h 1973 -353 -706 0
h -1974 354 0
h -1974 717 0
h 1974 -354 -717 0
h -1975 355 0
h -1975 728 0
h 1975 -355 -728 0
h -1976 356 0
h -1976 739 0
h 1976 -356 -739 0
h -1977 357 0
h -1977 750 0
h 1977 -357 -750 0
h -1978 358 0
h -1978 761 0
h 1978 -358 -761 0
h -1979 359 0
h -1979 772 0
h 1979 -359 -772 0
h -1980 360 0
h -1980 783 0
h 1980 -360 -783 0
h -325 -399 0
h -326 -410 0
h -327 -421 0
h -328 -432 0
h -329 -443 0
h -330 -454 0
h -331 -465 0
h -332 -476 0
h -333 -487 0
h -334 -498 0
h -335 -509 0
h -336 -520 0
h -337 -531 0
h -338 -542 0
h -339 -553 0
h -340 -564 0
h -341 -575 0
h -342 -586 0
h -343 -597 0
h -344 -608 0
h -345 -619 0
h -346 -630 0
h -347 -641 0
h -348 -652 0
h -349 -663 0
h -350 -674 0
h -351 -685 0
h -352 -696 0
h -353 -707 0
h -354 -718 0
h -355 -729 0
h -356 -740 0
h -357 -751 0
h -358 -762 0
h -359 -773 0
h -360 -784 0
h 1981 1982 1983 1984 1985 1986 1987 1988 1989 1990 1991 1992 1993 1994 1995 1996 1997 1998 1999 2000 2001 2002 2003 2004 2005 2006 2007 2008 2009 2010 2011 2012 2013 2014 2015 2016 0
h -1981 325 0
h -1981 400 0
h 1981 -325 -400 0
h -1982 326 0
h -1982 411 0
h 1982 -326 -411 0
h -1983 327 0
h -1983 422 0
h 1983 -327 -422 0
h -1984 328 0
h -1984 433 0
h 1984 -328 -433 0
h -1985 329 0
h -1985 444 0
h 1985 -329 -444 0
h -1986 330 0
h -1986 455 0
h 1986 -330 -455 0
h -1987 331 0
h -1987 466 0
h 1987 -331 -466 0
h -1988 332 0
h -1988 477 0
h 1988 -332 -477 0
h -1989 333 0
h -1989 488 0
h 1989 -333 -488 0
h -1990 334 0
h -1990 499 0
h 1990 -334 -499 0
h -1991 335 0
h -1991 510 0
h 1991 -335 -510 0
h -1992 336 0
h -1992 521 0
h 1992 -336 -521 0
h -1993 337 0
h -1993 532 0
h 1993 -337 -532 0
h -1994 338 0
h -1994 543 0
h 1994 -338 -543 0
h -1995 339 0
h -1995 554 0
h 1995 -339 -554 0
h -1996 340 0
h -1996 565 0
h 1996 -340 -565 0
h -1997 341 0
h -1997 576 0
h 1997 -341 -576 0
h -1998 342 0
h -1998 587 0
h 1998 -342 -587 0
h -1999 343 0
h -1999 598 0
h 1999 -343 -598 0
h -2000 344 0
h -2000 609 0
h 2000 -344 -609 0
h -2001 345 0
h -2001 620 0
h 2001 -345 -620 0
h -2002 346 0
h -2002 631 0
h 2002 -346 -631 0
h -2003 347 0
h -2003 642 0
h 2003 -347 -642 0
h -2004 348 0
h -2004 653 0
h 2004 -348 -653 0
h -2005 349 0
h -2005 664 0
h 2005 -349 -664 0
h -2006 350 0
h -2006 675 0
h 2006 -350 -675 0
h -2007 351 0
h -2007 686 0
h 2007 -351 -686 0
h -2008 352 0
h -2008 697 0
h 2008 -352 -697 0
h -2009 353 0
h -2009 708 0
h 2009 -353 -708 0
h -2010 354 0
h -2010 719 0
h 2010 -354 -719 0
h -2011 355 0
h -2011 730 0
h 2011 -355 -730 0
h -2012 356 0
h -2012 741 0
h 2012 -356 -741 0
h -2013 357 0
h -2013 752 0
h 2013 -357 -752 0
h -2014 358 0
h -2014 763 0
h 2014 -358 -763 0
h -2015 359 0
h -2015 774 0
h 2015 -359 -774 0
h -2016 360 0
h -2016 785 0
h 2016 -360 -785 0
h -325 -401 0
h -326 -412 0
h -327 -423 0
h -328 -434 0
h -329 -445 0
h -330 -456 0
h -331 -467 0
h -332 -478 0
h -333 -489 0
h -334 -500 0
h -335 -511 0
h -336 -522 0
h -337 -533 0
h -338 -544 0
h -339 -555 0
h -340 -566 0
h -341 -577 0
h -342 -588 0
h -343 -599 0
h -344 -610 0
h -345 -621 0
h -346 -632 0
h -347 -643 0
h -348 -654 0
h -349 -665 0
h -350 -676 0
h -351 -687 0
h -352 -698 0
h -353 -709 0
h -354 -720 0
h -355 -731 0
h -356 -742 0
h -357 -753 0
h -358 -764 0
h -359 -775 0
h -360 -786 0
h -325 -402 0
h -326 -413 0
h -327 -424 0
h -328 -435 0
h -329 -446 0
h -330 -457 0
h -331 -468 0
h -332 -479 0
h -333 -490 0
h -334 -501 0
h -335 -512 0
h -336 -523 0
h -337 -534 0
h -338 -545 0
h -339 -556 0
h -340 -567 0
h -341 -578 0
h -342 -589 0
h -343 -600 0
h -344 -611 0
h -345 -622 0
h -346 -633 0
h -347 -644 0
h -348 -655 0
h -349 -666 0
h -350 -677 0
h -351 -688 0
h -352 -699 0
h -353 -710 0
h -354 -721 0
h -355 -732 0
h -356 -743 0
h -357 -754 0
h -358 -765 0
h -359 -776 0
h -360 -787 0
h -325 -403 0
h -326 -414 0
h -327 -425 0
h -328 -436 0
h -329 -447 0
h -330 -458 0
h -331 -469 0
h -332 -480 0
h -333 -491 0
h -334 -502 0
h -335 -513 0
h -336 -524 0
h -337 -535 0
h -338 -546 0
h -339 -557 0
h -340 -568 0
h -341 -579 0
h -342 -590 0
h -343 -601 0
h -344 -612 0
h -345 -623 0
h -346 -634 0
h -347 -645 0
h -348 -656 0
h -349 -667 0
h -350 -678 0
h -351 -689 0
h -352 -700 0
h -353 -711 0
h -354 -722 0
h -355 -733 0
h -356 -744 0
h -357 -755 0
h -358 -766 0
h -359 -777 0
h -360 -788 0
h -325 -404 0
h -326 -415 0
h -327 -426 0
h -328 -437 0
h -329 -448 0
h -330 -459 0
h -331 -470 0
h -332 -481 0
h -333 -492 0
h -334 -503 0
h -335 -514 0
h -336 -525 0
h -337 -536 0
h -338 -547 0
h -339 -558 0
h -340 -569 0
h -341 -580 0
h -342 -591 0
h -343 -602 0
h -344 -613 0
h -345 -624 0
h -346 -635 0
h -347 -646 0
h -348 -657 0
h -349 -668 0
h -350 -679 0
h -351 -690 0
h -352 -701 0
h -353 -712 0
h -354 -723 0
h -355 -734 0
h -356 -745 0
h -357 -756 0
h -358 -767 0
h -359 -778 0
h -360 -789 0
h -325 -405 0
h -326 -416 0
h -327 -427 0
h -328 -438 0
h -329 -449 0
h -330 -460 0
h -331 -471 0
h -332 -482 0
h -333 -493 0
h -334 -504 0
h -335 -515 0
h -336 -526 0
h -337 -537 0
h -338 -548 0
h -339 -559 0
h -340 -570 0
h -341 -581 0
h -342 -592 0
h -343 -603 0
h -344 -614 0
h -345 -625 0
h -346 -636 0
h -347 -647 0
h -348 -658 0
h -349 -669 0
h -350 -680 0
h -351 -691 0
h -352 -702 0
h -353 -713 0
h -354 -724 0
h -355 -735 0
h -356 -746 0
h -357 -757 0
h -358 -768 0
h -359 -779 0
h -360 -790 0
h 2017 2018 2019 2020 2021 2022 2023 2024 2025 2026 2027 2028 2029 2030 2031 2032 2033 2034 2035 2036 2037 2038 2039 2040 2041 2042 2043 2044 2045 2046 2047 2048 2049 2050 2051 2052 0
h -2017 325 0
h -2017 406 0
h 2017 -325 -406 0
h -2018 326 0
h -2018 417 0
h 2018 -326 -417 0
h -2019 327 0
h -2019 428 0
h 2019 -327 -428 0
h -2020 328 0
h -2020 439 0
h 2020 -328 -439 0
h -2021 329 0
h -2021 450 0
h 2021 -329 -450 0
h -2022 330 0
h -2022 461 0
h 2022 -330 -461 0
h -2023 331 0
h -2023 472 0
h 2023 -331 -472 0
h -2024 332 0
h -2024 483 0
h 2024 -332 -483 0
h -2025 333 0
h -2025 494 0
h 2025 -333 -494 0
h -2026 334 0
h -2026 505 0
h 2026 -334 -505 0
h -2027 335 0
h -2027 516 0
h 2027 -335 -516 0
h -2028 336 0
h -2028 527 0
h 2028 -336 -527 0
h -2029 337 0
h -2029 538 0
h 2029 -337 -538 0
h -2030 338 0
h -2030 549 0
h 2030 -338 -549 0
h -2031 339 0
h -2031 560 0
h 2031 -339 -560 0
h -2032 340 0
h -2032 571 0
h 2032 -340 -571 0
h -2033 341 0
h -2033 582 0
h 2033 -341 -582 0
h -2034 342 0
h -2034 593 0
h 2034 -342 -593 0
h -2035 343 0
h -2035 604 0
h 2035 -343 -604 0
h -2036 344 0
h -2036 615 0
h 2036 -344 -615 0
h -2037 345 0
h -2037 626 0
h 2037 -345 -626 0
h -2038 346 0
h -2038 637 0
h 2038 -346 -637 0
h -2039 347 0
h -2039 648 0
h 2039 -347 -648 0
h -2040 348 0
h -2040 659 0
h 2040 -348 -659 0
h -2041 349 0
h -2041 670 0
h 2041 -349 -670 0
h -2042 350 0
h -2042 681 0
h 2042 -350 -681 0
h -2043 351 0
h -2043 692 0
h 2043 -351 -692 0
h -2044 352 0
h -2044 703 0
h 2044 -352 -703 0
h -2045 353 0
h -2045 714 0
h 2045 -353 -714 0
h -2046 354 0
h -2046 725 0
h 2046 -354 -725 0
h -2047 355 0
h -2047 736 0
h 2047 -355 -736 0
h -2048 356 0
h -2048 747 0
h 2048 -356 -747 0
h -2049 357 0
h -2049 758 0
h 2049 -357 -758 0
h -2050 358 0
h -2050 769 0
h 2050 -358 -769 0
h -2051 359 0
h -2051 780 0
h 2051 -359 -780 0
h -2052 360 0
h -2052 791 0
h 2052 -360 -791 0
h -325 -407 0
h -326 -418 0
h -327 -429 0
h -328 -440 0
h -329 -451 0
h -330 -462 0
h -331 -473 0
h -332 -484 0
h -333 -495 0
h -334 -506 0
h -335 -517 0
h -336 -528 0
h -337 -539 0
h -338 -550 0
h -339 -561 0
h -340 -572 0
h -341 -583 0
h -342 -594 0
h -343 -605 0
h -344 -616 0
h -345 -627 0
h -346 -638 0
h -347 -649 0
h -348 -660 0
h -349 -671 0
h -350 -682 0
h -351 -693 0
h -352 -704 0
h -353 -715 0
h -354 -726 0
h -355 -737 0
h -356 -748 0
h -357 -759 0
h -358 -770 0
h -359 -781 0
h -360 -792 0
h 2053 2054 2055 2056 2057 2058 2059 2060 2061 2062 2063 2064 2065 2066 2067 2068 2069 2070 2071 2072 2073 2074 2075 2076 2077 2078 2079 2080 2081 2082 2083 2084 2085 2086 2087 2088 0
h -2053 361 0
h -2053 397 0
h 2053 -361 -397 0
h -2054 362 0
h -2054 408 0
h 2054 -362 -408 0
h -2055 363 0
h -2055 419 0
h 2055 -363 -419 0
h -2056 364 0
h -2056 430 0
h 2056 -364 -430 0
h -2057 365 0
h -2057 441 0
h 2057 -365 -441 0
h -2058 366 0
h -2058 452 0
h 2058 -366 -452 0
h -2059 367 0
h -2059 463 0
h 2059 -367 -463 0
h -2060 368 0
h -2060 474 0
h 2060 -368 -474 0
h -2061 369 0
h -2061 485 0
h 2061 -369 -485 0
h -2062 370 0
h -2062 496 0
h 2062 -370 -496 0
h -2063 371 0
h -2063 507 0
h 2063 -371 -507 0
h -2064 372 0
h -2064 518 0
h 2064 -372 -518 0
h -2065 373 0
h -2065 529 0
h 2065 -373 -529 0
h -2066 374 0
h -2066 540 0
h 2066 -374 -540 0
h -2067 375 0
h -2067 551 0
h 2067 -375 -551 0
h -2068 376 0
h -2068 562 0
h 2068 -376 -562 0
h -2069 377 0
h -2069 573 0
h 2069 -377 -573 0
h -2070 378 0
h -2070 584 0
h 2070 -378 -584 0
h -2071 379 0
h -2071 595 0
h 2071 -379 -595 0
h -2072 380 0
h -2072 606 0
h 2072 -380 -606 0
h -2073 381 0
h -2073 617 0
h 2073 -381 -617 0
h -2074 382 0
h -2074 628 0
h 2074 -382 -628 0
h -2075 383 0
h -2075 639 0
h 2075 -383 -639 0
h -2076 384 0
h -2076 650 0
h 2076 -384 -650 0
h -2077 385 0
h -2077 661 0
h 2077 -385 -661 0
h -2078 386 0
h -2078 672 0
h 2078 -386 -672 0
h -2079 387 0
h -2079 683 0
h 2079 -387 -683 0
h -2080 388 0
h -2080 694 0
h 2080 -388 -694 0
h -2081 389 0
h -2081 705 0
h 2081 -389 -705 0
h -2082 390 0
h -2082 716 0
h 2082 -390 -716 0
h -2083 391 0
h -2083 727 0
h 2083 -391 -727 0
h -2084 392 0
h -2084 738 0
h 2084 -392 -738 0
h -2085 393 0
h -2085 749 0
h 2085 -393 -749 0
h -2086 394 0
h -2086 760 0
h 2086 -394 -760 0
h -2087 395 0
h -2087 771 0
h 2087 -395 -771 0
h -2088 396 0
h -2088 782 0
h 2088 -396 -782 0
h 2089 2090 2091 2092 2093 2094 2095 2096 2097 2098 2099 2100 2101 2102 2103 2104 2105 2106 2107 2108 2109 2110 2111 2112 2113 2114 2115 2116 2117 2118 2119 2120 2121 2122 2123 2124 0
h -2089 361 0
h -2089 398 0
h 2089 -361 -398 0
h -2090 362 0
h -2090 409 0
h 2090 -362 -409 0
h -2091 363 0
h -2091 420 0
h 2091 -363 -420 0
h -2092 364 0
h -2092 431 0
h 2092 -364 -431 0
h -2093 365 0
h -2093 442 0
h 2093 -365 -442 0
h -2094 366 0
h -2094 453 0
h 2094 -366 -453 0
h -2095 367 0
h -2095 464 0
h 2095 -367 -464 0
h -2096 368 0
h -2096 475 0
h 2096 -368 -475 0
h -2097 369 0
h -2097 486 0
h 2097 -369 -486 0
h -2098 370 0
h -2098 497 0
h 2098 -370 -497 0
h -2099 371 0
h -2099 508 0
h 2099 -371 -508 0
h -2100 372 0
h -2100 519 0
h 2100 -372 -519 0
h -2101 373 0
h -2101 530 0
h 2101 -373 -530 0
h -2102 374 0
h -2102 541 0
h 2102 -374 -541 0
h -2103 375 0
h -2103 552 0
h 2103 -375 -552 0
h -2104 376 0
h -2104 563 0
h 2104 -376 -563 0
h -2105 377 0
h -2105 574 0
h 2105 -377 -574 0
h -2106 378 0
h -2106 585 0
h 2106 -378 -585 0
h -2107 379 0
h -2107 596 0
h 2107 -379 -596 0
h -2108 380 0
h -2108 607 0
h 2108 -380 -607 0
h -2109 381 0
h -2109 618 0
h 2109 -381 -618 0
h -2110 382 0
h -2110 629 0
h 2110 -382 -629 0
h -2111 383 0
h -2111 640 0
h 2111 -383 -640 0
h -2112 384 0
h -2112 651 0
h 2112 -384 -651 0
h -2113 385 0
h -2113 662 0
h 2113 -385 -662 0
h -2114 386 0
h -2114 673 0
h 2114 -386 -673 0
h -2115 387 0
h -2115 684 0
h 2115 -387 -684 0
h -2116 388 0
h -2116 695 0
h 2116 -388 -695 0
h -2117 389 0
h -2117 706 0
h 2117 -389 -706 0
h -2118 390 0
h -2118 717 0
h 2118 -390 -717 0
h -2119 391 0
h -2119 728 0
h 2119 -391 -728 0
h -2120 392 0
h -2120 739 0
h 2120 -392 -739 0
h -2121 393 0
h -2121 750 0
h 2121 -393 -750 0
h -2122 394 0
h -2122 761 0
h 2122 -394 -761 0
h -2123 395 0
h -2123 772 0
h 2123 -395 -772 0
h -2124 396 0
h -2124 783 0
h 2124 -396 -783 0
h -361 -399 0
h -362 -410 0
h -363 -421 0
h -364 -432 0
h -365 -443 0
h -366 -454 0
h -367 -465 0
h -368 -476 0
h -369 -487 0
h -370 -498 0
h -371 -509 0
h -372 -520 0
h -373 -531 0
h -374 -542 0
h -375 -553 0
h -376 -564 0
h -377 -575 0
h -378 -586 0
h -379 -597 0
h -380 -608 0
h -381 -619 0
h -382 -630 0
h -383 -641 0
h -384 -652 0
h -385 -663 0
h -386 -674 0
h -387 -685 0
h -388 -696 0
h -389 -707 0
h -390 -718 0
h -391 -729 0
h -392 -740 0
h -393 -751 0
h -394 -762 0
h -395 -773 0
h -396 -784 0
h 2125 2126 2127 2128 2129 2130 2131 2132 2133 2134 2135 2136 2137 2138 2139 2140 2141 2142 2143 2144 2145 2146 2147 2148 2149 2150 2151 2152 2153 2154 2155 2156 2157 2158 2159 2160 0
h -2125 361 0
h -2125 400 0
h 2125 -361 -400 0
h -2126 362 0
h -2126 411 0
h 2126 -362 -411 0
h -2127 363 0
h -2127 422 0
h 2127 -363 -422 0
h -2128 364 0
h -2128 433 0
h 2128 -364 -433 0
h -2129 365 0
h -2129 444 0
h 2129 -365 -444 0
h -2130 366 0
h -2130 455 0
h 2130 -366 -455 0
h -2131 367 0
h -2131 466 0
h 2131 -367 -466 0
h -2132 368 0
h -2132 477 0
h 2132 -368 -477 0
h -2133 369 0
h -2133 488 0
h 2133 -369 -488 0
h -2134 370 0
h -2134 499 0
h 2134 -370 -499 0
h -2135 371 0
h -2135 510 0
h 2135 -371 -510 0
h -2136 372 0
h -2136 521 0
h 2136 -372 -521 0
h -2137 373 0
h -2137 532 0
h 2137 -373 -532 0
h -2138 374 0
h -2138 543 0
h 2138 -374 -543 0
h -2139 375 0
h -2139 554 0
h 2139 -375 -554 0
h -2140 376 0
h -2140 565 0
h 2140 -376 -565 0
h -2141 377 0
h -2141 576 0
h 2141 -377 -576 0
h -2142 378 0
h -2142 587 0
h 2142 -378 -587 0
h -2143 379 0
h -2143 598 0
h 2143 -379 -598 0
h -2144 380 0
h -2144 609 0
h 2144 -380 -609 0
h -2145 381 0
h -2145 620 0
h 2145 -381 -620 0
h -2146 382 0
h -2146 631 0
h 2146 -382 -631 0
h -2147 383 0
h -2147 642 0
h 2147 -383 -642 0
h -2148 384 0
h -2148 653 0
h 2148 -384 -653 0
h -2149 385 0
h -2149 664 0
h 2149 -385 -664 0
h -2150 386 0
h -2150 675 0
h 2150 -386 -675 0
h -2151 387 0
h -2151 686 0
h 2151 -387 -686 0
h -2152 388 0
h -2152 697 0
h 2152 -388 -697 0
h -2153 389 0
h -2153 708 0
h 2153 -389 -708 0
h -2154 390 0
h -2154 719 0
h 2154 -390 -719 0
h -2155 391 0
h -2155 730 0
h 2155 -391 -730 0
h -2156 392 0
h -2156 741 0
h 2156 -392 -741 0
h -2157 393 0
h -2157 752 0
h 2157 -393 -752 0
h -2158 394 0
h -2158 763 0
h 2158 -394 -763 0
h -2159 395 0
h -2159 774 0
h 2159 -395 -774 0
h -2160 396 0
h -2160 785 0
h 2160 -396 -785 0
h -361 -401 0
h -362 -412 0
h -363 -423 0
h -364 -434 0
h -365 -445 0
h -366 -456 0
h -367 -467 0
h -368 -478 0
h -369 -489 0
h -370 -500 0
h -371 -511 0
h -372 -522 0
h -373 -533 0
h -374 -544 0
h -375 -555 0
h -376 -566 0
h -377 -577 0
h -378 -588 0
h -379 -599 0
h -380 -610 0
h -381 -621 0
h -382 -632 0
h -383 -643 0
h -384 -654 0
h -385 -665 0
h -386 -676 0
h -387 -687 0
h -388 -698 0
h -389 -709 0
h -390 -720 0
h -391 -731 0
h -392 -742 0
h -393 -753 0
h -394 -764 0
h -395 -775 0
h -396 -786 0
h -361 -402 0
h -362 -413 0
h -363 -424 0
h -364 -435 0
h -365 -446 0
h -366 -457 0
h -367 -468 0
h -368 -479 0
h -369 -490 0
h -370 -501 0
h -371 -512 0
h -372 -523 0
h -373 -534 0
h -374 -545 0
h -375 -556 0
h -376 -567 0
h -377 -578 0
h -378 -589 0
h -379 -600 0
h -380 -611 0
h -381 -622 0
h -382 -633 0
h -383 -644 0
h -384 -655 0
h -385 -666 0
h -386 -677 0
h -387 -688 0
h -388 -699 0
h -389 -710 0
h -390 -721 0
h -391 -732 0
h -392 -743 0
h -393 -754 0
h -394 -765 0
h -395 -776 0
h -396 -787 0
h -361 -403 0
h -362 -414 0
h -363 -425 0
h -364 -436 0
h -365 -447 0
h -366 -458 0
h -367 -469 0
h -368 -480 0
h -369 -491 0
h -370 -502 0
h -371 -513 0
h -372 -524 0
h -373 -535 0
h -374 -546 0
h -375 -557 0
h -376 -568 0
h -377 -579 0
h -378 -590 0
h -379 -601 0
h -380 -612 0
h -381 -623 0
h -382 -634 0
h -383 -645 0
h -384 -656 0
h -385 -667 0
h -386 -678 0
h -387 -689 0
h -388 -700 0
h -389 -711 0
h -390 -722 0
h -391 -733 0
h -392 -744 0
h -393 -755 0
h -394 -766 0
h -395 -777 0
h -396 -788 0
h -361 -404 0
h -362 -415 0
h -363 -426 0
h -364 -437 0
h -365 -448 0
h -366 -459 0
h -367 -470 0
h -368 -481 0
h -369 -492 0
h -370 -503 0
h -371 -514 0
h -372 -525 0
h -373 -536 0
h -374 -547 0
h -375 -558 0
h -376 -569 0
h -377 -580 0
h -378 -591 0
h -379 -602 0
h -380 -613 0
h -381 -624 0
h -382 -635 0
h -383 -646 0
h -384 -657 0
h -385 -668 0
h -386 -679 0
h -387 -690 0
h -388 -701 0
h -389 -712 0
h -390 -723 0
h -391 -734 0
h -392 -745 0
h -393 -756 0
h -394 -767 0
h -395 -778 0
h -396 -789 0
h -361 -405 0
h -362 -416 0
h -363 -427 0
h -364 -438 0
h -365 -449 0
h -366 -460 0
h -367 -471 0
h -368 -482 0
h -369 -493 0
h -370 -504 0
h -371 -515 0
h -372 -526 0
h -373 -537 0
h -374 -548 0
h -375 -559 0
h -376 -570 0
h -377 -581 0
h -378 -592 0
h -379 -603 0
h -380 -614 0
h -381 -625 0
h -382 -636 0
h -383 -647 0
h -384 -658 0
h -385 -669 0
h -386 -680 0
h -387 -691 0
h -388 -702 0
h -389 -713 0
h -390 -724 0
h -391 -735 0
h -392 -746 0
h -393 -757 0
h -394 -768 0
h -395 -779 0
h -396 -790 0
h -361 -406 0
h -362 -417 0
h -363 -428 0
h -364 -439 0
h -365 -450 0
h -366 -461 0
h -367 -472 0
h -368 -483 0
h -369 -494 0
h -370 -505 0
h -371 -516 0
h -372 -527 0
h -373 -538 0
h -374 -549 0
h -375 -560 0
h -376 -571 0
h -377 -582 0
h -378 -593 0
h -379 -604 0
h -380 -615 0
h -381 -626 0
h -382 -637 0
h -383 -648 0
h -384 -659 0
h -385 -670 0
h -386 -681 0
h -387 -692 0
h -388 -703 0
h -389 -714 0
h -390 -725 0
h -391 -736 0
h -392 -747 0
h -393 -758 0
h -394 -769 0
h -395 -780 0
h -396 -791 0
h 2161 2162 2163 2164 2165 2166 2167 2168 2169 2170 2171 2172 2173 2174 2175 2176 2177 2178 2179 2180 2181 2182 2183 2184 2185 2186 2187 2188 2189 2190 2191 2192 2193 2194 2195 2196 0
h -2161 361 0
h -2161 407 0
h 2161 -361 -407 0
h -2162 362 0
h -2162 418 0
h 2162 -362 -418 0
h -2163 363 0
h -2163 429 0
h 2163 -363 -429 0
h -2164 364 0
h -2164 440 0
h 2164 -364 -440 0
h -2165 365 0
h -2165 451 0
h 2165 -365 -451 0
h -2166 366 0
h -2166 462 0
h 2166 -366 -462 0
h -2167 367 0
h -2167 473 0
h 2167 -367 -473 0
h -2168 368 0
h -2168 484 0
h 2168 -368 -484 0
h -2169 369 0
h -2169 495 0
h 2169 -369 -495 0
h -2170 370 0
h -2170 506 0
h 2170 -370 -506 0
h -2171 371 0
h -2171 517 0
h 2171 -371 -517 0
h -2172 372 0
h -2172 528 0
h 2172 -372 -528 0
h -2173 373 0
h -2173 539 0
h 2173 -373 -539 0
h -2174 374 0
h -2174 550 0
h 2174 -374 -550 0
h -2175 375 0
h -2175 561 0
h 2175 -375 -561 0
h -2176 376 0
h -2176 572 0
h 2176 -376 -572 0
h -2177 377 0
h -2177 583 0
h 2177 -377 -583 0
h -2178 378 0
h -2178 594 0
h 2178 -378 -594 0
h -2179 379 0
h -2179 605 0
h 2179 -379 -605 0
h -2180 380 0
h -2180 616 0
h 2180 -380 -616 0
h -2181 381 0
h -2181 627 0
h 2181 -381 -627 0
h -2182 382 0
h -2182 638 0
h 2182 -382 -638 0
h -2183 383 0
h -2183 649 0
h 2183 -383 -649 0
h -2184 384 0
h -2184 660 0
h 2184 -384 -660 0
h -2185 385 0
h -2185 671 0
h 2185 -385 -671 0
h -2186 386 0
h -2186 682 0
h 2186 -386 -682 0
h -2187 387 0
h -2187 693 0
h 2187 -387 -693 0
h -2188 388 0
h -2188 704 0
h 2188 -388 -704 0
h -2189 389 0
h -2189 715 0
h 2189 -389 -715 0
h -2190 390 0
h -2190 726 0
h 2190 -390 -726 0
h -2191 391 0
h -2191 737 0
h 2191 -391 -737 0
h -2192 392 0
h -2192 748 0
h 2192 -392 -748 0
h -2193 393 0
h -2193 759 0
h 2193 -393 -759 0
h -2194 394 0
h -2194 770 0
h 2194 -394 -770 0
h -2195 395 0
h -2195 781 0
h 2195 -395 -781 0
h -2196 396 0
h -2196 792 0
h 2196 -396 -792 0
