c Standarized MaxSat Instance
c{
c "sha1sum": "c3943fa1c61d6f46f7029898658075a742f78286",
c "nvars": 12617,
c "ncls": 47065,
c "total_lits": 118331,
c "nhards": 46798,
c "nhard_nlits": 118064,
c "nhard_len_stats":
c    { "min": 2,
c      "max": 25,
c      "ave": 2.5228,
c      "stddev": 1.6995 },
c "nsofts": 267,
c "nsoft_nlits": 267,
c "nsoft_len_stats":
c    { "min": 1,
c      "max": 1,
c      "ave": 1.0000,
c      "stddev": 0.0000 },
c "nsoft_wts": 1,
c "soft_wt_stats":
c    { "min": 1,
c      "max": 1,
c      "ave": 1.0000,
c      "stddev": 0.0000 }
c}
c------------------------------------------------------------
1 -361 0
1 -375 0
1 -376 0
1 -377 0
1 -378 0
1 -362 0
1 -379 0
1 -380 0
1 -381 0
1 -382 0
1 -363 0
1 -383 0
1 -384 0
1 -385 0
1 -386 0
1 -364 0
1 -387 0
1 -388 0
1 -389 0
1 -390 0
1 -365 0
1 -391 0
1 -392 0
1 -393 0
1 -394 0
1 -366 0
1 -395 0
1 -396 0
1 -397 0
1 -398 0
1 -367 0
1 -399 0
1 -400 0
1 -401 0
1 -402 0
1 -368 0
1 -403 0
1 -404 0
1 -405 0
1 -406 0
1 -369 0
1 -407 0
1 -408 0
1 -409 0
1 -410 0
1 -370 0
1 -411 0
1 -412 0
1 -413 0
1 -414 0
1 -371 0
1 -415 0
1 -416 0
1 -417 0
1 -418 0
1 -372 0
1 -419 0
1 -420 0
1 -421 0
1 -422 0
1 -373 0
1 -423 0
1 -424 0
1 -425 0
1 -426 0
1 -374 0
1 -427 0
1 -428 0
1 -429 0
1 -430 0
1 -431 0
1 -166 0
1 -167 0
1 -168 0
1 171 0
1 172 0
1 173 0
1 -257 0
1 -258 0
1 -259 0
1 -260 0
1 -261 0
1 262 0
1 263 0
1 264 0
1 265 0
1 266 0
1 -242 0
1 -243 0
1 -244 0
1 247 0
1 248 0
1 249 0
1 -227 0
1 -228 0
1 -229 0
1 232 0
1 233 0
1 234 0
1 -120 0
1 -121 0
1 -122 0
1 -123 0
1 125 0
1 126 0
1 127 0
1 128 0
1 -98 0
1 -99 0
1 -100 0
1 -101 0
1 103 0
1 104 0
1 105 0
1 106 0
1 -346 0
1 -347 0
1 -348 0
1 -349 0
1 351 0
1 352 0
1 353 0
1 354 0
1 -331 0
1 -332 0
1 -333 0
1 -334 0
1 -335 0
1 336 0
1 337 0
1 338 0
1 339 0
1 340 0
1 -316 0
1 -317 0
1 -318 0
1 -319 0
1 -320 0
1 321 0
1 322 0
1 323 0
1 324 0
1 325 0
1 -305 0
1 -306 0
1 -307 0
1 -308 0
1 -309 0
1 310 0
1 311 0
1 312 0
1 313 0
1 314 0
1 -20 0
1 -21 0
1 -22 0
1 -23 0
1 25 0
1 26 0
1 27 0
1 28 0
1 -5 0
1 -6 0
1 -7 0
1 -8 0
1 10 0
1 11 0
1 12 0
1 13 0
1 -193 0
1 -194 0
1 -195 0
1 198 0
1 199 0
1 200 0
1 -208 0
1 -209 0
1 -210 0
1 213 0
1 214 0
1 215 0
1 -76 0
1 -77 0
1 -78 0
1 -79 0
1 81 0
1 82 0
1 83 0
1 84 0
1 -65 0
1 -66 0
1 -67 0
1 -68 0
1 70 0
1 71 0
1 72 0
1 73 0
1 -46 0
1 -47 0
1 -48 0
1 51 0
1 52 0
1 53 0
1 -31 0
1 -32 0
1 -33 0
1 -34 0
1 -35 0
1 36 0
1 37 0
1 38 0
1 39 0
1 40 0
1 -87 0
1 -88 0
1 -89 0
1 -90 0
1 92 0
1 93 0
1 94 0
1 95 0
1 -109 0
1 -110 0
1 -111 0
1 -112 0
1 114 0
1 115 0
1 116 0
1 117 0
1 -131 0
1 -132 0
1 -133 0
1 -134 0
1 136 0
1 137 0
1 138 0
1 139 0
1 -268 0
1 -269 0
1 -270 0
1 -271 0
1 -272 0
1 273 0
1 274 0
1 275 0
1 276 0
1 277 0
1 -290 0
1 -291 0
1 -292 0
1 -293 0
1 -294 0
1 295 0
1 296 0
1 297 0
1 298 0
1 299 0
1 -279 0
1 -280 0
1 -281 0
1 -282 0
1 -283 0
1 284 0
1 285 0
1 286 0
1 287 0
1 288 0
h -1 2 0
h -2 3 0
h -3 4 0
h -5 6 0
h -6 7 0
h -7 8 0
h -8 9 0
h -9 10 0
h -10 11 0
h -11 12 0
h -12 13 0
h -13 14 0
h -14 15 0
h -16 17 0
h -17 18 0
h -18 19 0
h -20 21 0
h -21 22 0
h -22 23 0
h -23 24 0
h -24 25 0
h -25 26 0
h -26 27 0
h -27 28 0
h -28 29 0
h -29 30 0
h -31 32 0
h -32 33 0
h -33 34 0
h -34 35 0
h -35 36 0
h -36 37 0
h -37 38 0
h -38 39 0
h -39 40 0
h -40 41 0
h -42 43 0
h -43 44 0
h -44 45 0
h -46 47 0
h -47 48 0
h -48 49 0
h -49 50 0
h -50 51 0
h -51 52 0
h -52 53 0
h -53 54 0
h -54 55 0
h -55 56 0
h -57 58 0
h -58 59 0
h -59 60 0
h -61 62 0
h -62 63 0
h -63 64 0
h -65 66 0
h -66 67 0
h -67 68 0
h -68 69 0
h -69 70 0
h -70 71 0
h -71 72 0
h -72 73 0
h -73 74 0
h -74 75 0
h -76 77 0
h -77 78 0
h -78 79 0
h -79 80 0
h -80 81 0
h -81 82 0
h -82 83 0
h -83 84 0
h -84 85 0
h -85 86 0
h -87 88 0
h -88 89 0
h -89 90 0
h -90 91 0
h -91 92 0
h -92 93 0
h -93 94 0
h -94 95 0
h -95 96 0
h -96 97 0
h -98 99 0
h -99 100 0
h -100 101 0
h -101 102 0
h -102 103 0
h -103 104 0
h -104 105 0
h -105 106 0
h -106 107 0
h -107 108 0
h -109 110 0
h -110 111 0
h -111 112 0
h -112 113 0
h -113 114 0
h -114 115 0
h -115 116 0
h -116 117 0
h -117 118 0
h -118 119 0
h -120 121 0
h -121 122 0
h -122 123 0
h -123 124 0
h -124 125 0
h -125 126 0
h -126 127 0
h -127 128 0
h -128 129 0
h -129 130 0
h -131 132 0
h -132 133 0
h -133 134 0
h -134 135 0
h -135 136 0
h -136 137 0
h -137 138 0
h -138 139 0
h -139 140 0
h -140 141 0
h -142 143 0
h -143 144 0
h -144 145 0
h -146 147 0
h -147 148 0
h -148 149 0
h -150 151 0
h -151 152 0
h -152 153 0
h -154 155 0
h -155 156 0
h -156 157 0
h -158 159 0
h -159 160 0
h -160 161 0
h -162 163 0
h -163 164 0
h -164 165 0
h -166 167 0
h -167 168 0
h -168 169 0
h -169 170 0
h -170 171 0
h -171 172 0
h -172 173 0
h -173 174 0
h -174 175 0
h -175 176 0
h -177 178 0
h -178 179 0
h -179 180 0
h -181 182 0
h -182 183 0
h -183 184 0
h -185 186 0
h -186 187 0
h -187 188 0
h -189 190 0
h -190 191 0
h -191 192 0
h -193 194 0
h -194 195 0
h -195 196 0
h -196 197 0
h -197 198 0
h -198 199 0
h -199 200 0
h -200 201 0
h -201 202 0
h -202 203 0
h -204 205 0
h -205 206 0
h -206 207 0
h -208 209 0
h -209 210 0
h -210 211 0
h -211 212 0
h -212 213 0
h -213 214 0
h -214 215 0
h -215 216 0
h -216 217 0
h -217 218 0
h -219 220 0
h -220 221 0
h -221 222 0
h -223 224 0
h -224 225 0
h -225 226 0
h -227 228 0
h -228 229 0
h -229 230 0
h -230 231 0
h -231 232 0
h -232 233 0
h -233 234 0
h -234 235 0
h -235 236 0
h -236 237 0
h -238 239 0
h -239 240 0
h -240 241 0
h -242 243 0
h -243 244 0
h -244 245 0
h -245 246 0
h -246 247 0
h -247 248 0
h -248 249 0
h -249 250 0
h -250 251 0
h -251 252 0
h -253 254 0
h -254 255 0
h -255 256 0
h -257 258 0
h -258 259 0
h -259 260 0
h -260 261 0
h -261 262 0
h -262 263 0
h -263 264 0
h -264 265 0
h -265 266 0
h -266 267 0
h -268 269 0
h -269 270 0
h -270 271 0
h -271 272 0
h -272 273 0
h -273 274 0
h -274 275 0
h -275 276 0
h -276 277 0
h -277 278 0
h -279 280 0
h -280 281 0
h -281 282 0
h -282 283 0
h -283 284 0
h -284 285 0
h -285 286 0
h -286 287 0
h -287 288 0
h -288 289 0
h -290 291 0
h -291 292 0
h -292 293 0
h -293 294 0
h -294 295 0
h -295 296 0
h -296 297 0
h -297 298 0
h -298 299 0
h -299 300 0
h -301 302 0
h -302 303 0
h -303 304 0
h -305 306 0
h -306 307 0
h -307 308 0
h -308 309 0
h -309 310 0
h -310 311 0
h -311 312 0
h -312 313 0
h -313 314 0
h -314 315 0
h -316 317 0
h -317 318 0
h -318 319 0
h -319 320 0
h -320 321 0
h -321 322 0
h -322 323 0
h -323 324 0
h -324 325 0
h -325 326 0
h -327 328 0
h -328 329 0
h -329 330 0
h -331 332 0
h -332 333 0
h -333 334 0
h -334 335 0
h -335 336 0
h -336 337 0
h -337 338 0
h -338 339 0
h -339 340 0
h -340 341 0
h -342 343 0
h -343 344 0
h -344 345 0
h -346 347 0
h -347 348 0
h -348 349 0
h -349 350 0
h -350 351 0
h -351 352 0
h -352 353 0
h -353 354 0
h -354 355 0
h -355 356 0
h -357 358 0
h -358 359 0
h -359 360 0
h 440 451 452 453 454 455 456 457 458 459 0
h 468 479 480 481 482 483 484 485 486 487 0
h 498 508 509 510 511 512 513 514 515 516 0
h 526 536 537 538 539 540 541 542 543 544 0
h 554 564 565 566 567 568 569 570 571 572 0
h 581 591 592 593 594 595 596 597 598 599 0
h 608 618 619 620 621 622 623 624 625 626 0
h 635 645 646 647 648 649 650 651 652 653 0
h 662 672 673 674 675 676 677 678 679 680 0
h 690 701 702 703 704 705 706 707 708 709 0
h 719 730 731 732 733 734 735 736 737 738 0
h 748 759 760 761 762 763 764 765 766 767 0
h 777 787 788 789 790 791 792 793 794 795 0
h 805 815 816 817 818 819 820 821 822 823 0
h 833 844 845 846 847 848 849 850 851 852 0
h 862 873 874 875 876 877 878 879 880 881 0
h 891 902 903 904 905 906 907 908 909 910 0
h 920 931 932 933 934 935 936 937 938 939 0
h 949 960 961 962 963 964 965 966 967 968 0
h 978 989 990 991 992 993 994 995 996 997 0
h 1007 1018 1019 1020 1021 1022 1023 1024 1025 1026 0
h 1036 1047 1048 1049 1050 1051 1052 1053 1054 1055 0
h 1065 1076 1077 1078 1079 1080 1081 1082 1083 1084 0
h 1093 1103 1104 1105 1106 1107 1108 1109 1110 1111 0
h 1120 1130 1131 1132 1133 1134 1135 1136 1137 1138 0
h 1147 1157 1158 1159 1160 1161 1162 1163 1164 1165 0
h 1174 1184 1185 1186 1187 1188 1189 1190 1191 1192 0
h 1201 1211 1212 1213 1214 1215 1216 1217 1218 1219 0
h 1228 1238 1239 1240 1241 1242 1243 1244 1245 1246 0
h 1255 1265 1266 1267 1268 1269 1270 1271 1272 1273 0
h 1282 1292 1293 1294 1295 1296 1297 1298 1299 1300 0
h 1310 1321 1322 1323 1324 1325 1326 1327 1328 1329 0
h 1339 1350 1351 1352 1353 1354 1355 1356 1357 1358 0
h 1368 1379 1380 1381 1382 1383 1384 1385 1386 1387 0
h 1397 1408 1409 1410 1411 1412 1413 1414 1415 1416 0
h 1426 1437 1438 1439 1440 1441 1442 1443 1444 1445 0
h 1455 1466 1467 1468 1469 1470 1471 1472 1473 1474 0
h 1484 1494 1495 1496 1497 1498 1499 1500 1501 1502 0
h 1512 1522 1523 1524 1525 1526 1527 1528 1529 1530 0
h 1540 1551 1552 1553 1554 1555 1556 1557 1558 1559 0
h 1569 1580 1581 1582 1583 1584 1585 1586 1587 1588 0
h 1598 1609 1610 1611 1612 1613 1614 1615 1616 1617 0
h 1627 1638 1639 1640 1641 1642 1643 1644 1645 1646 0
h 1656 1667 1668 1669 1670 1671 1672 1673 1674 1675 0
h 1685 1696 1697 1698 1699 1700 1701 1702 1703 1704 0
h 1714 1725 1726 1727 1728 1729 1730 1731 1732 1733 0
h 1743 1754 1755 1756 1757 1758 1759 1760 1761 1762 0
h 1772 1783 1784 1785 1786 1787 1788 1789 1790 1791 0
h 1800 1810 1811 1812 1813 1814 1815 1816 1817 1818 0
h 1827 1837 1838 1839 1840 1841 1842 1843 1844 1845 0
h 1854 1864 1865 1866 1867 1868 1869 1870 1871 1872 0
h 1881 1891 1892 1893 1894 1895 1896 1897 1898 1899 0
h 1908 1918 1919 1920 1921 1922 1923 1924 1925 1926 0
h 1935 1945 1946 1947 1948 1949 1950 1951 1952 1953 0
h 1962 1972 1973 1974 1975 1976 1977 1978 1979 1980 0
h 1989 1999 2000 2001 2002 2003 2004 2005 2006 2007 0
h 2017 2027 2028 2029 2030 2031 2032 2033 2034 2035 0
h 2045 2055 2056 2057 2058 2059 2060 2061 2062 2063 0
h 2073 2083 2084 2085 2086 2087 2088 2089 2090 2091 0
h 2101 2112 2113 2114 2115 2116 2117 2118 2119 2120 0
h 2130 2141 2142 2143 2144 2145 2146 2147 2148 2149 0
h 2159 2170 2171 2172 2173 2174 2175 2176 2177 2178 0
h 2189 2199 2200 2201 2202 2203 2204 2205 2206 2207 0
h 2218 2228 2229 2230 2231 2232 2233 2234 2235 2236 0
h 2247 2257 2258 2259 2260 2261 2262 2263 2264 2265 0
h 2276 2286 2287 2288 2289 2290 2291 2292 2293 2294 0
h 2305 2315 2316 2317 2318 2319 2320 2321 2322 2323 0
h 2334 2344 2345 2346 2347 2348 2349 2350 2351 2352 0
h 2363 2373 2374 2375 2376 2377 2378 2379 2380 2381 0
h 2392 2402 2403 2404 2405 2406 2407 2408 2409 2410 0
h 2421 2431 2432 2433 2434 2435 2436 2437 2438 2439 0
h 2450 2461 2462 2463 2464 2465 2466 2467 2468 2469 0
h 2480 2491 2492 2493 2494 2495 2496 2497 2498 2499 0
h 2510 2521 2522 2523 2524 2525 2526 2527 2528 2529 0
h 2540 2551 2552 2553 2554 2555 2556 2557 2558 2559 0
h 2570 2581 2582 2583 2584 2585 2586 2587 2588 2589 0
h 2600 2611 2612 2613 2614 2615 2616 2617 2618 2619 0
h 2630 2641 2642 2643 2644 2645 2646 2647 2648 2649 0
h 2660 2671 2672 2673 2674 2675 2676 2677 2678 2679 0
h 2690 2701 2702 2703 2704 2705 2706 2707 2708 2709 0
h 2719 2728 2729 2730 2731 2732 2733 2734 2735 2736 0
h 2746 2755 2756 2757 2758 2759 2760 2761 2762 2763 0
h 2773 2783 2784 2785 2786 2787 2788 2789 2790 2791 0
h 2801 2811 2812 2813 2814 2815 2816 2817 2818 2819 0
h 2830 2839 2840 2841 2842 2843 2844 2845 2846 2847 0
h 2858 2867 2868 2869 2870 2871 2872 2873 2874 2875 0
h 2886 2895 2896 2897 2898 2899 2900 2901 2902 2903 0
h 2914 2923 2924 2925 2926 2927 2928 2929 2930 2931 0
h 2942 2951 2952 2953 2954 2955 2956 2957 2958 2959 0
h 2970 2979 2980 2981 2982 2983 2984 2985 2986 2987 0
h 2998 3008 3009 3010 3011 3012 3013 3014 3015 3016 0
h 3027 3037 3038 3039 3040 3041 3042 3043 3044 3045 0
h 3056 3066 3067 3068 3069 3070 3071 3072 3073 3074 0
h 3085 3095 3096 3097 3098 3099 3100 3101 3102 3103 0
h 3114 3124 3125 3126 3127 3128 3129 3130 3131 3132 0
h 3143 3153 3154 3155 3156 3157 3158 3159 3160 3161 0
h 3171 3180 3181 3182 3183 3184 3185 3186 3187 3188 0
h 3198 3207 3208 3209 3210 3211 3212 3213 3214 3215 0
h 3225 3234 3235 3236 3237 3238 3239 3240 3241 3242 0
h 3252 3261 3262 3263 3264 3265 3266 3267 3268 3269 0
h 3279 3289 3290 3291 3292 3293 3294 3295 3296 3297 0
h 3307 3317 3318 3319 3320 3321 3322 3323 3324 3325 0
h 3335 3345 3346 3347 3348 3349 3350 3351 3352 3353 0
h 3363 3373 3374 3375 3376 3377 3378 3379 3380 3381 0
h 3391 3400 3401 3402 3403 3404 3405 3406 3407 3408 0
h 3418 3427 3428 3429 3430 3431 3432 3433 3434 3435 0
h 3445 3455 3456 3457 3458 3459 3460 3461 3462 3463 0
h 3473 3483 3484 3485 3486 3487 3488 3489 3490 3491 0
h 3502 3511 3512 3513 3514 3515 3516 3517 3518 3519 0
h 3530 3539 3540 3541 3542 3543 3544 3545 3546 3547 0
h 3558 3567 3568 3569 3570 3571 3572 3573 3574 3575 0
h 3586 3595 3596 3597 3598 3599 3600 3601 3602 3603 0
h 3614 3623 3624 3625 3626 3627 3628 3629 3630 3631 0
h 3642 3651 3652 3653 3654 3655 3656 3657 3658 3659 0
h 3670 3680 3681 3682 3683 3684 3685 3686 3687 3688 0
h 3699 3709 3710 3711 3712 3713 3714 3715 3716 3717 0
h 3728 3738 3739 3740 3741 3742 3743 3744 3745 3746 0
h 3757 3767 3768 3769 3770 3771 3772 3773 3774 3775 0
h 3786 3796 3797 3798 3799 3800 3801 3802 3803 3804 0
h 3815 3825 3826 3827 3828 3829 3830 3831 3832 3833 0
h 3842 3852 3853 3854 3855 3856 3857 3858 3859 3860 0
h 3869 3879 3880 3881 3882 3883 3884 3885 3886 3887 0
h 3896 3907 3908 3909 3910 3911 3912 3913 3914 3915 0
h 3924 3935 3936 3937 3938 3939 3940 3941 3942 3943 0
h 3952 3963 3964 3965 3966 3967 3968 3969 3970 3971 0
h 3980 3991 3992 3993 3994 3995 3996 3997 3998 3999 0
h 4008 4019 4020 4021 4022 4023 4024 4025 4026 4027 0
h 4036 4047 4048 4049 4050 4051 4052 4053 4054 4055 0
h 4065 4075 4076 4077 4078 4079 4080 4081 4082 4083 0
h 4093 4103 4104 4105 4106 4107 4108 4109 4110 4111 0
h 4121 4132 4133 4134 4135 4136 4137 4138 4139 4140 0
h 4150 4161 4162 4163 4164 4165 4166 4167 4168 4169 0
h 4179 4190 4191 4192 4193 4194 4195 4196 4197 4198 0
h 4208 4219 4220 4221 4222 4223 4224 4225 4226 4227 0
h 4237 4248 4249 4250 4251 4252 4253 4254 4255 4256 0
h 4266 4277 4278 4279 4280 4281 4282 4283 4284 4285 0
h 4294 4304 4305 4306 4307 4308 4309 4310 4311 4312 0
h 4323 4333 4334 4335 4336 4337 4338 4339 4340 4341 0
h 4350 4361 4362 4363 4364 4365 4366 4367 4368 4369 0
h 4378 4389 4390 4391 4392 4393 4394 4395 4396 4397 0
h 4406 4417 4418 4419 4420 4421 4422 4423 4424 4425 0
h 4436 4447 4448 4449 4450 4451 4452 4453 4454 4455 0
h 4466 4477 4478 4479 4480 4481 4482 4483 4484 4485 0
h 4496 4507 4508 4509 4510 4511 4512 4513 4514 4515 0
h 4524 4534 4535 4536 4537 4538 4539 4540 4541 4542 0
h 4553 4563 4564 4565 4566 4567 4568 4569 4570 4571 0
h 4580 4590 4591 4592 4593 4594 4595 4596 4597 4598 0
h 4607 4617 4618 4619 4620 4621 4622 4623 4624 4625 0
h 4634 4645 4646 4647 4648 4649 4650 4651 4652 4653 0
h 4662 4673 4674 4675 4676 4677 4678 4679 4680 4681 0
h 4690 4701 4702 4703 4704 4705 4706 4707 4708 4709 0
h 4720 4730 4731 4732 4733 4734 4735 4736 4737 4738 0
h 4749 4759 4760 4761 4762 4763 4764 4765 4766 4767 0
h 4778 4789 4790 4791 4792 4793 4794 4795 4796 4797 0
h 4808 4819 4820 4821 4822 4823 4824 4825 4826 4827 0
h 4838 4849 4850 4851 4852 4853 4854 4855 4856 4857 0
h 4866 4875 4876 4877 4878 4879 4880 4881 4882 4883 0
h 4892 4901 4902 4903 4904 4905 4906 4907 4908 4909 0
h 4918 4928 4929 4930 4931 4932 4933 4934 4935 4936 0
h 4945 4955 4956 4957 4958 4959 4960 4961 4962 4963 0
h 4974 4983 4984 4985 4986 4987 4988 4989 4990 4991 0
h 5002 5011 5012 5013 5014 5015 5016 5017 5018 5019 0
h 5030 5040 5041 5042 5043 5044 5045 5046 5047 5048 0
h 5059 5069 5070 5071 5072 5073 5074 5075 5076 5077 0
h 5086 5095 5096 5097 5098 5099 5100 5101 5102 5103 0
h 5112 5121 5122 5123 5124 5125 5126 5127 5128 5129 0
h 5138 5148 5149 5150 5151 5152 5153 5154 5155 5156 0
h 5165 5175 5176 5177 5178 5179 5180 5181 5182 5183 0
h 5194 5203 5204 5205 5206 5207 5208 5209 5210 5211 0
h 5222 5231 5232 5233 5234 5235 5236 5237 5238 5239 0
h 5250 5260 5261 5262 5263 5264 5265 5266 5267 5268 0
h 5279 5289 5290 5291 5292 5293 5294 5295 5296 5297 0
h 5306 5315 5316 5317 5318 5319 5320 5321 5322 5323 0
h 5332 5343 5344 5345 5346 5347 5348 5349 5350 5351 0
h 5362 5371 5372 5373 5374 5375 5376 5377 5378 5379 0
h 5390 5401 5402 5403 5404 5405 5406 5407 5408 5409 0
h 361 5526 0
h -361 5554 5582 5612 5642 0
h 5652 5662 5663 5664 5665 5666 5667 5668 5669 5670 0
h 5680 5690 5691 5692 5693 5694 5695 5696 5697 5698 0
h 5708 5718 5719 5720 5721 5722 5723 5724 5725 5726 0
h 5736 5747 5748 5749 5750 5751 5752 5753 5754 5755 0
h 5765 5776 5777 5778 5779 5780 5781 5782 5783 5784 0
h 5794 5805 5806 5807 5808 5809 5810 5811 5812 5813 0
h 5824 5834 5835 5836 5837 5838 5839 5840 5841 5842 0
h 5853 5863 5864 5865 5866 5867 5868 5869 5870 5871 0
h 5882 5892 5893 5894 5895 5896 5897 5898 5899 5900 0
h 5911 5921 5922 5923 5924 5925 5926 5927 5928 5929 0
h 5940 5950 5951 5952 5953 5954 5955 5956 5957 5958 0
h 5969 5979 5980 5981 5982 5983 5984 5985 5986 5987 0
h 5998 6008 6009 6010 6011 6012 6013 6014 6015 6016 0
h 6027 6037 6038 6039 6040 6041 6042 6043 6044 6045 0
h 6056 6066 6067 6068 6069 6070 6071 6072 6073 6074 0
h 6085 6096 6097 6098 6099 6100 6101 6102 6103 6104 0
h 6115 6126 6127 6128 6129 6130 6131 6132 6133 6134 0
h 6145 6156 6157 6158 6159 6160 6161 6162 6163 6164 0
h 6175 6186 6187 6188 6189 6190 6191 6192 6193 6194 0
h 6205 6216 6217 6218 6219 6220 6221 6222 6223 6224 0
h 6235 6246 6247 6248 6249 6250 6251 6252 6253 6254 0
h 6265 6276 6277 6278 6279 6280 6281 6282 6283 6284 0
h 6295 6306 6307 6308 6309 6310 6311 6312 6313 6314 0
h 6325 6336 6337 6338 6339 6340 6341 6342 6343 6344 0
h 6354 6363 6364 6365 6366 6367 6368 6369 6370 6371 0
h 6381 6390 6391 6392 6393 6394 6395 6396 6397 6398 0
h 6408 6418 6419 6420 6421 6422 6423 6424 6425 6426 0
h 6436 6446 6447 6448 6449 6450 6451 6452 6453 6454 0
h 6465 6474 6475 6476 6477 6478 6479 6480 6481 6482 0
h 6493 6502 6503 6504 6505 6506 6507 6508 6509 6510 0
h 6521 6530 6531 6532 6533 6534 6535 6536 6537 6538 0
h 6549 6558 6559 6560 6561 6562 6563 6564 6565 6566 0
h 6577 6586 6587 6588 6589 6590 6591 6592 6593 6594 0
h 6605 6614 6615 6616 6617 6618 6619 6620 6621 6622 0
h 6633 6643 6644 6645 6646 6647 6648 6649 6650 6651 0
h 6662 6672 6673 6674 6675 6676 6677 6678 6679 6680 0
h 6691 6701 6702 6703 6704 6705 6706 6707 6708 6709 0
h 6720 6730 6731 6732 6733 6734 6735 6736 6737 6738 0
h 6749 6759 6760 6761 6762 6763 6764 6765 6766 6767 0
h 6778 6788 6789 6790 6791 6792 6793 6794 6795 6796 0
h 6806 6815 6816 6817 6818 6819 6820 6821 6822 6823 0
h 6833 6842 6843 6844 6845 6846 6847 6848 6849 6850 0
h 6860 6870 6871 6872 6873 6874 6875 6876 6877 6878 0
h 6888 6898 6899 6900 6901 6902 6903 6904 6905 6906 0
h 6917 6926 6927 6928 6929 6930 6931 6932 6933 6934 0
h 6945 6954 6955 6956 6957 6958 6959 6960 6961 6962 0
h 6973 6982 6983 6984 6985 6986 6987 6988 6989 6990 0
h 7001 7010 7011 7012 7013 7014 7015 7016 7017 7018 0
h 7029 7038 7039 7040 7041 7042 7043 7044 7045 7046 0
h 7057 7066 7067 7068 7069 7070 7071 7072 7073 7074 0
h 7085 7095 7096 7097 7098 7099 7100 7101 7102 7103 0
h 7114 7124 7125 7126 7127 7128 7129 7130 7131 7132 0
h 7143 7153 7154 7155 7156 7157 7158 7159 7160 7161 0
h 7172 7182 7183 7184 7185 7186 7187 7188 7189 7190 0
h 7201 7211 7212 7213 7214 7215 7216 7217 7218 7219 0
h 7230 7240 7241 7242 7243 7244 7245 7246 7247 7248 0
h 7258 7267 7268 7269 7270 7271 7272 7273 7274 7275 0
h 7285 7296 7297 7298 7299 7300 7301 7302 7303 7304 0
h 7315 7324 7325 7326 7327 7328 7329 7330 7331 7332 0
h 7343 7352 7353 7354 7355 7356 7357 7358 7359 7360 0
h 7371 7380 7381 7382 7383 7384 7385 7386 7387 7388 0
h 7399 7410 7411 7412 7413 7414 7415 7416 7417 7418 0
h 7429 7440 7441 7442 7443 7444 7445 7446 7447 7448 0
h 7459 7470 7471 7472 7473 7474 7475 7476 7477 7478 0
h 362 7717 0
h -362 7746 7775 7805 7835 7865 7895 7925 7955 0
h 7965 7974 7975 7976 7977 7978 7979 7980 7981 7982 0
h 7992 8001 8002 8003 8004 8005 8006 8007 8008 8009 0
h 8019 8028 8029 8030 8031 8032 8033 8034 8035 8036 0
h 8046 8055 8056 8057 8058 8059 8060 8061 8062 8063 0
h 8073 8083 8084 8085 8086 8087 8088 8089 8090 8091 0
h 8101 8111 8112 8113 8114 8115 8116 8117 8118 8119 0
h 8129 8139 8140 8141 8142 8143 8144 8145 8146 8147 0
h 8157 8167 8168 8169 8170 8171 8172 8173 8174 8175 0
h 8185 8194 8195 8196 8197 8198 8199 8200 8201 8202 0
h 8212 8221 8222 8223 8224 8225 8226 8227 8228 8229 0
h 8239 8249 8250 8251 8252 8253 8254 8255 8256 8257 0
h 8267 8277 8278 8279 8280 8281 8282 8283 8284 8285 0
h 8296 8305 8306 8307 8308 8309 8310 8311 8312 8313 0
h 8324 8333 8334 8335 8336 8337 8338 8339 8340 8341 0
h 8352 8361 8362 8363 8364 8365 8366 8367 8368 8369 0
h 8380 8389 8390 8391 8392 8393 8394 8395 8396 8397 0
h 8408 8417 8418 8419 8420 8421 8422 8423 8424 8425 0
h 8436 8445 8446 8447 8448 8449 8450 8451 8452 8453 0
h 8464 8474 8475 8476 8477 8478 8479 8480 8481 8482 0
h 8493 8503 8504 8505 8506 8507 8508 8509 8510 8511 0
h 8522 8532 8533 8534 8535 8536 8537 8538 8539 8540 0
h 8551 8561 8562 8563 8564 8565 8566 8567 8568 8569 0
h 8580 8590 8591 8592 8593 8594 8595 8596 8597 8598 0
h 8609 8619 8620 8621 8622 8623 8624 8625 8626 8627 0
h 8637 8646 8647 8648 8649 8650 8651 8652 8653 8654 0
h 8664 8673 8674 8675 8676 8677 8678 8679 8680 8681 0
h 8691 8700 8701 8702 8703 8704 8705 8706 8707 8708 0
h 8718 8727 8728 8729 8730 8731 8732 8733 8734 8735 0
h 8745 8755 8756 8757 8758 8759 8760 8761 8762 8763 0
h 8773 8783 8784 8785 8786 8787 8788 8789 8790 8791 0
h 8801 8811 8812 8813 8814 8815 8816 8817 8818 8819 0
h 8829 8839 8840 8841 8842 8843 8844 8845 8846 8847 0
h 8857 8866 8867 8868 8869 8870 8871 8872 8873 8874 0
h 8884 8893 8894 8895 8896 8897 8898 8899 8900 8901 0
h 8911 8921 8922 8923 8924 8925 8926 8927 8928 8929 0
h 8939 8949 8950 8951 8952 8953 8954 8955 8956 8957 0
h 8968 8977 8978 8979 8980 8981 8982 8983 8984 8985 0
h 8996 9005 9006 9007 9008 9009 9010 9011 9012 9013 0
h 9024 9033 9034 9035 9036 9037 9038 9039 9040 9041 0
h 9052 9061 9062 9063 9064 9065 9066 9067 9068 9069 0
h 9080 9089 9090 9091 9092 9093 9094 9095 9096 9097 0
h 9108 9117 9118 9119 9120 9121 9122 9123 9124 9125 0
h 9136 9146 9147 9148 9149 9150 9151 9152 9153 9154 0
h 9165 9175 9176 9177 9178 9179 9180 9181 9182 9183 0
h 9194 9204 9205 9206 9207 9208 9209 9210 9211 9212 0
h 9223 9233 9234 9235 9236 9237 9238 9239 9240 9241 0
h 9252 9262 9263 9264 9265 9266 9267 9268 9269 9270 0
h 9281 9291 9292 9293 9294 9295 9296 9297 9298 9299 0
h 9309 9318 9319 9320 9321 9322 9323 9324 9325 9326 0
h 9336 9347 9348 9349 9350 9351 9352 9353 9354 9355 0
h 9365 9374 9375 9376 9377 9378 9379 9380 9381 9382 0
h 9392 9401 9402 9403 9404 9405 9406 9407 9408 9409 0
h 9419 9430 9431 9432 9433 9434 9435 9436 9437 9438 0
h 9448 9459 9460 9461 9462 9463 9464 9465 9466 9467 0
h 9478 9487 9488 9489 9490 9491 9492 9493 9494 9495 0
h 9506 9515 9516 9517 9518 9519 9520 9521 9522 9523 0
h 9534 9543 9544 9545 9546 9547 9548 9549 9550 9551 0
h 9562 9573 9574 9575 9576 9577 9578 9579 9580 9581 0
h 9592 9603 9604 9605 9606 9607 9608 9609 9610 9611 0
h 9622 9633 9634 9635 9636 9637 9638 9639 9640 9641 0
h 363 9996 0
h -363 10025 10054 10083 10112 10141 10170 10200 10230 10260 10290 10320 10350 0
h 10359 10368 10369 10370 10371 10372 10373 10374 10375 10376 0
h 10385 10394 10395 10396 10397 10398 10399 10400 10401 10402 0
h 10411 10420 10421 10422 10423 10424 10425 10426 10427 10428 0
h 10437 10446 10447 10448 10449 10450 10451 10452 10453 10454 0
h 10463 10473 10474 10475 10476 10477 10478 10479 10480 10481 0
h 10490 10500 10501 10502 10503 10504 10505 10506 10507 10508 0
h 10517 10527 10528 10529 10530 10531 10532 10533 10534 10535 0
h 10544 10554 10555 10556 10557 10558 10559 10560 10561 10562 0
h 10572 10581 10582 10583 10584 10585 10586 10587 10588 10589 0
h 10599 10608 10609 10610 10611 10612 10613 10614 10615 10616 0
h 10626 10635 10636 10637 10638 10639 10640 10641 10642 10643 0
h 10653 10662 10663 10664 10665 10666 10667 10668 10669 10670 0
h 10680 10690 10691 10692 10693 10694 10695 10696 10697 10698 0
h 10708 10718 10719 10720 10721 10722 10723 10724 10725 10726 0
h 10736 10746 10747 10748 10749 10750 10751 10752 10753 10754 0
h 10764 10774 10775 10776 10777 10778 10779 10780 10781 10782 0
h 10791 10800 10801 10802 10803 10804 10805 10806 10807 10808 0
h 10817 10826 10827 10828 10829 10830 10831 10832 10833 10834 0
h 10843 10854 10855 10856 10857 10858 10859 10860 10861 10862 0
h 10871 10882 10883 10884 10885 10886 10887 10888 10889 10890 0
h 10900 10909 10910 10911 10912 10913 10914 10915 10916 10917 0
h 10927 10936 10937 10938 10939 10940 10941 10942 10943 10944 0
h 10954 10965 10966 10967 10968 10969 10970 10971 10972 10973 0
h 10983 10994 10995 10996 10997 10998 10999 11000 11001 11002 0
h 364 11231 0
h -364 11259 11287 11315 11343 11372 11401 11430 11459 0
h 11468 11477 11478 11479 11480 11481 11482 11483 11484 11485 0
h 11494 11503 11504 11505 11506 11507 11508 11509 11510 11511 0
h 11520 11531 11532 11533 11534 11535 11536 11537 11538 11539 0
h 11548 11559 11560 11561 11562 11563 11564 11565 11566 11567 0
h 11577 11586 11587 11588 11589 11590 11591 11592 11593 11594 0
h 11604 11613 11614 11615 11616 11617 11618 11619 11620 11621 0
h 11631 11642 11643 11644 11645 11646 11647 11648 11649 11650 0
h 11660 11671 11672 11673 11674 11675 11676 11677 11678 11679 0
h 365 11908 0
h -365 11936 11964 11992 12020 12049 12078 12107 12136 0
h 366 12253 0
h -366 12281 12309 12339 12369 0
h 167 -171 -304 303 0
h 260 -262 -19 18 0
h 243 -247 -4 3 0
h 228 -232 -360 359 0
h 122 -125 -222 221 0
h 100 -103 -207 206 0
h 348 -351 -157 156 0
h 334 -336 -153 152 0
h 319 -321 -145 144 0
h 308 -310 -149 148 0
h 22 -25 -165 164 0
h 7 -10 -161 160 0
h 194 -198 -345 344 0
h 209 -213 -330 329 0
h 78 -81 -188 187 0
h 67 -70 -180 179 0
h 47 -51 -192 191 0
h 34 -36 -184 183 0
h 89 -92 -241 240 0
h 111 -114 -256 255 0
h 133 -136 -226 225 0
h 271 -273 -45 44 0
h 293 -295 -64 63 0
h 282 -284 -60 59 0
h -301 -166 0
h -16 -257 0
h -1 -242 0
h -357 -227 0
h -219 -120 0
h -204 -98 0
h -154 -346 0
h -150 -331 0
h -142 -316 0
h -146 -305 0
h -162 -20 0
h -158 -5 0
h -342 -193 0
h -327 -208 0
h -185 -76 0
h -177 -65 0
h -189 -46 0
h -181 -31 0
h -238 -87 0
h -253 -109 0
h -223 -131 0
h -42 -268 0
h -61 -290 0
h -57 -279 0
h 367 12394 0
h -367 12395 12396 12397 12398 12399 12400 12401 12402 12403 12404 12405 12406 12407 12408 12409 12410 12411 12412 12413 12414 12415 12416 12417 12418 0
h 368 12443 0
h -368 12444 12445 12446 12447 12448 12449 12450 12451 12452 12453 12454 12455 12456 12457 12458 12459 12460 12461 12462 12463 12464 12465 12466 12467 0
h 369 12492 0
h -369 12493 12494 12495 12496 12497 12498 12499 12500 12501 12502 12503 12504 12505 12506 12507 12508 12509 12510 12511 12512 12513 12514 12515 12516 0
h 370 12541 0
h -370 12542 12543 12544 12545 12546 12547 12548 12549 12550 12551 12552 12553 12554 12555 12556 12557 12558 12559 12560 12561 12562 12563 12564 12565 0
h 371 12590 0
h -371 12591 12592 12593 12594 12595 12596 12597 12598 12599 12600 12601 12602 12603 12604 12605 12606 12607 12608 12609 12610 12611 12612 12613 12614 0
h 372 12615 0
h -372 92 -94 114 -116 136 -138 273 -276 295 -298 284 -287 0
h 373 12616 0
h -373 51 -52 36 -39 0
h 374 12617 0
h -374 165 21 -23 161 6 -8 0
h -375 361 0
h -361 375 0
h -376 361 0
h -361 376 0
h -377 361 0
h -361 377 0
h -378 361 0
h -361 378 0
h -379 362 0
h -362 379 0
h -380 362 0
h -362 380 0
h -381 362 0
h -362 381 0
h -382 362 0
h -362 382 0
h -383 363 0
h -363 383 0
h -384 363 0
h -363 384 0
h -385 363 0
h -363 385 0
h -386 363 0
h -363 386 0
h -387 364 0
h -364 387 0
h -388 364 0
h -364 388 0
h -389 364 0
h -364 389 0
h -390 364 0
h -364 390 0
h -391 365 0
h -365 391 0
h -392 365 0
h -365 392 0
h -393 365 0
h -365 393 0
h -394 365 0
h -365 394 0
h -395 366 0
h -366 395 0
h -396 366 0
h -366 396 0
h -397 366 0
h -366 397 0
h -398 366 0
h -366 398 0
h -399 367 0
h -367 399 0
h -400 367 0
h -367 400 0
h -401 367 0
h -367 401 0
h -402 367 0
h -367 402 0
h -403 368 0
h -368 403 0
h -404 368 0
h -368 404 0
h -405 368 0
h -368 405 0
h -406 368 0
h -368 406 0
h -407 369 0
h -369 407 0
h -408 369 0
h -369 408 0
h -409 369 0
h -369 409 0
h -410 369 0
h -369 410 0
h -411 370 0
h -370 411 0
h -412 370 0
h -370 412 0
h -413 370 0
h -370 413 0
h -414 370 0
h -370 414 0
h -415 371 0
h -371 415 0
h -416 371 0
h -371 416 0
h -417 371 0
h -371 417 0
h -418 371 0
h -371 418 0
h -419 372 0
h -372 419 0
h -420 372 0
h -372 420 0
h -421 372 0
h -372 421 0
h -422 372 0
h -372 422 0
h -423 373 0
h -373 423 0
h -424 373 0
h -373 424 0
h -425 373 0
h -373 425 0
h -426 373 0
h -373 426 0
h -427 374 0
h -374 427 0
h -428 374 0
h -374 428 0
h -429 374 0
h -374 429 0
h -430 374 0
h -374 430 0
h -431 374 0
h -374 431 0
h -432 -267 173 0
h 267 432 0
h -173 432 0
h -433 -266 172 0
h 266 433 0
h -172 433 0
h -434 -265 171 0
h 265 434 0
h -171 434 0
h -435 -264 170 0
h 264 435 0
h -170 435 0
h -436 -263 169 0
h 263 436 0
h -169 436 0
h -437 -262 168 0
h 262 437 0
h -168 437 0
h -438 -261 167 0
h 261 438 0
h -167 438 0
h -439 -260 166 0
h 260 439 0
h -166 439 0
h 440 -174 -432 -433 -434 -435 -436 -437 -438 -439 259 258 257 0
h 174 -440 0
h 432 -440 0
h 433 -440 0
h 434 -440 0
h 435 -440 0
h 436 -440 0
h 437 -440 0
h 438 -440 0
h 439 -440 0
h -259 -440 0
h -258 -440 0
h -257 -440 0
h -441 -176 266 0
h 176 441 0
h -266 441 0
h -442 -175 265 0
h 175 442 0
h -265 442 0
h -443 -174 264 0
h 174 443 0
h -264 443 0
h -444 -173 263 0
h 173 444 0
h -263 444 0
h -445 -172 262 0
h 172 445 0
h -262 445 0
h -446 -171 261 0
h 171 446 0
h -261 446 0
h -447 -170 260 0
h 170 447 0
h -260 447 0
h -448 -169 259 0
h 169 448 0
h -259 448 0
h -449 -168 258 0
h 168 449 0
h -258 449 0
h -450 -167 257 0
h 167 450 0
h -257 450 0
h 451 -267 -441 -442 -443 -444 -445 -446 -447 -448 -449 -450 166 0
h 267 -451 0
h 441 -451 0
h 442 -451 0
h 443 -451 0
h 444 -451 0
h 445 -451 0
h 446 -451 0
h 447 -451 0
h 448 -451 0
h 449 -451 0
h 450 -451 0
h -166 -451 0
h 452 -301 16 0
h 301 -452 0
h -16 -452 0
h 453 -16 301 0
h 16 -453 0
h -301 -453 0
h 454 -302 17 0
h 302 -454 0
h -17 -454 0
h 455 -17 302 0
h 17 -455 0
h -302 -455 0
h 456 -303 18 0
h 303 -456 0
h -18 -456 0
h 457 -18 303 0
h 18 -457 0
h -303 -457 0
h 458 -304 19 0
h 304 -458 0
h -19 -458 0
h 459 -19 304 0
h 19 -459 0
h -304 -459 0
h -460 -41 53 0
h 41 460 0
h -53 460 0
h -461 -40 52 0
h 40 461 0
h -52 461 0
h -462 -39 51 0
h 39 462 0
h -51 462 0
h -463 -38 50 0
h 38 463 0
h -50 463 0
h -464 -37 49 0
h 37 464 0
h -49 464 0
h -465 -36 48 0
h 36 465 0
h -48 465 0
h -466 -35 47 0
h 35 466 0
h -47 466 0
h -467 -34 46 0
h 34 467 0
h -46 467 0
h 468 -54 -460 -461 -462 -463 -464 -465 -466 -467 33 32 31 0
h 54 -468 0
h 460 -468 0
h 461 -468 0
h 462 -468 0
h 463 -468 0
h 464 -468 0
h 465 -468 0
h 466 -468 0
h 467 -468 0
h -33 -468 0
h -32 -468 0
h -31 -468 0
h -469 -56 40 0
h 56 469 0
h -40 469 0
h -470 -55 39 0
h 55 470 0
h -39 470 0
h -471 -54 38 0
h 54 471 0
h -38 471 0
h -472 -53 37 0
h 53 472 0
h -37 472 0
h -473 -52 36 0
h 52 473 0
h -36 473 0
h -474 -51 35 0
h 51 474 0
h -35 474 0
h -475 -50 34 0
h 50 475 0
h -34 475 0
h -476 -49 33 0
h 49 476 0
h -33 476 0
h -477 -48 32 0
h 48 477 0
h -32 477 0
h -478 -47 31 0
h 47 478 0
h -31 478 0
h 479 -41 -469 -470 -471 -472 -473 -474 -475 -476 -477 -478 46 0
h 41 -479 0
h 469 -479 0
h 470 -479 0
h 471 -479 0
h 472 -479 0
h 473 -479 0
h 474 -479 0
h 475 -479 0
h 476 -479 0
h 477 -479 0
h 478 -479 0
h -46 -479 0
h 480 -189 181 0
h 189 -480 0
h -181 -480 0
h 481 -181 189 0
h 181 -481 0
h -189 -481 0
h 482 -190 182 0
h 190 -482 0
h -182 -482 0
h 483 -182 190 0
h 182 -483 0
h -190 -483 0
h 484 -191 183 0
h 191 -484 0
h -183 -484 0
h 485 -183 191 0
h 183 -485 0
h -191 -485 0
h 486 -192 184 0
h 192 -486 0
h -184 -486 0
h 487 -184 192 0
h 184 -487 0
h -192 -487 0
h -488 -141 277 0
h 141 488 0
h -277 488 0
h -489 -140 276 0
h 140 489 0
h -276 489 0
h -490 -139 275 0
h 139 490 0
h -275 490 0
h -491 -138 274 0
h 138 491 0
h -274 491 0
h -492 -137 273 0
h 137 492 0
h -273 492 0
h -493 -136 272 0
h 136 493 0
h -272 493 0
h -494 -135 271 0
h 135 494 0
h -271 494 0
h -495 -134 270 0
h 134 495 0
h -270 495 0
h -496 -133 269 0
h 133 496 0
h -269 496 0
h -497 -132 268 0
h 132 497 0
h -268 497 0
h 498 -278 -488 -489 -490 -491 -492 -493 -494 -495 -496 -497 131 0
h 278 -498 0
h 488 -498 0
h 489 -498 0
h 490 -498 0
h 491 -498 0
h 492 -498 0
h 493 -498 0
h 494 -498 0
h 495 -498 0
h 496 -498 0
h 497 -498 0
h -131 -498 0
h -499 -278 139 0
h 278 499 0
h -139 499 0
h -500 -277 138 0
h 277 500 0
h -138 500 0
h -501 -276 137 0
h 276 501 0
h -137 501 0
h -502 -275 136 0
h 275 502 0
h -136 502 0
h -503 -274 135 0
h 274 503 0
h -135 503 0
h -504 -273 134 0
h 273 504 0
h -134 504 0
h -505 -272 133 0
h 272 505 0
h -133 505 0
h -506 -271 132 0
h 271 506 0
h -132 506 0
h -507 -270 131 0
h 270 507 0
h -131 507 0
h 508 -140 -499 -500 -501 -502 -503 -504 -505 -506 -507 269 268 0
h 140 -508 0
h 499 -508 0
h 500 -508 0
h 501 -508 0
h 502 -508 0
h 503 -508 0
h 504 -508 0
h 505 -508 0
h 506 -508 0
h 507 -508 0
h -269 -508 0
h -268 -508 0
h 509 -42 223 0
h 42 -509 0
h -223 -509 0
h 510 -223 42 0
h 223 -510 0
h -42 -510 0
h 511 -43 224 0
h 43 -511 0
h -224 -511 0
h 512 -224 43 0
h 224 -512 0
h -43 -512 0
h 513 -44 225 0
h 44 -513 0
h -225 -513 0
h 514 -225 44 0
h 225 -514 0
h -44 -514 0
h 515 -45 226 0
h 45 -515 0
h -226 -515 0
h 516 -226 45 0
h 226 -516 0
h -45 -516 0
h -517 -130 106 0
h 130 517 0
h -106 517 0
h -518 -129 105 0
h 129 518 0
h -105 518 0
h -519 -128 104 0
h 128 519 0
h -104 519 0
h -520 -127 103 0
h 127 520 0
h -103 520 0
h -521 -126 102 0
h 126 521 0
h -102 521 0
h -522 -125 101 0
h 125 522 0
h -101 522 0
h -523 -124 100 0
h 124 523 0
h -100 523 0
h -524 -123 99 0
h 123 524 0
h -99 524 0
h -525 -122 98 0
h 122 525 0
h -98 525 0
h 526 -107 -517 -518 -519 -520 -521 -522 -523 -524 -525 121 120 0
h 107 -526 0
h 517 -526 0
h 518 -526 0
h 519 -526 0
h 520 -526 0
h 521 -526 0
h 522 -526 0
h 523 -526 0
h 524 -526 0
h 525 -526 0
h -121 -526 0
h -120 -526 0
h -527 -108 128 0
h 108 527 0
h -128 527 0
h -528 -107 127 0
h 107 528 0
h -127 528 0
h -529 -106 126 0
h 106 529 0
h -126 529 0
h -530 -105 125 0
h 105 530 0
h -125 530 0
h -531 -104 124 0
h 104 531 0
h -124 531 0
h -532 -103 123 0
h 103 532 0
h -123 532 0
h -533 -102 122 0
h 102 533 0
h -122 533 0
h -534 -101 121 0
h 101 534 0
h -121 534 0
h -535 -100 120 0
h 100 535 0
h -120 535 0
h 536 -129 -527 -528 -529 -530 -531 -532 -533 -534 -535 99 98 0
h 129 -536 0
h 527 -536 0
h 528 -536 0
h 529 -536 0
h 530 -536 0
h 531 -536 0
h 532 -536 0
h 533 -536 0
h 534 -536 0
h 535 -536 0
h -99 -536 0
h -98 -536 0
h 537 -204 219 0
h 204 -537 0
h -219 -537 0
h 538 -219 204 0
h 219 -538 0
h -204 -538 0
h 539 -205 220 0
h 205 -539 0
h -220 -539 0
h 540 -220 205 0
h 220 -540 0
h -205 -540 0
h 541 -206 221 0
h 206 -541 0
h -221 -541 0
h 542 -221 206 0
h 221 -542 0
h -206 -542 0
h 543 -207 222 0
h 207 -543 0
h -222 -543 0
h 544 -222 207 0
h 222 -544 0
h -207 -544 0
h -545 -15 28 0
h 15 545 0
h -28 545 0
h -546 -14 27 0
h 14 546 0
h -27 546 0
h -547 -13 26 0
h 13 547 0
h -26 547 0
h -548 -12 25 0
h 12 548 0
h -25 548 0
h -549 -11 24 0
h 11 549 0
h -24 549 0
h -550 -10 23 0
h 10 550 0
h -23 550 0
h -551 -9 22 0
h 9 551 0
h -22 551 0
h -552 -8 21 0
h 8 552 0
h -21 552 0
h -553 -7 20 0
h 7 553 0
h -20 553 0
h 554 -29 -545 -546 -547 -548 -549 -550 -551 -552 -553 6 5 0
h 29 -554 0
h 545 -554 0
h 546 -554 0
h 547 -554 0
h 548 -554 0
h 549 -554 0
h 550 -554 0
h 551 -554 0
h 552 -554 0
h 553 -554 0
h -6 -554 0
h -5 -554 0
h -555 -30 13 0
h 30 555 0
h -13 555 0
h -556 -29 12 0
h 29 556 0
h -12 556 0
h -557 -28 11 0
h 28 557 0
h -11 557 0
h -558 -27 10 0
h 27 558 0
h -10 558 0
h -559 -26 9 0
h 26 559 0
h -9 559 0
h -560 -25 8 0
h 25 560 0
h -8 560 0
h -561 -24 7 0
h 24 561 0
h -7 561 0
h -562 -23 6 0
h 23 562 0
h -6 562 0
h -563 -22 5 0
h 22 563 0
h -5 563 0
h 564 -14 -555 -556 -557 -558 -559 -560 -561 -562 -563 21 20 0
h 14 -564 0
h 555 -564 0
h 556 -564 0
h 557 -564 0
h 558 -564 0
h 559 -564 0
h 560 -564 0
h 561 -564 0
h 562 -564 0
h 563 -564 0
h -21 -564 0
h -20 -564 0
h 565 -162 158 0
h 162 -565 0
h -158 -565 0
h 566 -158 162 0
h 158 -566 0
h -162 -566 0
h 567 -163 159 0
h 163 -567 0
h -159 -567 0
h 568 -159 163 0
h 159 -568 0
h -163 -568 0
h 569 -164 160 0
h 164 -569 0
h -160 -569 0
h 570 -160 164 0
h 160 -570 0
h -164 -570 0
h 571 -165 161 0
h 165 -571 0
h -161 -571 0
h 572 -161 165 0
h 161 -572 0
h -165 -572 0
h -573 -86 200 0
h 86 573 0
h -200 573 0
h -574 -85 199 0
h 85 574 0
h -199 574 0
h -575 -84 198 0
h 84 575 0
h -198 575 0
h -576 -83 197 0
h 83 576 0
h -197 576 0
h -577 -82 196 0
h 82 577 0
h -196 577 0
h -578 -81 195 0
h 81 578 0
h -195 578 0
h -579 -80 194 0
h 80 579 0
h -194 579 0
h -580 -79 193 0
h 79 580 0
h -193 580 0
h 581 -201 -573 -574 -575 -576 -577 -578 -579 -580 78 77 76 0
h 201 -581 0
h 573 -581 0
h 574 -581 0
h 575 -581 0
h 576 -581 0
h 577 -581 0
h 578 -581 0
h 579 -581 0
h 580 -581 0
h -78 -581 0
h -77 -581 0
h -76 -581 0
h -582 -203 84 0
h 203 582 0
h -84 582 0
h -583 -202 83 0
h 202 583 0
h -83 583 0
h -584 -201 82 0
h 201 584 0
h -82 584 0
h -585 -200 81 0
h 200 585 0
h -81 585 0
h -586 -199 80 0
h 199 586 0
h -80 586 0
h -587 -198 79 0
h 198 587 0
h -79 587 0
h -588 -197 78 0
h 197 588 0
h -78 588 0
h -589 -196 77 0
h 196 589 0
h -77 589 0
h -590 -195 76 0
h 195 590 0
h -76 590 0
h 591 -85 -582 -583 -584 -585 -586 -587 -588 -589 -590 194 193 0
h 85 -591 0
h 582 -591 0
h 583 -591 0
h 584 -591 0
h 585 -591 0
h 586 -591 0
h 587 -591 0
h 588 -591 0
h 589 -591 0
h 590 -591 0
h -194 -591 0
h -193 -591 0
h 592 -342 185 0
h 342 -592 0
h -185 -592 0
h 593 -185 342 0
h 185 -593 0
h -342 -593 0
h 594 -343 186 0
h 343 -594 0
h -186 -594 0
h 595 -186 343 0
h 186 -595 0
h -343 -595 0
h 596 -344 187 0
h 344 -596 0
h -187 -596 0
h 597 -187 344 0
h 187 -597 0
h -344 -597 0
h 598 -345 188 0
h 345 -598 0
h -188 -598 0
h 599 -188 345 0
h 188 -599 0
h -345 -599 0
h -600 -75 200 0
h 75 600 0
h -200 600 0
h -601 -74 199 0
h 74 601 0
h -199 601 0
h -602 -73 198 0
h 73 602 0
h -198 602 0
h -603 -72 197 0
h 72 603 0
h -197 603 0
h -604 -71 196 0
h 71 604 0
h -196 604 0
h -605 -70 195 0
h 70 605 0
h -195 605 0
h -606 -69 194 0
h 69 606 0
h -194 606 0
h -607 -68 193 0
h 68 607 0
h -193 607 0
h 608 -201 -600 -601 -602 -603 -604 -605 -606 -607 67 66 65 0
h 201 -608 0
h 600 -608 0
h 601 -608 0
h 602 -608 0
h 603 -608 0
h 604 -608 0
h 605 -608 0
h 606 -608 0
h 607 -608 0
h -67 -608 0
h -66 -608 0
h -65 -608 0
h -609 -203 73 0
h 203 609 0
h -73 609 0
h -610 -202 72 0
h 202 610 0
h -72 610 0
h -611 -201 71 0
h 201 611 0
h -71 611 0
h -612 -200 70 0
h 200 612 0
h -70 612 0
h -613 -199 69 0
h 199 613 0
h -69 613 0
h -614 -198 68 0
h 198 614 0
h -68 614 0
h -615 -197 67 0
h 197 615 0
h -67 615 0
h -616 -196 66 0
h 196 616 0
h -66 616 0
h -617 -195 65 0
h 195 617 0
h -65 617 0
h 618 -74 -609 -610 -611 -612 -613 -614 -615 -616 -617 194 193 0
h 74 -618 0
h 609 -618 0
h 610 -618 0
h 611 -618 0
h 612 -618 0
h 613 -618 0
h 614 -618 0
h 615 -618 0
h 616 -618 0
h 617 -618 0
h -194 -618 0
h -193 -618 0
h 619 -342 177 0
h 342 -619 0
h -177 -619 0
h 620 -177 342 0
h 177 -620 0
h -342 -620 0
h 621 -343 178 0
h 343 -621 0
h -178 -621 0
h 622 -178 343 0
h 178 -622 0
h -343 -622 0
h 623 -344 179 0
h 344 -623 0
h -179 -623 0
h 624 -179 344 0
h 179 -624 0
h -344 -624 0
h 625 -345 180 0
h 345 -625 0
h -180 -625 0
h 626 -180 345 0
h 180 -626 0
h -345 -626 0
h -627 -86 215 0
h 86 627 0
h -215 627 0
h -628 -85 214 0
h 85 628 0
h -214 628 0
h -629 -84 213 0
h 84 629 0
h -213 629 0
h -630 -83 212 0
h 83 630 0
h -212 630 0
h -631 -82 211 0
h 82 631 0
h -211 631 0
h -632 -81 210 0
h 81 632 0
h -210 632 0
h -633 -80 209 0
h 80 633 0
h -209 633 0
h -634 -79 208 0
h 79 634 0
h -208 634 0
h 635 -216 -627 -628 -629 -630 -631 -632 -633 -634 78 77 76 0
h 216 -635 0
h 627 -635 0
h 628 -635 0
h 629 -635 0
h 630 -635 0
h 631 -635 0
h 632 -635 0
h 633 -635 0
h 634 -635 0
h -78 -635 0
h -77 -635 0
h -76 -635 0
h -636 -218 84 0
h 218 636 0
h -84 636 0
h -637 -217 83 0
h 217 637 0
h -83 637 0
h -638 -216 82 0
h 216 638 0
h -82 638 0
h -639 -215 81 0
h 215 639 0
h -81 639 0
h -640 -214 80 0
h 214 640 0
h -80 640 0
h -641 -213 79 0
h 213 641 0
h -79 641 0
h -642 -212 78 0
h 212 642 0
h -78 642 0
h -643 -211 77 0
h 211 643 0
h -77 643 0
h -644 -210 76 0
h 210 644 0
h -76 644 0
h 645 -85 -636 -637 -638 -639 -640 -641 -642 -643 -644 209 208 0
h 85 -645 0
h 636 -645 0
h 637 -645 0
h 638 -645 0
h 639 -645 0
h 640 -645 0
h 641 -645 0
h 642 -645 0
h 643 -645 0
h 644 -645 0
h -209 -645 0
h -208 -645 0
h 646 -327 185 0
h 327 -646 0
h -185 -646 0
h 647 -185 327 0
h 185 -647 0
h -327 -647 0
h 648 -328 186 0
h 328 -648 0
h -186 -648 0
h 649 -186 328 0
h 186 -649 0
h -328 -649 0
h 650 -329 187 0
h 329 -650 0
h -187 -650 0
h 651 -187 329 0
h 187 -651 0
h -329 -651 0
h 652 -330 188 0
h 330 -652 0
h -188 -652 0
h 653 -188 330 0
h 188 -653 0
h -330 -653 0
h -654 -75 215 0
h 75 654 0
h -215 654 0
h -655 -74 214 0
h 74 655 0
h -214 655 0
h -656 -73 213 0
h 73 656 0
h -213 656 0
h -657 -72 212 0
h 72 657 0
h -212 657 0
h -658 -71 211 0
h 71 658 0
h -211 658 0
h -659 -70 210 0
h 70 659 0
h -210 659 0
h -660 -69 209 0
h 69 660 0
h -209 660 0
h -661 -68 208 0
h 68 661 0
h -208 661 0
h 662 -216 -654 -655 -656 -657 -658 -659 -660 -661 67 66 65 0
h 216 -662 0
h 654 -662 0
h 655 -662 0
h 656 -662 0
h 657 -662 0
h 658 -662 0
h 659 -662 0
h 660 -662 0
h 661 -662 0
h -67 -662 0
h -66 -662 0
h -65 -662 0
h -663 -218 73 0
h 218 663 0
h -73 663 0
h -664 -217 72 0
h 217 664 0
h -72 664 0
h -665 -216 71 0
h 216 665 0
h -71 665 0
h -666 -215 70 0
h 215 666 0
h -70 666 0
h -667 -214 69 0
h 214 667 0
h -69 667 0
h -668 -213 68 0
h 213 668 0
h -68 668 0
h -669 -212 67 0
h 212 669 0
h -67 669 0
h -670 -211 66 0
h 211 670 0
h -66 670 0
h -671 -210 65 0
h 210 671 0
h -65 671 0
h 672 -74 -663 -664 -665 -666 -667 -668 -669 -670 -671 209 208 0
h 74 -672 0
h 663 -672 0
h 664 -672 0
h 665 -672 0
h 666 -672 0
h 667 -672 0
h 668 -672 0
h 669 -672 0
h 670 -672 0
h 671 -672 0
h -209 -672 0
h -208 -672 0
h 673 -327 177 0
h 327 -673 0
h -177 -673 0
h 674 -177 327 0
h 177 -674 0
h -327 -674 0
h 675 -328 178 0
h 328 -675 0
h -178 -675 0
h 676 -178 328 0
h 178 -676 0
h -328 -676 0
h 677 -329 179 0
h 329 -677 0
h -179 -677 0
h 678 -179 329 0
h 179 -678 0
h -329 -678 0
h 679 -330 180 0
h 330 -679 0
h -180 -679 0
h 680 -180 330 0
h 180 -680 0
h -330 -680 0
h -681 -341 354 0
h 341 681 0
h -354 681 0
h -682 -340 353 0
h 340 682 0
h -353 682 0
h -683 -339 352 0
h 339 683 0
h -352 683 0
h -684 -338 351 0
h 338 684 0
h -351 684 0
h -685 -337 350 0
h 337 685 0
h -350 685 0
h -686 -336 349 0
h 336 686 0
h -349 686 0
h -687 -335 348 0
h 335 687 0
h -348 687 0
h -688 -334 347 0
h 334 688 0
h -347 688 0
h -689 -333 346 0
h 333 689 0
h -346 689 0
h 690 -355 -681 -682 -683 -684 -685 -686 -687 -688 -689 332 331 0
h 355 -690 0
h 681 -690 0
h 682 -690 0
h 683 -690 0
h 684 -690 0
h 685 -690 0
h 686 -690 0
h 687 -690 0
h 688 -690 0
h 689 -690 0
h -332 -690 0
h -331 -690 0
h -691 -356 340 0
h 356 691 0
h -340 691 0
h -692 -355 339 0
h 355 692 0
h -339 692 0
h -693 -354 338 0
h 354 693 0
h -338 693 0
h -694 -353 337 0
h 353 694 0
h -337 694 0
h -695 -352 336 0
h 352 695 0
h -336 695 0
h -696 -351 335 0
h 351 696 0
h -335 696 0
h -697 -350 334 0
h 350 697 0
h -334 697 0
h -698 -349 333 0
h 349 698 0
h -333 698 0
h -699 -348 332 0
h 348 699 0
h -332 699 0
h -700 -347 331 0
h 347 700 0
h -331 700 0
h 701 -341 -691 -692 -693 -694 -695 -696 -697 -698 -699 -700 346 0
h 341 -701 0
h 691 -701 0
h 692 -701 0
h 693 -701 0
h 694 -701 0
h 695 -701 0
h 696 -701 0
h 697 -701 0
h 698 -701 0
h 699 -701 0
h 700 -701 0
h -346 -701 0
h 702 -154 150 0
h 154 -702 0
h -150 -702 0
h 703 -150 154 0
h 150 -703 0
h -154 -703 0
h 704 -155 151 0
h 155 -704 0
h -151 -704 0
h 705 -151 155 0
h 151 -705 0
h -155 -705 0
h 706 -156 152 0
h 156 -706 0
h -152 -706 0
h 707 -152 156 0
h 152 -707 0
h -156 -707 0
h 708 -157 153 0
h 157 -708 0
h -153 -708 0
h 709 -153 157 0
h 153 -709 0
h -157 -709 0
h -710 -326 354 0
h 326 710 0
h -354 710 0
h -711 -325 353 0
h 325 711 0
h -353 711 0
h -712 -324 352 0
h 324 712 0
h -352 712 0
h -713 -323 351 0
h 323 713 0
h -351 713 0
h -714 -322 350 0
h 322 714 0
h -350 714 0
h -715 -321 349 0
h 321 715 0
h -349 715 0
h -716 -320 348 0
h 320 716 0
h -348 716 0
h -717 -319 347 0
h 319 717 0
h -347 717 0
h -718 -318 346 0
h 318 718 0
h -346 718 0
h 719 -355 -710 -711 -712 -713 -714 -715 -716 -717 -718 317 316 0
h 355 -719 0
h 710 -719 0
h 711 -719 0
h 712 -719 0
h 713 -719 0
h 714 -719 0
h 715 -719 0
h 716 -719 0
h 717 -719 0
h 718 -719 0
h -317 -719 0
h -316 -719 0
h -720 -356 325 0
h 356 720 0
h -325 720 0
h -721 -355 324 0
h 355 721 0
h -324 721 0
h -722 -354 323 0
h 354 722 0
h -323 722 0
h -723 -353 322 0
h 353 723 0
h -322 723 0
h -724 -352 321 0
h 352 724 0
h -321 724 0
h -725 -351 320 0
h 351 725 0
h -320 725 0
h -726 -350 319 0
h 350 726 0
h -319 726 0
h -727 -349 318 0
h 349 727 0
h -318 727 0
h -728 -348 317 0
h 348 728 0
h -317 728 0
h -729 -347 316 0
h 347 729 0
h -316 729 0
h 730 -326 -720 -721 -722 -723 -724 -725 -726 -727 -728 -729 346 0
h 326 -730 0
h 720 -730 0
h 721 -730 0
h 722 -730 0
h 723 -730 0
h 724 -730 0
h 725 -730 0
h 726 -730 0
h 727 -730 0
h 728 -730 0
h 729 -730 0
h -346 -730 0
h 731 -154 142 0
h 154 -731 0
h -142 -731 0
h 732 -142 154 0
h 142 -732 0
h -154 -732 0
h 733 -155 143 0
h 155 -733 0
h -143 -733 0
h 734 -143 155 0
h 143 -734 0
h -155 -734 0
h 735 -156 144 0
h 156 -735 0
h -144 -735 0
h 736 -144 156 0
h 144 -736 0
h -156 -736 0
h 737 -157 145 0
h 157 -737 0
h -145 -737 0
h 738 -145 157 0
h 145 -738 0
h -157 -738 0
h -739 -315 354 0
h 315 739 0
h -354 739 0
h -740 -314 353 0
h 314 740 0
h -353 740 0
h -741 -313 352 0
h 313 741 0
h -352 741 0
h -742 -312 351 0
h 312 742 0
h -351 742 0
h -743 -311 350 0
h 311 743 0
h -350 743 0
h -744 -310 349 0
h 310 744 0
h -349 744 0
h -745 -309 348 0
h 309 745 0
h -348 745 0
h -746 -308 347 0
h 308 746 0
h -347 746 0
h -747 -307 346 0
h 307 747 0
h -346 747 0
h 748 -355 -739 -740 -741 -742 -743 -744 -745 -746 -747 306 305 0
h 355 -748 0
h 739 -748 0
h 740 -748 0
h 741 -748 0
h 742 -748 0
h 743 -748 0
h 744 -748 0
h 745 -748 0
h 746 -748 0
h 747 -748 0
h -306 -748 0
h -305 -748 0
h -749 -356 314 0
h 356 749 0
h -314 749 0
h -750 -355 313 0
h 355 750 0
h -313 750 0
h -751 -354 312 0
h 354 751 0
h -312 751 0
h -752 -353 311 0
h 353 752 0
h -311 752 0
h -753 -352 310 0
h 352 753 0
h -310 753 0
h -754 -351 309 0
h 351 754 0
h -309 754 0
h -755 -350 308 0
h 350 755 0
h -308 755 0
h -756 -349 307 0
h 349 756 0
h -307 756 0
h -757 -348 306 0
h 348 757 0
h -306 757 0
h -758 -347 305 0
h 347 758 0
h -305 758 0
h 759 -315 -749 -750 -751 -752 -753 -754 -755 -756 -757 -758 346 0
h 315 -759 0
h 749 -759 0
h 750 -759 0
h 751 -759 0
h 752 -759 0
h 753 -759 0
h 754 -759 0
h 755 -759 0
h 756 -759 0
h 757 -759 0
h 758 -759 0
h -346 -759 0
h 760 -154 146 0
h 154 -760 0
h -146 -760 0
h 761 -146 154 0
h 146 -761 0
h -154 -761 0
h 762 -155 147 0
h 155 -762 0
h -147 -762 0
h 763 -147 155 0
h 147 -763 0
h -155 -763 0
h 764 -156 148 0
h 156 -764 0
h -148 -764 0
h 765 -148 156 0
h 148 -765 0
h -156 -765 0
h 766 -157 149 0
h 157 -766 0
h -149 -766 0
h 767 -149 157 0
h 149 -767 0
h -157 -767 0
h -768 -141 95 0
h 141 768 0
h -95 768 0
h -769 -140 94 0
h 140 769 0
h -94 769 0
h -770 -139 93 0
h 139 770 0
h -93 770 0
h -771 -138 92 0
h 138 771 0
h -92 771 0
h -772 -137 91 0
h 137 772 0
h -91 772 0
h -773 -136 90 0
h 136 773 0
h -90 773 0
h -774 -135 89 0
h 135 774 0
h -89 774 0
h -775 -134 88 0
h 134 775 0
h -88 775 0
h -776 -133 87 0
h 133 776 0
h -87 776 0
h 777 -96 -768 -769 -770 -771 -772 -773 -774 -775 -776 132 131 0
h 96 -777 0
h 768 -777 0
h 769 -777 0
h 770 -777 0
h 771 -777 0
h 772 -777 0
h 773 -777 0
h 774 -777 0
h 775 -777 0
h 776 -777 0
h -132 -777 0
h -131 -777 0
h -778 -97 139 0
h 97 778 0
h -139 778 0
h -779 -96 138 0
h 96 779 0
h -138 779 0
h -780 -95 137 0
h 95 780 0
h -137 780 0
h -781 -94 136 0
h 94 781 0
h -136 781 0
h -782 -93 135 0
h 93 782 0
h -135 782 0
h -783 -92 134 0
h 92 783 0
h -134 783 0
h -784 -91 133 0
h 91 784 0
h -133 784 0
h -785 -90 132 0
h 90 785 0
h -132 785 0
h -786 -89 131 0
h 89 786 0
h -131 786 0
h 787 -140 -778 -779 -780 -781 -782 -783 -784 -785 -786 88 87 0
h 140 -787 0
h 778 -787 0
h 779 -787 0
h 780 -787 0
h 781 -787 0
h 782 -787 0
h 783 -787 0
h 784 -787 0
h 785 -787 0
h 786 -787 0
h -88 -787 0
h -87 -787 0
h 788 -238 223 0
h 238 -788 0
h -223 -788 0
h 789 -223 238 0
h 223 -789 0
h -238 -789 0
h 790 -239 224 0
h 239 -790 0
h -224 -790 0
h 791 -224 239 0
h 224 -791 0
h -239 -791 0
h 792 -240 225 0
h 240 -792 0
h -225 -792 0
h 793 -225 240 0
h 225 -793 0
h -240 -793 0
h 794 -241 226 0
h 241 -794 0
h -226 -794 0
h 795 -226 241 0
h 226 -795 0
h -241 -795 0
h -796 -141 117 0
h 141 796 0
h -117 796 0
h -797 -140 116 0
h 140 797 0
h -116 797 0
h -798 -139 115 0
h 139 798 0
h -115 798 0
h -799 -138 114 0
h 138 799 0
h -114 799 0
h -800 -137 113 0
h 137 800 0
h -113 800 0
h -801 -136 112 0
h 136 801 0
h -112 801 0
h -802 -135 111 0
h 135 802 0
h -111 802 0
h -803 -134 110 0
h 134 803 0
h -110 803 0
h -804 -133 109 0
h 133 804 0
h -109 804 0
h 805 -118 -796 -797 -798 -799 -800 -801 -802 -803 -804 132 131 0
h 118 -805 0
h 796 -805 0
h 797 -805 0
h 798 -805 0
h 799 -805 0
h 800 -805 0
h 801 -805 0
h 802 -805 0
h 803 -805 0
h 804 -805 0
h -132 -805 0
h -131 -805 0
h -806 -119 139 0
h 119 806 0
h -139 806 0
h -807 -118 138 0
h 118 807 0
h -138 807 0
h -808 -117 137 0
h 117 808 0
h -137 808 0
h -809 -116 136 0
h 116 809 0
h -136 809 0
h -810 -115 135 0
h 115 810 0
h -135 810 0
h -811 -114 134 0
h 114 811 0
h -134 811 0
h -812 -113 133 0
h 113 812 0
h -133 812 0
h -813 -112 132 0
h 112 813 0
h -132 813 0
h -814 -111 131 0
h 111 814 0
h -131 814 0
h 815 -140 -806 -807 -808 -809 -810 -811 -812 -813 -814 110 109 0
h 140 -815 0
h 806 -815 0
h 807 -815 0
h 808 -815 0
h 809 -815 0
h 810 -815 0
h 811 -815 0
h 812 -815 0
h 813 -815 0
h 814 -815 0
h -110 -815 0
h -109 -815 0
h 816 -253 223 0
h 253 -816 0
h -223 -816 0
h 817 -223 253 0
h 223 -817 0
h -253 -817 0
h 818 -254 224 0
h 254 -818 0
h -224 -818 0
h 819 -224 254 0
h 224 -819 0
h -254 -819 0
h 820 -255 225 0
h 255 -820 0
h -225 -820 0
h 821 -225 255 0
h 225 -821 0
h -255 -821 0
h 822 -256 226 0
h 256 -822 0
h -226 -822 0
h 823 -226 256 0
h 226 -823 0
h -256 -823 0
h -824 -278 95 0
h 278 824 0
h -95 824 0
h -825 -277 94 0
h 277 825 0
h -94 825 0
h -826 -276 93 0
h 276 826 0
h -93 826 0
h -827 -275 92 0
h 275 827 0
h -92 827 0
h -828 -274 91 0
h 274 828 0
h -91 828 0
h -829 -273 90 0
h 273 829 0
h -90 829 0
h -830 -272 89 0
h 272 830 0
h -89 830 0
h -831 -271 88 0
h 271 831 0
h -88 831 0
h -832 -270 87 0
h 270 832 0
h -87 832 0
h 833 -96 -824 -825 -826 -827 -828 -829 -830 -831 -832 269 268 0
h 96 -833 0
h 824 -833 0
h 825 -833 0
h 826 -833 0
h 827 -833 0
h 828 -833 0
h 829 -833 0
h 830 -833 0
h 831 -833 0
h 832 -833 0
h -269 -833 0
h -268 -833 0
h -834 -97 277 0
h 97 834 0
h -277 834 0
h -835 -96 276 0
h 96 835 0
h -276 835 0
h -836 -95 275 0
h 95 836 0
h -275 836 0
h -837 -94 274 0
h 94 837 0
h -274 837 0
h -838 -93 273 0
h 93 838 0
h -273 838 0
h -839 -92 272 0
h 92 839 0
h -272 839 0
h -840 -91 271 0
h 91 840 0
h -271 840 0
h -841 -90 270 0
h 90 841 0
h -270 841 0
h -842 -89 269 0
h 89 842 0
h -269 842 0
h -843 -88 268 0
h 88 843 0
h -268 843 0
h 844 -278 -834 -835 -836 -837 -838 -839 -840 -841 -842 -843 87 0
h 278 -844 0
h 834 -844 0
h 835 -844 0
h 836 -844 0
h 837 -844 0
h 838 -844 0
h 839 -844 0
h 840 -844 0
h 841 -844 0
h 842 -844 0
h 843 -844 0
h -87 -844 0
h 845 -238 42 0
h 238 -845 0
h -42 -845 0
h 846 -42 238 0
h 42 -846 0
h -238 -846 0
h 847 -239 43 0
h 239 -847 0
h -43 -847 0
h 848 -43 239 0
h 43 -848 0
h -239 -848 0
h 849 -240 44 0
h 240 -849 0
h -44 -849 0
h 850 -44 240 0
h 44 -850 0
h -240 -850 0
h 851 -241 45 0
h 241 -851 0
h -45 -851 0
h 852 -45 241 0
h 45 -852 0
h -241 -852 0
h -853 -300 95 0
h 300 853 0
h -95 853 0
h -854 -299 94 0
h 299 854 0
h -94 854 0
h -855 -298 93 0
h 298 855 0
h -93 855 0
h -856 -297 92 0
h 297 856 0
h -92 856 0
h -857 -296 91 0
h 296 857 0
h -91 857 0
h -858 -295 90 0
h 295 858 0
h -90 858 0
h -859 -294 89 0
h 294 859 0
h -89 859 0
h -860 -293 88 0
h 293 860 0
h -88 860 0
h -861 -292 87 0
h 292 861 0
h -87 861 0
h 862 -96 -853 -854 -855 -856 -857 -858 -859 -860 -861 291 290 0
h 96 -862 0
h 853 -862 0
h 854 -862 0
h 855 -862 0
h 856 -862 0
h 857 -862 0
h 858 -862 0
h 859 -862 0
h 860 -862 0
h 861 -862 0
h -291 -862 0
h -290 -862 0
h -863 -97 299 0
h 97 863 0
h -299 863 0
h -864 -96 298 0
h 96 864 0
h -298 864 0
h -865 -95 297 0
h 95 865 0
h -297 865 0
h -866 -94 296 0
h 94 866 0
h -296 866 0
h -867 -93 295 0
h 93 867 0
h -295 867 0
h -868 -92 294 0
h 92 868 0
h -294 868 0
h -869 -91 293 0
h 91 869 0
h -293 869 0
h -870 -90 292 0
h 90 870 0
h -292 870 0
h -871 -89 291 0
h 89 871 0
h -291 871 0
h -872 -88 290 0
h 88 872 0
h -290 872 0
h 873 -300 -863 -864 -865 -866 -867 -868 -869 -870 -871 -872 87 0
h 300 -873 0
h 863 -873 0
h 864 -873 0
h 865 -873 0
h 866 -873 0
h 867 -873 0
h 868 -873 0
h 869 -873 0
h 870 -873 0
h 871 -873 0
h 872 -873 0
h -87 -873 0
h 874 -238 61 0
h 238 -874 0
h -61 -874 0
h 875 -61 238 0
h 61 -875 0
h -238 -875 0
h 876 -239 62 0
h 239 -876 0
h -62 -876 0
h 877 -62 239 0
h 62 -877 0
h -239 -877 0
h 878 -240 63 0
h 240 -878 0
h -63 -878 0
h 879 -63 240 0
h 63 -879 0
h -240 -879 0
h 880 -241 64 0
h 241 -880 0
h -64 -880 0
h 881 -64 241 0
h 64 -881 0
h -241 -881 0
h -882 -289 95 0
h 289 882 0
h -95 882 0
h -883 -288 94 0
h 288 883 0
h -94 883 0
h -884 -287 93 0
h 287 884 0
h -93 884 0
h -885 -286 92 0
h 286 885 0
h -92 885 0
h -886 -285 91 0
h 285 886 0
h -91 886 0
h -887 -284 90 0
h 284 887 0
h -90 887 0
h -888 -283 89 0
h 283 888 0
h -89 888 0
h -889 -282 88 0
h 282 889 0
h -88 889 0
h -890 -281 87 0
h 281 890 0
h -87 890 0
h 891 -96 -882 -883 -884 -885 -886 -887 -888 -889 -890 280 279 0
h 96 -891 0
h 882 -891 0
h 883 -891 0
h 884 -891 0
h 885 -891 0
h 886 -891 0
h 887 -891 0
h 888 -891 0
h 889 -891 0
h 890 -891 0
h -280 -891 0
h -279 -891 0
h -892 -97 288 0
h 97 892 0
h -288 892 0
h -893 -96 287 0
h 96 893 0
h -287 893 0
h -894 -95 286 0
h 95 894 0
h -286 894 0
h -895 -94 285 0
h 94 895 0
h -285 895 0
h -896 -93 284 0
h 93 896 0
h -284 896 0
h -897 -92 283 0
h 92 897 0
h -283 897 0
h -898 -91 282 0
h 91 898 0
h -282 898 0
h -899 -90 281 0
h 90 899 0
h -281 899 0
h -900 -89 280 0
h 89 900 0
h -280 900 0
h -901 -88 279 0
h 88 901 0
h -279 901 0
h 902 -289 -892 -893 -894 -895 -896 -897 -898 -899 -900 -901 87 0
h 289 -902 0
h 892 -902 0
h 893 -902 0
h 894 -902 0
h 895 -902 0
h 896 -902 0
h 897 -902 0
h 898 -902 0
h 899 -902 0
h 900 -902 0
h 901 -902 0
h -87 -902 0
h 903 -238 57 0
h 238 -903 0
h -57 -903 0
h 904 -57 238 0
h 57 -904 0
h -238 -904 0
h 905 -239 58 0
h 239 -905 0
h -58 -905 0
h 906 -58 239 0
h 58 -906 0
h -239 -906 0
h 907 -240 59 0
h 240 -907 0
h -59 -907 0
h 908 -59 240 0
h 59 -908 0
h -240 -908 0
h 909 -241 60 0
h 241 -909 0
h -60 -909 0
h 910 -60 241 0
h 60 -910 0
h -241 -910 0
h -911 -278 117 0
h 278 911 0
h -117 911 0
h -912 -277 116 0
h 277 912 0
h -116 912 0
h -913 -276 115 0
h 276 913 0
h -115 913 0
h -914 -275 114 0
h 275 914 0
h -114 914 0
h -915 -274 113 0
h 274 915 0
h -113 915 0
h -916 -273 112 0
h 273 916 0
h -112 916 0
h -917 -272 111 0
h 272 917 0
h -111 917 0
h -918 -271 110 0
h 271 918 0
h -110 918 0
h -919 -270 109 0
h 270 919 0
h -109 919 0
h 920 -118 -911 -912 -913 -914 -915 -916 -917 -918 -919 269 268 0
h 118 -920 0
h 911 -920 0
h 912 -920 0
h 913 -920 0
h 914 -920 0
h 915 -920 0
h 916 -920 0
h 917 -920 0
h 918 -920 0
h 919 -920 0
h -269 -920 0
h -268 -920 0
h -921 -119 277 0
h 119 921 0
h -277 921 0
h -922 -118 276 0
h 118 922 0
h -276 922 0
h -923 -117 275 0
h 117 923 0
h -275 923 0
h -924 -116 274 0
h 116 924 0
h -274 924 0
h -925 -115 273 0
h 115 925 0
h -273 925 0
h -926 -114 272 0
h 114 926 0
h -272 926 0
h -927 -113 271 0
h 113 927 0
h -271 927 0
h -928 -112 270 0
h 112 928 0
h -270 928 0
h -929 -111 269 0
h 111 929 0
h -269 929 0
h -930 -110 268 0
h 110 930 0
h -268 930 0
h 931 -278 -921 -922 -923 -924 -925 -926 -927 -928 -929 -930 109 0
h 278 -931 0
h 921 -931 0
h 922 -931 0
h 923 -931 0
h 924 -931 0
h 925 -931 0
h 926 -931 0
h 927 -931 0
h 928 -931 0
h 929 -931 0
h 930 -931 0
h -109 -931 0
h 932 -253 42 0
h 253 -932 0
h -42 -932 0
h 933 -42 253 0
h 42 -933 0
h -253 -933 0
h 934 -254 43 0
h 254 -934 0
h -43 -934 0
h 935 -43 254 0
h 43 -935 0
h -254 -935 0
h 936 -255 44 0
h 255 -936 0
h -44 -936 0
h 937 -44 255 0
h 44 -937 0
h -255 -937 0
h 938 -256 45 0
h 256 -938 0
h -45 -938 0
h 939 -45 256 0
h 45 -939 0
h -256 -939 0
h -940 -300 117 0
h 300 940 0
h -117 940 0
h -941 -299 116 0
h 299 941 0
h -116 941 0
h -942 -298 115 0
h 298 942 0
h -115 942 0
h -943 -297 114 0
h 297 943 0
h -114 943 0
h -944 -296 113 0
h 296 944 0
h -113 944 0
h -945 -295 112 0
h 295 945 0
h -112 945 0
h -946 -294 111 0
h 294 946 0
h -111 946 0
h -947 -293 110 0
h 293 947 0
h -110 947 0
h -948 -292 109 0
h 292 948 0
h -109 948 0
h 949 -118 -940 -941 -942 -943 -944 -945 -946 -947 -948 291 290 0
h 118 -949 0
h 940 -949 0
h 941 -949 0
h 942 -949 0
h 943 -949 0
h 944 -949 0
h 945 -949 0
h 946 -949 0
h 947 -949 0
h 948 -949 0
h -291 -949 0
h -290 -949 0
h -950 -119 299 0
h 119 950 0
h -299 950 0
h -951 -118 298 0
h 118 951 0
h -298 951 0
h -952 -117 297 0
h 117 952 0
h -297 952 0
h -953 -116 296 0
h 116 953 0
h -296 953 0
h -954 -115 295 0
h 115 954 0
h -295 954 0
h -955 -114 294 0
h 114 955 0
h -294 955 0
h -956 -113 293 0
h 113 956 0
h -293 956 0
h -957 -112 292 0
h 112 957 0
h -292 957 0
h -958 -111 291 0
h 111 958 0
h -291 958 0
h -959 -110 290 0
h 110 959 0
h -290 959 0
h 960 -300 -950 -951 -952 -953 -954 -955 -956 -957 -958 -959 109 0
h 300 -960 0
h 950 -960 0
h 951 -960 0
h 952 -960 0
h 953 -960 0
h 954 -960 0
h 955 -960 0
h 956 -960 0
h 957 -960 0
h 958 -960 0
h 959 -960 0
h -109 -960 0
h 961 -253 61 0
h 253 -961 0
h -61 -961 0
h 962 -61 253 0
h 61 -962 0
h -253 -962 0
h 963 -254 62 0
h 254 -963 0
h -62 -963 0
h 964 -62 254 0
h 62 -964 0
h -254 -964 0
h 965 -255 63 0
h 255 -965 0
h -63 -965 0
h 966 -63 255 0
h 63 -966 0
h -255 -966 0
h 967 -256 64 0
h 256 -967 0
h -64 -967 0
h 968 -64 256 0
h 64 -968 0
h -256 -968 0
h -969 -289 117 0
h 289 969 0
h -117 969 0
h -970 -288 116 0
h 288 970 0
h -116 970 0
h -971 -287 115 0
h 287 971 0
h -115 971 0
h -972 -286 114 0
h 286 972 0
h -114 972 0
h -973 -285 113 0
h 285 973 0
h -113 973 0
h -974 -284 112 0
h 284 974 0
h -112 974 0
h -975 -283 111 0
h 283 975 0
h -111 975 0
h -976 -282 110 0
h 282 976 0
h -110 976 0
h -977 -281 109 0
h 281 977 0
h -109 977 0
h 978 -118 -969 -970 -971 -972 -973 -974 -975 -976 -977 280 279 0
h 118 -978 0
h 969 -978 0
h 970 -978 0
h 971 -978 0
h 972 -978 0
h 973 -978 0
h 974 -978 0
h 975 -978 0
h 976 -978 0
h 977 -978 0
h -280 -978 0
h -279 -978 0
h -979 -119 288 0
h 119 979 0
h -288 979 0
h -980 -118 287 0
h 118 980 0
h -287 980 0
h -981 -117 286 0
h 117 981 0
h -286 981 0
h -982 -116 285 0
h 116 982 0
h -285 982 0
h -983 -115 284 0
h 115 983 0
h -284 983 0
h -984 -114 283 0
h 114 984 0
h -283 984 0
h -985 -113 282 0
h 113 985 0
h -282 985 0
h -986 -112 281 0
h 112 986 0
h -281 986 0
h -987 -111 280 0
h 111 987 0
h -280 987 0
h -988 -110 279 0
h 110 988 0
h -279 988 0
h 989 -289 -979 -980 -981 -982 -983 -984 -985 -986 -987 -988 109 0
h 289 -989 0
h 979 -989 0
h 980 -989 0
h 981 -989 0
h 982 -989 0
h 983 -989 0
h 984 -989 0
h 985 -989 0
h 986 -989 0
h 987 -989 0
h 988 -989 0
h -109 -989 0
h 990 -253 57 0
h 253 -990 0
h -57 -990 0
h 991 -57 253 0
h 57 -991 0
h -253 -991 0
h 992 -254 58 0
h 254 -992 0
h -58 -992 0
h 993 -58 254 0
h 58 -993 0
h -254 -993 0
h 994 -255 59 0
h 255 -994 0
h -59 -994 0
h 995 -59 255 0
h 59 -995 0
h -255 -995 0
h 996 -256 60 0
h 256 -996 0
h -60 -996 0
h 997 -60 256 0
h 60 -997 0
h -256 -997 0
h -998 -278 139 0
h 278 998 0
h -139 998 0
h -999 -277 138 0
h 277 999 0
h -138 999 0
h -1000 -276 137 0
h 276 1000 0
h -137 1000 0
h -1001 -275 136 0
h 275 1001 0
h -136 1001 0
h -1002 -274 135 0
h 274 1002 0
h -135 1002 0
h -1003 -273 134 0
h 273 1003 0
h -134 1003 0
h -1004 -272 133 0
h 272 1004 0
h -133 1004 0
h -1005 -271 132 0
h 271 1005 0
h -132 1005 0
h -1006 -270 131 0
h 270 1006 0
h -131 1006 0
h 1007 -140 -998 -999 -1000 -1001 -1002 -1003 -1004 -1005 -1006 269 268 0
h 140 -1007 0
h 998 -1007 0
h 999 -1007 0
h 1000 -1007 0
h 1001 -1007 0
h 1002 -1007 0
h 1003 -1007 0
h 1004 -1007 0
h 1005 -1007 0
h 1006 -1007 0
h -269 -1007 0
h -268 -1007 0
h -1008 -141 277 0
h 141 1008 0
h -277 1008 0
h -1009 -140 276 0
h 140 1009 0
h -276 1009 0
h -1010 -139 275 0
h 139 1010 0
h -275 1010 0
h -1011 -138 274 0
h 138 1011 0
h -274 1011 0
h -1012 -137 273 0
h 137 1012 0
h -273 1012 0
h -1013 -136 272 0
h 136 1013 0
h -272 1013 0
h -1014 -135 271 0
h 135 1014 0
h -271 1014 0
h -1015 -134 270 0
h 134 1015 0
h -270 1015 0
h -1016 -133 269 0
h 133 1016 0
h -269 1016 0
h -1017 -132 268 0
h 132 1017 0
h -268 1017 0
h 1018 -278 -1008 -1009 -1010 -1011 -1012 -1013 -1014 -1015 -1016 -1017 131 0
h 278 -1018 0
h 1008 -1018 0
h 1009 -1018 0
h 1010 -1018 0
h 1011 -1018 0
h 1012 -1018 0
h 1013 -1018 0
h 1014 -1018 0
h 1015 -1018 0
h 1016 -1018 0
h 1017 -1018 0
h -131 -1018 0
h 1019 -223 42 0
h 223 -1019 0
h -42 -1019 0
h 1020 -42 223 0
h 42 -1020 0
h -223 -1020 0
h 1021 -224 43 0
h 224 -1021 0
h -43 -1021 0
h 1022 -43 224 0
h 43 -1022 0
h -224 -1022 0
h 1023 -225 44 0
h 225 -1023 0
h -44 -1023 0
h 1024 -44 225 0
h 44 -1024 0
h -225 -1024 0
h 1025 -226 45 0
h 226 -1025 0
h -45 -1025 0
h 1026 -45 226 0
h 45 -1026 0
h -226 -1026 0
h -1027 -300 139 0
h 300 1027 0
h -139 1027 0
h -1028 -299 138 0
h 299 1028 0
h -138 1028 0
h -1029 -298 137 0
h 298 1029 0
h -137 1029 0
h -1030 -297 136 0
h 297 1030 0
h -136 1030 0
h -1031 -296 135 0
h 296 1031 0
h -135 1031 0
h -1032 -295 134 0
h 295 1032 0
h -134 1032 0
h -1033 -294 133 0
h 294 1033 0
h -133 1033 0
h -1034 -293 132 0
h 293 1034 0
h -132 1034 0
h -1035 -292 131 0
h 292 1035 0
h -131 1035 0
h 1036 -140 -1027 -1028 -1029 -1030 -1031 -1032 -1033 -1034 -1035 291 290 0
h 140 -1036 0
h 1027 -1036 0
h 1028 -1036 0
h 1029 -1036 0
h 1030 -1036 0
h 1031 -1036 0
h 1032 -1036 0
h 1033 -1036 0
h 1034 -1036 0
h 1035 -1036 0
h -291 -1036 0
h -290 -1036 0
h -1037 -141 299 0
h 141 1037 0
h -299 1037 0
h -1038 -140 298 0
h 140 1038 0
h -298 1038 0
h -1039 -139 297 0
h 139 1039 0
h -297 1039 0
h -1040 -138 296 0
h 138 1040 0
h -296 1040 0
h -1041 -137 295 0
h 137 1041 0
h -295 1041 0
h -1042 -136 294 0
h 136 1042 0
h -294 1042 0
h -1043 -135 293 0
h 135 1043 0
h -293 1043 0
h -1044 -134 292 0
h 134 1044 0
h -292 1044 0
h -1045 -133 291 0
h 133 1045 0
h -291 1045 0
h -1046 -132 290 0
h 132 1046 0
h -290 1046 0
h 1047 -300 -1037 -1038 -1039 -1040 -1041 -1042 -1043 -1044 -1045 -1046 131 0
h 300 -1047 0
h 1037 -1047 0
h 1038 -1047 0
h 1039 -1047 0
h 1040 -1047 0
h 1041 -1047 0
h 1042 -1047 0
h 1043 -1047 0
h 1044 -1047 0
h 1045 -1047 0
h 1046 -1047 0
h -131 -1047 0
h 1048 -223 61 0
h 223 -1048 0
h -61 -1048 0
h 1049 -61 223 0
h 61 -1049 0
h -223 -1049 0
h 1050 -224 62 0
h 224 -1050 0
h -62 -1050 0
h 1051 -62 224 0
h 62 -1051 0
h -224 -1051 0
h 1052 -225 63 0
h 225 -1052 0
h -63 -1052 0
h 1053 -63 225 0
h 63 -1053 0
h -225 -1053 0
h 1054 -226 64 0
h 226 -1054 0
h -64 -1054 0
h 1055 -64 226 0
h 64 -1055 0
h -226 -1055 0
h -1056 -289 139 0
h 289 1056 0
h -139 1056 0
h -1057 -288 138 0
h 288 1057 0
h -138 1057 0
h -1058 -287 137 0
h 287 1058 0
h -137 1058 0
h -1059 -286 136 0
h 286 1059 0
h -136 1059 0
h -1060 -285 135 0
h 285 1060 0
h -135 1060 0
h -1061 -284 134 0
h 284 1061 0
h -134 1061 0
h -1062 -283 133 0
h 283 1062 0
h -133 1062 0
h -1063 -282 132 0
h 282 1063 0
h -132 1063 0
h -1064 -281 131 0
h 281 1064 0
h -131 1064 0
h 1065 -140 -1056 -1057 -1058 -1059 -1060 -1061 -1062 -1063 -1064 280 279 0
h 140 -1065 0
h 1056 -1065 0
h 1057 -1065 0
h 1058 -1065 0
h 1059 -1065 0
h 1060 -1065 0
h 1061 -1065 0
h 1062 -1065 0
h 1063 -1065 0
h 1064 -1065 0
h -280 -1065 0
h -279 -1065 0
h -1066 -141 288 0
h 141 1066 0
h -288 1066 0
h -1067 -140 287 0
h 140 1067 0
h -287 1067 0
h -1068 -139 286 0
h 139 1068 0
h -286 1068 0
h -1069 -138 285 0
h 138 1069 0
h -285 1069 0
h -1070 -137 284 0
h 137 1070 0
h -284 1070 0
h -1071 -136 283 0
h 136 1071 0
h -283 1071 0
h -1072 -135 282 0
h 135 1072 0
h -282 1072 0
h -1073 -134 281 0
h 134 1073 0
h -281 1073 0
h -1074 -133 280 0
h 133 1074 0
h -280 1074 0
h -1075 -132 279 0
h 132 1075 0
h -279 1075 0
h 1076 -289 -1066 -1067 -1068 -1069 -1070 -1071 -1072 -1073 -1074 -1075 131 0
h 289 -1076 0
h 1066 -1076 0
h 1067 -1076 0
h 1068 -1076 0
h 1069 -1076 0
h 1070 -1076 0
h 1071 -1076 0
h 1072 -1076 0
h 1073 -1076 0
h 1074 -1076 0
h 1075 -1076 0
h -131 -1076 0
h 1077 -223 57 0
h 223 -1077 0
h -57 -1077 0
h 1078 -57 223 0
h 57 -1078 0
h -223 -1078 0
h 1079 -224 58 0
h 224 -1079 0
h -58 -1079 0
h 1080 -58 224 0
h 58 -1080 0
h -224 -1080 0
h 1081 -225 59 0
h 225 -1081 0
h -59 -1081 0
h 1082 -59 225 0
h 59 -1082 0
h -225 -1082 0
h 1083 -226 60 0
h 226 -1083 0
h -60 -1083 0
h 1084 -60 226 0
h 60 -1084 0
h -226 -1084 0
h -1085 -130 249 0
h 130 1085 0
h -249 1085 0
h -1086 -129 248 0
h 129 1086 0
h -248 1086 0
h -1087 -128 247 0
h 128 1087 0
h -247 1087 0
h -1088 -127 246 0
h 127 1088 0
h -246 1088 0
h -1089 -126 245 0
h 126 1089 0
h -245 1089 0
h -1090 -125 244 0
h 125 1090 0
h -244 1090 0
h -1091 -124 243 0
h 124 1091 0
h -243 1091 0
h -1092 -123 242 0
h 123 1092 0
h -242 1092 0
h 1093 -250 -1085 -1086 -1087 -1088 -1089 -1090 -1091 -1092 122 121 120 0
h 250 -1093 0
h 1085 -1093 0
h 1086 -1093 0
h 1087 -1093 0
h 1088 -1093 0
h 1089 -1093 0
h 1090 -1093 0
h 1091 -1093 0
h 1092 -1093 0
h -122 -1093 0
h -121 -1093 0
h -120 -1093 0
h -1094 -252 128 0
h 252 1094 0
h -128 1094 0
h -1095 -251 127 0
h 251 1095 0
h -127 1095 0
h -1096 -250 126 0
h 250 1096 0
h -126 1096 0
h -1097 -249 125 0
h 249 1097 0
h -125 1097 0
h -1098 -248 124 0
h 248 1098 0
h -124 1098 0
h -1099 -247 123 0
h 247 1099 0
h -123 1099 0
h -1100 -246 122 0
h 246 1100 0
h -122 1100 0
h -1101 -245 121 0
h 245 1101 0
h -121 1101 0
h -1102 -244 120 0
h 244 1102 0
h -120 1102 0
h 1103 -129 -1094 -1095 -1096 -1097 -1098 -1099 -1100 -1101 -1102 243 242 0
h 129 -1103 0
h 1094 -1103 0
h 1095 -1103 0
h 1096 -1103 0
h 1097 -1103 0
h 1098 -1103 0
h 1099 -1103 0
h 1100 -1103 0
h 1101 -1103 0
h 1102 -1103 0
h -243 -1103 0
h -242 -1103 0
h 1104 -1 219 0
h 1 -1104 0
h -219 -1104 0
h 1105 -219 1 0
h 219 -1105 0
h -1 -1105 0
h 1106 -2 220 0
h 2 -1106 0
h -220 -1106 0
h 1107 -220 2 0
h 220 -1107 0
h -2 -1107 0
h 1108 -3 221 0
h 3 -1108 0
h -221 -1108 0
h 1109 -221 3 0
h 221 -1109 0
h -3 -1109 0
h 1110 -4 222 0
h 4 -1110 0
h -222 -1110 0
h 1111 -222 4 0
h 222 -1111 0
h -4 -1111 0
h -1112 -108 249 0
h 108 1112 0
h -249 1112 0
h -1113 -107 248 0
h 107 1113 0
h -248 1113 0
h -1114 -106 247 0
h 106 1114 0
h -247 1114 0
h -1115 -105 246 0
h 105 1115 0
h -246 1115 0
h -1116 -104 245 0
h 104 1116 0
h -245 1116 0
h -1117 -103 244 0
h 103 1117 0
h -244 1117 0
h -1118 -102 243 0
h 102 1118 0
h -243 1118 0
h -1119 -101 242 0
h 101 1119 0
h -242 1119 0
h 1120 -250 -1112 -1113 -1114 -1115 -1116 -1117 -1118 -1119 100 99 98 0
h 250 -1120 0
h 1112 -1120 0
h 1113 -1120 0
h 1114 -1120 0
h 1115 -1120 0
h 1116 -1120 0
h 1117 -1120 0
h 1118 -1120 0
h 1119 -1120 0
h -100 -1120 0
h -99 -1120 0
h -98 -1120 0
h -1121 -252 106 0
h 252 1121 0
h -106 1121 0
h -1122 -251 105 0
h 251 1122 0
h -105 1122 0
h -1123 -250 104 0
h 250 1123 0
h -104 1123 0
h -1124 -249 103 0
h 249 1124 0
h -103 1124 0
h -1125 -248 102 0
h 248 1125 0
h -102 1125 0
h -1126 -247 101 0
h 247 1126 0
h -101 1126 0
h -1127 -246 100 0
h 246 1127 0
h -100 1127 0
h -1128 -245 99 0
h 245 1128 0
h -99 1128 0
h -1129 -244 98 0
h 244 1129 0
h -98 1129 0
h 1130 -107 -1121 -1122 -1123 -1124 -1125 -1126 -1127 -1128 -1129 243 242 0
h 107 -1130 0
h 1121 -1130 0
h 1122 -1130 0
h 1123 -1130 0
h 1124 -1130 0
h 1125 -1130 0
h 1126 -1130 0
h 1127 -1130 0
h 1128 -1130 0
h 1129 -1130 0
h -243 -1130 0
h -242 -1130 0
h 1131 -1 204 0
h 1 -1131 0
h -204 -1131 0
h 1132 -204 1 0
h 204 -1132 0
h -1 -1132 0
h 1133 -2 205 0
h 2 -1133 0
h -205 -1133 0
h 1134 -205 2 0
h 205 -1134 0
h -2 -1134 0
h 1135 -3 206 0
h 3 -1135 0
h -206 -1135 0
h 1136 -206 3 0
h 206 -1136 0
h -3 -1136 0
h 1137 -4 207 0
h 4 -1137 0
h -207 -1137 0
h 1138 -207 4 0
h 207 -1138 0
h -4 -1138 0
h -1139 -130 234 0
h 130 1139 0
h -234 1139 0
h -1140 -129 233 0
h 129 1140 0
h -233 1140 0
h -1141 -128 232 0
h 128 1141 0
h -232 1141 0
h -1142 -127 231 0
h 127 1142 0
h -231 1142 0
h -1143 -126 230 0
h 126 1143 0
h -230 1143 0
h -1144 -125 229 0
h 125 1144 0
h -229 1144 0
h -1145 -124 228 0
h 124 1145 0
h -228 1145 0
h -1146 -123 227 0
h 123 1146 0
h -227 1146 0
h 1147 -235 -1139 -1140 -1141 -1142 -1143 -1144 -1145 -1146 122 121 120 0
h 235 -1147 0
h 1139 -1147 0
h 1140 -1147 0
h 1141 -1147 0
h 1142 -1147 0
h 1143 -1147 0
h 1144 -1147 0
h 1145 -1147 0
h 1146 -1147 0
h -122 -1147 0
h -121 -1147 0
h -120 -1147 0
h -1148 -237 128 0
h 237 1148 0
h -128 1148 0
h -1149 -236 127 0
h 236 1149 0
h -127 1149 0
h -1150 -235 126 0
h 235 1150 0
h -126 1150 0
h -1151 -234 125 0
h 234 1151 0
h -125 1151 0
h -1152 -233 124 0
h 233 1152 0
h -124 1152 0
h -1153 -232 123 0
h 232 1153 0
h -123 1153 0
h -1154 -231 122 0
h 231 1154 0
h -122 1154 0
h -1155 -230 121 0
h 230 1155 0
h -121 1155 0
h -1156 -229 120 0
h 229 1156 0
h -120 1156 0
h 1157 -129 -1148 -1149 -1150 -1151 -1152 -1153 -1154 -1155 -1156 228 227 0
h 129 -1157 0
h 1148 -1157 0
h 1149 -1157 0
h 1150 -1157 0
h 1151 -1157 0
h 1152 -1157 0
h 1153 -1157 0
h 1154 -1157 0
h 1155 -1157 0
h 1156 -1157 0
h -228 -1157 0
h -227 -1157 0
h 1158 -357 219 0
h 357 -1158 0
h -219 -1158 0
h 1159 -219 357 0
h 219 -1159 0
h -357 -1159 0
h 1160 -358 220 0
h 358 -1160 0
h -220 -1160 0
h 1161 -220 358 0
h 220 -1161 0
h -358 -1161 0
h 1162 -359 221 0
h 359 -1162 0
h -221 -1162 0
h 1163 -221 359 0
h 221 -1163 0
h -359 -1163 0
h 1164 -360 222 0
h 360 -1164 0
h -222 -1164 0
h 1165 -222 360 0
h 222 -1165 0
h -360 -1165 0
h -1166 -108 234 0
h 108 1166 0
h -234 1166 0
h -1167 -107 233 0
h 107 1167 0
h -233 1167 0
h -1168 -106 232 0
h 106 1168 0
h -232 1168 0
h -1169 -105 231 0
h 105 1169 0
h -231 1169 0
h -1170 -104 230 0
h 104 1170 0
h -230 1170 0
h -1171 -103 229 0
h 103 1171 0
h -229 1171 0
h -1172 -102 228 0
h 102 1172 0
h -228 1172 0
h -1173 -101 227 0
h 101 1173 0
h -227 1173 0
h 1174 -235 -1166 -1167 -1168 -1169 -1170 -1171 -1172 -1173 100 99 98 0
h 235 -1174 0
h 1166 -1174 0
h 1167 -1174 0
h 1168 -1174 0
h 1169 -1174 0
h 1170 -1174 0
h 1171 -1174 0
h 1172 -1174 0
h 1173 -1174 0
h -100 -1174 0
h -99 -1174 0
h -98 -1174 0
h -1175 -237 106 0
h 237 1175 0
h -106 1175 0
h -1176 -236 105 0
h 236 1176 0
h -105 1176 0
h -1177 -235 104 0
h 235 1177 0
h -104 1177 0
h -1178 -234 103 0
h 234 1178 0
h -103 1178 0
h -1179 -233 102 0
h 233 1179 0
h -102 1179 0
h -1180 -232 101 0
h 232 1180 0
h -101 1180 0
h -1181 -231 100 0
h 231 1181 0
h -100 1181 0
h -1182 -230 99 0
h 230 1182 0
h -99 1182 0
h -1183 -229 98 0
h 229 1183 0
h -98 1183 0
h 1184 -107 -1175 -1176 -1177 -1178 -1179 -1180 -1181 -1182 -1183 228 227 0
h 107 -1184 0
h 1175 -1184 0
h 1176 -1184 0
h 1177 -1184 0
h 1178 -1184 0
h 1179 -1184 0
h 1180 -1184 0
h 1181 -1184 0
h 1182 -1184 0
h 1183 -1184 0
h -228 -1184 0
h -227 -1184 0
h 1185 -357 204 0
h 357 -1185 0
h -204 -1185 0
h 1186 -204 357 0
h 204 -1186 0
h -357 -1186 0
h 1187 -358 205 0
h 358 -1187 0
h -205 -1187 0
h 1188 -205 358 0
h 205 -1188 0
h -358 -1188 0
h 1189 -359 206 0
h 359 -1189 0
h -206 -1189 0
h 1190 -206 359 0
h 206 -1190 0
h -359 -1190 0
h 1191 -360 207 0
h 360 -1191 0
h -207 -1191 0
h 1192 -207 360 0
h 207 -1192 0
h -360 -1192 0
h -1193 -130 249 0
h 130 1193 0
h -249 1193 0
h -1194 -129 248 0
h 129 1194 0
h -248 1194 0
h -1195 -128 247 0
h 128 1195 0
h -247 1195 0
h -1196 -127 246 0
h 127 1196 0
h -246 1196 0
h -1197 -126 245 0
h 126 1197 0
h -245 1197 0
h -1198 -125 244 0
h 125 1198 0
h -244 1198 0
h -1199 -124 243 0
h 124 1199 0
h -243 1199 0
h -1200 -123 242 0
h 123 1200 0
h -242 1200 0
h 1201 -250 -1193 -1194 -1195 -1196 -1197 -1198 -1199 -1200 122 121 120 0
h 250 -1201 0
h 1193 -1201 0
h 1194 -1201 0
h 1195 -1201 0
h 1196 -1201 0
h 1197 -1201 0
h 1198 -1201 0
h 1199 -1201 0
h 1200 -1201 0
h -122 -1201 0
h -121 -1201 0
h -120 -1201 0
h -1202 -252 128 0
h 252 1202 0
h -128 1202 0
h -1203 -251 127 0
h 251 1203 0
h -127 1203 0
h -1204 -250 126 0
h 250 1204 0
h -126 1204 0
h -1205 -249 125 0
h 249 1205 0
h -125 1205 0
h -1206 -248 124 0
h 248 1206 0
h -124 1206 0
h -1207 -247 123 0
h 247 1207 0
h -123 1207 0
h -1208 -246 122 0
h 246 1208 0
h -122 1208 0
h -1209 -245 121 0
h 245 1209 0
h -121 1209 0
h -1210 -244 120 0
h 244 1210 0
h -120 1210 0
h 1211 -129 -1202 -1203 -1204 -1205 -1206 -1207 -1208 -1209 -1210 243 242 0
h 129 -1211 0
h 1202 -1211 0
h 1203 -1211 0
h 1204 -1211 0
h 1205 -1211 0
h 1206 -1211 0
h 1207 -1211 0
h 1208 -1211 0
h 1209 -1211 0
h 1210 -1211 0
h -243 -1211 0
h -242 -1211 0
h 1212 -1 219 0
h 1 -1212 0
h -219 -1212 0
h 1213 -219 1 0
h 219 -1213 0
h -1 -1213 0
h 1214 -2 220 0
h 2 -1214 0
h -220 -1214 0
h 1215 -220 2 0
h 220 -1215 0
h -2 -1215 0
h 1216 -3 221 0
h 3 -1216 0
h -221 -1216 0
h 1217 -221 3 0
h 221 -1217 0
h -3 -1217 0
h 1218 -4 222 0
h 4 -1218 0
h -222 -1218 0
h 1219 -222 4 0
h 222 -1219 0
h -4 -1219 0
h -1220 -108 249 0
h 108 1220 0
h -249 1220 0
h -1221 -107 248 0
h 107 1221 0
h -248 1221 0
h -1222 -106 247 0
h 106 1222 0
h -247 1222 0
h -1223 -105 246 0
h 105 1223 0
h -246 1223 0
h -1224 -104 245 0
h 104 1224 0
h -245 1224 0
h -1225 -103 244 0
h 103 1225 0
h -244 1225 0
h -1226 -102 243 0
h 102 1226 0
h -243 1226 0
h -1227 -101 242 0
h 101 1227 0
h -242 1227 0
h 1228 -250 -1220 -1221 -1222 -1223 -1224 -1225 -1226 -1227 100 99 98 0
h 250 -1228 0
h 1220 -1228 0
h 1221 -1228 0
h 1222 -1228 0
h 1223 -1228 0
h 1224 -1228 0
h 1225 -1228 0
h 1226 -1228 0
h 1227 -1228 0
h -100 -1228 0
h -99 -1228 0
h -98 -1228 0
h -1229 -252 106 0
h 252 1229 0
h -106 1229 0
h -1230 -251 105 0
h 251 1230 0
h -105 1230 0
h -1231 -250 104 0
h 250 1231 0
h -104 1231 0
h -1232 -249 103 0
h 249 1232 0
h -103 1232 0
h -1233 -248 102 0
h 248 1233 0
h -102 1233 0
h -1234 -247 101 0
h 247 1234 0
h -101 1234 0
h -1235 -246 100 0
h 246 1235 0
h -100 1235 0
h -1236 -245 99 0
h 245 1236 0
h -99 1236 0
h -1237 -244 98 0
h 244 1237 0
h -98 1237 0
h 1238 -107 -1229 -1230 -1231 -1232 -1233 -1234 -1235 -1236 -1237 243 242 0
h 107 -1238 0
h 1229 -1238 0
h 1230 -1238 0
h 1231 -1238 0
h 1232 -1238 0
h 1233 -1238 0
h 1234 -1238 0
h 1235 -1238 0
h 1236 -1238 0
h 1237 -1238 0
h -243 -1238 0
h -242 -1238 0
h 1239 -1 204 0
h 1 -1239 0
h -204 -1239 0
h 1240 -204 1 0
h 204 -1240 0
h -1 -1240 0
h 1241 -2 205 0
h 2 -1241 0
h -205 -1241 0
h 1242 -205 2 0
h 205 -1242 0
h -2 -1242 0
h 1243 -3 206 0
h 3 -1243 0
h -206 -1243 0
h 1244 -206 3 0
h 206 -1244 0
h -3 -1244 0
h 1245 -4 207 0
h 4 -1245 0
h -207 -1245 0
h 1246 -207 4 0
h 207 -1246 0
h -4 -1246 0
h -1247 -130 234 0
h 130 1247 0
h -234 1247 0
h -1248 -129 233 0
h 129 1248 0
h -233 1248 0
h -1249 -128 232 0
h 128 1249 0
h -232 1249 0
h -1250 -127 231 0
h 127 1250 0
h -231 1250 0
h -1251 -126 230 0
h 126 1251 0
h -230 1251 0
h -1252 -125 229 0
h 125 1252 0
h -229 1252 0
h -1253 -124 228 0
h 124 1253 0
h -228 1253 0
h -1254 -123 227 0
h 123 1254 0
h -227 1254 0
h 1255 -235 -1247 -1248 -1249 -1250 -1251 -1252 -1253 -1254 122 121 120 0
h 235 -1255 0
h 1247 -1255 0
h 1248 -1255 0
h 1249 -1255 0
h 1250 -1255 0
h 1251 -1255 0
h 1252 -1255 0
h 1253 -1255 0
h 1254 -1255 0
h -122 -1255 0
h -121 -1255 0
h -120 -1255 0
h -1256 -237 128 0
h 237 1256 0
h -128 1256 0
h -1257 -236 127 0
h 236 1257 0
h -127 1257 0
h -1258 -235 126 0
h 235 1258 0
h -126 1258 0
h -1259 -234 125 0
h 234 1259 0
h -125 1259 0
h -1260 -233 124 0
h 233 1260 0
h -124 1260 0
h -1261 -232 123 0
h 232 1261 0
h -123 1261 0
h -1262 -231 122 0
h 231 1262 0
h -122 1262 0
h -1263 -230 121 0
h 230 1263 0
h -121 1263 0
h -1264 -229 120 0
h 229 1264 0
h -120 1264 0
h 1265 -129 -1256 -1257 -1258 -1259 -1260 -1261 -1262 -1263 -1264 228 227 0
h 129 -1265 0
h 1256 -1265 0
h 1257 -1265 0
h 1258 -1265 0
h 1259 -1265 0
h 1260 -1265 0
h 1261 -1265 0
h 1262 -1265 0
h 1263 -1265 0
h 1264 -1265 0
h -228 -1265 0
h -227 -1265 0
h 1266 -357 219 0
h 357 -1266 0
h -219 -1266 0
h 1267 -219 357 0
h 219 -1267 0
h -357 -1267 0
h 1268 -358 220 0
h 358 -1268 0
h -220 -1268 0
h 1269 -220 358 0
h 220 -1269 0
h -358 -1269 0
h 1270 -359 221 0
h 359 -1270 0
h -221 -1270 0
h 1271 -221 359 0
h 221 -1271 0
h -359 -1271 0
h 1272 -360 222 0
h 360 -1272 0
h -222 -1272 0
h 1273 -222 360 0
h 222 -1273 0
h -360 -1273 0
h -1274 -108 234 0
h 108 1274 0
h -234 1274 0
h -1275 -107 233 0
h 107 1275 0
h -233 1275 0
h -1276 -106 232 0
h 106 1276 0
h -232 1276 0
h -1277 -105 231 0
h 105 1277 0
h -231 1277 0
h -1278 -104 230 0
h 104 1278 0
h -230 1278 0
h -1279 -103 229 0
h 103 1279 0
h -229 1279 0
h -1280 -102 228 0
h 102 1280 0
h -228 1280 0
h -1281 -101 227 0
h 101 1281 0
h -227 1281 0
h 1282 -235 -1274 -1275 -1276 -1277 -1278 -1279 -1280 -1281 100 99 98 0
h 235 -1282 0
h 1274 -1282 0
h 1275 -1282 0
h 1276 -1282 0
h 1277 -1282 0
h 1278 -1282 0
h 1279 -1282 0
h 1280 -1282 0
h 1281 -1282 0
h -100 -1282 0
h -99 -1282 0
h -98 -1282 0
h -1283 -237 106 0
h 237 1283 0
h -106 1283 0
h -1284 -236 105 0
h 236 1284 0
h -105 1284 0
h -1285 -235 104 0
h 235 1285 0
h -104 1285 0
h -1286 -234 103 0
h 234 1286 0
h -103 1286 0
h -1287 -233 102 0
h 233 1287 0
h -102 1287 0
h -1288 -232 101 0
h 232 1288 0
h -101 1288 0
h -1289 -231 100 0
h 231 1289 0
h -100 1289 0
h -1290 -230 99 0
h 230 1290 0
h -99 1290 0
h -1291 -229 98 0
h 229 1291 0
h -98 1291 0
h 1292 -107 -1283 -1284 -1285 -1286 -1287 -1288 -1289 -1290 -1291 228 227 0
h 107 -1292 0
h 1283 -1292 0
h 1284 -1292 0
h 1285 -1292 0
h 1286 -1292 0
h 1287 -1292 0
h 1288 -1292 0
h 1289 -1292 0
h 1290 -1292 0
h 1291 -1292 0
h -228 -1292 0
h -227 -1292 0
h 1293 -357 204 0
h 357 -1293 0
h -204 -1293 0
h 1294 -204 357 0
h 204 -1294 0
h -357 -1294 0
h 1295 -358 205 0
h 358 -1295 0
h -205 -1295 0
h 1296 -205 358 0
h 205 -1296 0
h -358 -1296 0
h 1297 -359 206 0
h 359 -1297 0
h -206 -1297 0
h 1298 -206 359 0
h 206 -1298 0
h -359 -1298 0
h 1299 -360 207 0
h 360 -1299 0
h -207 -1299 0
h 1300 -207 360 0
h 207 -1300 0
h -360 -1300 0
h -1301 -341 354 0
h 341 1301 0
h -354 1301 0
h -1302 -340 353 0
h 340 1302 0
h -353 1302 0
h -1303 -339 352 0
h 339 1303 0
h -352 1303 0
h -1304 -338 351 0
h 338 1304 0
h -351 1304 0
h -1305 -337 350 0
h 337 1305 0
h -350 1305 0
h -1306 -336 349 0
h 336 1306 0
h -349 1306 0
h -1307 -335 348 0
h 335 1307 0
h -348 1307 0
h -1308 -334 347 0
h 334 1308 0
h -347 1308 0
h -1309 -333 346 0
h 333 1309 0
h -346 1309 0
h 1310 -355 -1301 -1302 -1303 -1304 -1305 -1306 -1307 -1308 -1309 332 331 0
h 355 -1310 0
h 1301 -1310 0
h 1302 -1310 0
h 1303 -1310 0
h 1304 -1310 0
h 1305 -1310 0
h 1306 -1310 0
h 1307 -1310 0
h 1308 -1310 0
h 1309 -1310 0
h -332 -1310 0
h -331 -1310 0
h -1311 -356 340 0
h 356 1311 0
h -340 1311 0
h -1312 -355 339 0
h 355 1312 0
h -339 1312 0
h -1313 -354 338 0
h 354 1313 0
h -338 1313 0
h -1314 -353 337 0
h 353 1314 0
h -337 1314 0
h -1315 -352 336 0
h 352 1315 0
h -336 1315 0
h -1316 -351 335 0
h 351 1316 0
h -335 1316 0
h -1317 -350 334 0
h 350 1317 0
h -334 1317 0
h -1318 -349 333 0
h 349 1318 0
h -333 1318 0
h -1319 -348 332 0
h 348 1319 0
h -332 1319 0
h -1320 -347 331 0
h 347 1320 0
h -331 1320 0
h 1321 -341 -1311 -1312 -1313 -1314 -1315 -1316 -1317 -1318 -1319 -1320 346 0
h 341 -1321 0
h 1311 -1321 0
h 1312 -1321 0
h 1313 -1321 0
h 1314 -1321 0
h 1315 -1321 0
h 1316 -1321 0
h 1317 -1321 0
h 1318 -1321 0
h 1319 -1321 0
h 1320 -1321 0
h -346 -1321 0
h 1322 -154 150 0
h 154 -1322 0
h -150 -1322 0
h 1323 -150 154 0
h 150 -1323 0
h -154 -1323 0
h 1324 -155 151 0
h 155 -1324 0
h -151 -1324 0
h 1325 -151 155 0
h 151 -1325 0
h -155 -1325 0
h 1326 -156 152 0
h 156 -1326 0
h -152 -1326 0
h 1327 -152 156 0
h 152 -1327 0
h -156 -1327 0
h 1328 -157 153 0
h 157 -1328 0
h -153 -1328 0
h 1329 -153 157 0
h 153 -1329 0
h -157 -1329 0
h -1330 -326 354 0
h 326 1330 0
h -354 1330 0
h -1331 -325 353 0
h 325 1331 0
h -353 1331 0
h -1332 -324 352 0
h 324 1332 0
h -352 1332 0
h -1333 -323 351 0
h 323 1333 0
h -351 1333 0
h -1334 -322 350 0
h 322 1334 0
h -350 1334 0
h -1335 -321 349 0
h 321 1335 0
h -349 1335 0
h -1336 -320 348 0
h 320 1336 0
h -348 1336 0
h -1337 -319 347 0
h 319 1337 0
h -347 1337 0
h -1338 -318 346 0
h 318 1338 0
h -346 1338 0
h 1339 -355 -1330 -1331 -1332 -1333 -1334 -1335 -1336 -1337 -1338 317 316 0
h 355 -1339 0
h 1330 -1339 0
h 1331 -1339 0
h 1332 -1339 0
h 1333 -1339 0
h 1334 -1339 0
h 1335 -1339 0
h 1336 -1339 0
h 1337 -1339 0
h 1338 -1339 0
h -317 -1339 0
h -316 -1339 0
h -1340 -356 325 0
h 356 1340 0
h -325 1340 0
h -1341 -355 324 0
h 355 1341 0
h -324 1341 0
h -1342 -354 323 0
h 354 1342 0
h -323 1342 0
h -1343 -353 322 0
h 353 1343 0
h -322 1343 0
h -1344 -352 321 0
h 352 1344 0
h -321 1344 0
h -1345 -351 320 0
h 351 1345 0
h -320 1345 0
h -1346 -350 319 0
h 350 1346 0
h -319 1346 0
h -1347 -349 318 0
h 349 1347 0
h -318 1347 0
h -1348 -348 317 0
h 348 1348 0
h -317 1348 0
h -1349 -347 316 0
h 347 1349 0
h -316 1349 0
h 1350 -326 -1340 -1341 -1342 -1343 -1344 -1345 -1346 -1347 -1348 -1349 346 0
h 326 -1350 0
h 1340 -1350 0
h 1341 -1350 0
h 1342 -1350 0
h 1343 -1350 0
h 1344 -1350 0
h 1345 -1350 0
h 1346 -1350 0
h 1347 -1350 0
h 1348 -1350 0
h 1349 -1350 0
h -346 -1350 0
h 1351 -154 142 0
h 154 -1351 0
h -142 -1351 0
h 1352 -142 154 0
h 142 -1352 0
h -154 -1352 0
h 1353 -155 143 0
h 155 -1353 0
h -143 -1353 0
h 1354 -143 155 0
h 143 -1354 0
h -155 -1354 0
h 1355 -156 144 0
h 156 -1355 0
h -144 -1355 0
h 1356 -144 156 0
h 144 -1356 0
h -156 -1356 0
h 1357 -157 145 0
h 157 -1357 0
h -145 -1357 0
h 1358 -145 157 0
h 145 -1358 0
h -157 -1358 0
h -1359 -315 354 0
h 315 1359 0
h -354 1359 0
h -1360 -314 353 0
h 314 1360 0
h -353 1360 0
h -1361 -313 352 0
h 313 1361 0
h -352 1361 0
h -1362 -312 351 0
h 312 1362 0
h -351 1362 0
h -1363 -311 350 0
h 311 1363 0
h -350 1363 0
h -1364 -310 349 0
h 310 1364 0
h -349 1364 0
h -1365 -309 348 0
h 309 1365 0
h -348 1365 0
h -1366 -308 347 0
h 308 1366 0
h -347 1366 0
h -1367 -307 346 0
h 307 1367 0
h -346 1367 0
h 1368 -355 -1359 -1360 -1361 -1362 -1363 -1364 -1365 -1366 -1367 306 305 0
h 355 -1368 0
h 1359 -1368 0
h 1360 -1368 0
h 1361 -1368 0
h 1362 -1368 0
h 1363 -1368 0
h 1364 -1368 0
h 1365 -1368 0
h 1366 -1368 0
h 1367 -1368 0
h -306 -1368 0
h -305 -1368 0
h -1369 -356 314 0
h 356 1369 0
h -314 1369 0
h -1370 -355 313 0
h 355 1370 0
h -313 1370 0
h -1371 -354 312 0
h 354 1371 0
h -312 1371 0
h -1372 -353 311 0
h 353 1372 0
h -311 1372 0
h -1373 -352 310 0
h 352 1373 0
h -310 1373 0
h -1374 -351 309 0
h 351 1374 0
h -309 1374 0
h -1375 -350 308 0
h 350 1375 0
h -308 1375 0
h -1376 -349 307 0
h 349 1376 0
h -307 1376 0
h -1377 -348 306 0
h 348 1377 0
h -306 1377 0
h -1378 -347 305 0
h 347 1378 0
h -305 1378 0
h 1379 -315 -1369 -1370 -1371 -1372 -1373 -1374 -1375 -1376 -1377 -1378 346 0
h 315 -1379 0
h 1369 -1379 0
h 1370 -1379 0
h 1371 -1379 0
h 1372 -1379 0
h 1373 -1379 0
h 1374 -1379 0
h 1375 -1379 0
h 1376 -1379 0
h 1377 -1379 0
h 1378 -1379 0
h -346 -1379 0
h 1380 -154 146 0
h 154 -1380 0
h -146 -1380 0
h 1381 -146 154 0
h 146 -1381 0
h -154 -1381 0
h 1382 -155 147 0
h 155 -1382 0
h -147 -1382 0
h 1383 -147 155 0
h 147 -1383 0
h -155 -1383 0
h 1384 -156 148 0
h 156 -1384 0
h -148 -1384 0
h 1385 -148 156 0
h 148 -1385 0
h -156 -1385 0
h 1386 -157 149 0
h 157 -1386 0
h -149 -1386 0
h 1387 -149 157 0
h 149 -1387 0
h -157 -1387 0
h -1388 -341 354 0
h 341 1388 0
h -354 1388 0
h -1389 -340 353 0
h 340 1389 0
h -353 1389 0
h -1390 -339 352 0
h 339 1390 0
h -352 1390 0
h -1391 -338 351 0
h 338 1391 0
h -351 1391 0
h -1392 -337 350 0
h 337 1392 0
h -350 1392 0
h -1393 -336 349 0
h 336 1393 0
h -349 1393 0
h -1394 -335 348 0
h 335 1394 0
h -348 1394 0
h -1395 -334 347 0
h 334 1395 0
h -347 1395 0
h -1396 -333 346 0
h 333 1396 0
h -346 1396 0
h 1397 -355 -1388 -1389 -1390 -1391 -1392 -1393 -1394 -1395 -1396 332 331 0
h 355 -1397 0
h 1388 -1397 0
h 1389 -1397 0
h 1390 -1397 0
h 1391 -1397 0
h 1392 -1397 0
h 1393 -1397 0
h 1394 -1397 0
h 1395 -1397 0
h 1396 -1397 0
h -332 -1397 0
h -331 -1397 0
h -1398 -356 340 0
h 356 1398 0
h -340 1398 0
h -1399 -355 339 0
h 355 1399 0
h -339 1399 0
h -1400 -354 338 0
h 354 1400 0
h -338 1400 0
h -1401 -353 337 0
h 353 1401 0
h -337 1401 0
h -1402 -352 336 0
h 352 1402 0
h -336 1402 0
h -1403 -351 335 0
h 351 1403 0
h -335 1403 0
h -1404 -350 334 0
h 350 1404 0
h -334 1404 0
h -1405 -349 333 0
h 349 1405 0
h -333 1405 0
h -1406 -348 332 0
h 348 1406 0
h -332 1406 0
h -1407 -347 331 0
h 347 1407 0
h -331 1407 0
h 1408 -341 -1398 -1399 -1400 -1401 -1402 -1403 -1404 -1405 -1406 -1407 346 0
h 341 -1408 0
h 1398 -1408 0
h 1399 -1408 0
h 1400 -1408 0
h 1401 -1408 0
h 1402 -1408 0
h 1403 -1408 0
h 1404 -1408 0
h 1405 -1408 0
h 1406 -1408 0
h 1407 -1408 0
h -346 -1408 0
h 1409 -154 150 0
h 154 -1409 0
h -150 -1409 0
h 1410 -150 154 0
h 150 -1410 0
h -154 -1410 0
h 1411 -155 151 0
h 155 -1411 0
h -151 -1411 0
h 1412 -151 155 0
h 151 -1412 0
h -155 -1412 0
h 1413 -156 152 0
h 156 -1413 0
h -152 -1413 0
h 1414 -152 156 0
h 152 -1414 0
h -156 -1414 0
h 1415 -157 153 0
h 157 -1415 0
h -153 -1415 0
h 1416 -153 157 0
h 153 -1416 0
h -157 -1416 0
h -1417 -326 354 0
h 326 1417 0
h -354 1417 0
h -1418 -325 353 0
h 325 1418 0
h -353 1418 0
h -1419 -324 352 0
h 324 1419 0
h -352 1419 0
h -1420 -323 351 0
h 323 1420 0
h -351 1420 0
h -1421 -322 350 0
h 322 1421 0
h -350 1421 0
h -1422 -321 349 0
h 321 1422 0
h -349 1422 0
h -1423 -320 348 0
h 320 1423 0
h -348 1423 0
h -1424 -319 347 0
h 319 1424 0
h -347 1424 0
h -1425 -318 346 0
h 318 1425 0
h -346 1425 0
h 1426 -355 -1417 -1418 -1419 -1420 -1421 -1422 -1423 -1424 -1425 317 316 0
h 355 -1426 0
h 1417 -1426 0
h 1418 -1426 0
h 1419 -1426 0
h 1420 -1426 0
h 1421 -1426 0
h 1422 -1426 0
h 1423 -1426 0
h 1424 -1426 0
h 1425 -1426 0
h -317 -1426 0
h -316 -1426 0
h -1427 -356 325 0
h 356 1427 0
h -325 1427 0
h -1428 -355 324 0
h 355 1428 0
h -324 1428 0
h -1429 -354 323 0
h 354 1429 0
h -323 1429 0
h -1430 -353 322 0
h 353 1430 0
h -322 1430 0
h -1431 -352 321 0
h 352 1431 0
h -321 1431 0
h -1432 -351 320 0
h 351 1432 0
h -320 1432 0
h -1433 -350 319 0
h 350 1433 0
h -319 1433 0
h -1434 -349 318 0
h 349 1434 0
h -318 1434 0
h -1435 -348 317 0
h 348 1435 0
h -317 1435 0
h -1436 -347 316 0
h 347 1436 0
h -316 1436 0
h 1437 -326 -1427 -1428 -1429 -1430 -1431 -1432 -1433 -1434 -1435 -1436 346 0
h 326 -1437 0
h 1427 -1437 0
h 1428 -1437 0
h 1429 -1437 0
h 1430 -1437 0
h 1431 -1437 0
h 1432 -1437 0
h 1433 -1437 0
h 1434 -1437 0
h 1435 -1437 0
h 1436 -1437 0
h -346 -1437 0
h 1438 -154 142 0
h 154 -1438 0
h -142 -1438 0
h 1439 -142 154 0
h 142 -1439 0
h -154 -1439 0
h 1440 -155 143 0
h 155 -1440 0
h -143 -1440 0
h 1441 -143 155 0
h 143 -1441 0
h -155 -1441 0
h 1442 -156 144 0
h 156 -1442 0
h -144 -1442 0
h 1443 -144 156 0
h 144 -1443 0
h -156 -1443 0
h 1444 -157 145 0
h 157 -1444 0
h -145 -1444 0
h 1445 -145 157 0
h 145 -1445 0
h -157 -1445 0
h -1446 -315 354 0
h 315 1446 0
h -354 1446 0
h -1447 -314 353 0
h 314 1447 0
h -353 1447 0
h -1448 -313 352 0
h 313 1448 0
h -352 1448 0
h -1449 -312 351 0
h 312 1449 0
h -351 1449 0
h -1450 -311 350 0
h 311 1450 0
h -350 1450 0
h -1451 -310 349 0
h 310 1451 0
h -349 1451 0
h -1452 -309 348 0
h 309 1452 0
h -348 1452 0
h -1453 -308 347 0
h 308 1453 0
h -347 1453 0
h -1454 -307 346 0
h 307 1454 0
h -346 1454 0
h 1455 -355 -1446 -1447 -1448 -1449 -1450 -1451 -1452 -1453 -1454 306 305 0
h 355 -1455 0
h 1446 -1455 0
h 1447 -1455 0
h 1448 -1455 0
h 1449 -1455 0
h 1450 -1455 0
h 1451 -1455 0
h 1452 -1455 0
h 1453 -1455 0
h 1454 -1455 0
h -306 -1455 0
h -305 -1455 0
h -1456 -356 314 0
h 356 1456 0
h -314 1456 0
h -1457 -355 313 0
h 355 1457 0
h -313 1457 0
h -1458 -354 312 0
h 354 1458 0
h -312 1458 0
h -1459 -353 311 0
h 353 1459 0
h -311 1459 0
h -1460 -352 310 0
h 352 1460 0
h -310 1460 0
h -1461 -351 309 0
h 351 1461 0
h -309 1461 0
h -1462 -350 308 0
h 350 1462 0
h -308 1462 0
h -1463 -349 307 0
h 349 1463 0
h -307 1463 0
h -1464 -348 306 0
h 348 1464 0
h -306 1464 0
h -1465 -347 305 0
h 347 1465 0
h -305 1465 0
h 1466 -315 -1456 -1457 -1458 -1459 -1460 -1461 -1462 -1463 -1464 -1465 346 0
h 315 -1466 0
h 1456 -1466 0
h 1457 -1466 0
h 1458 -1466 0
h 1459 -1466 0
h 1460 -1466 0
h 1461 -1466 0
h 1462 -1466 0
h 1463 -1466 0
h 1464 -1466 0
h 1465 -1466 0
h -346 -1466 0
h 1467 -154 146 0
h 154 -1467 0
h -146 -1467 0
h 1468 -146 154 0
h 146 -1468 0
h -154 -1468 0
h 1469 -155 147 0
h 155 -1469 0
h -147 -1469 0
h 1470 -147 155 0
h 147 -1470 0
h -155 -1470 0
h 1471 -156 148 0
h 156 -1471 0
h -148 -1471 0
h 1472 -148 156 0
h 148 -1472 0
h -156 -1472 0
h 1473 -157 149 0
h 157 -1473 0
h -149 -1473 0
h 1474 -149 157 0
h 149 -1474 0
h -157 -1474 0
h -1475 -141 95 0
h 141 1475 0
h -95 1475 0
h -1476 -140 94 0
h 140 1476 0
h -94 1476 0
h -1477 -139 93 0
h 139 1477 0
h -93 1477 0
h -1478 -138 92 0
h 138 1478 0
h -92 1478 0
h -1479 -137 91 0
h 137 1479 0
h -91 1479 0
h -1480 -136 90 0
h 136 1480 0
h -90 1480 0
h -1481 -135 89 0
h 135 1481 0
h -89 1481 0
h -1482 -134 88 0
h 134 1482 0
h -88 1482 0
h -1483 -133 87 0
h 133 1483 0
h -87 1483 0
h 1484 -96 -1475 -1476 -1477 -1478 -1479 -1480 -1481 -1482 -1483 132 131 0
h 96 -1484 0
h 1475 -1484 0
h 1476 -1484 0
h 1477 -1484 0
h 1478 -1484 0
h 1479 -1484 0
h 1480 -1484 0
h 1481 -1484 0
h 1482 -1484 0
h 1483 -1484 0
h -132 -1484 0
h -131 -1484 0
h -1485 -97 139 0
h 97 1485 0
h -139 1485 0
h -1486 -96 138 0
h 96 1486 0
h -138 1486 0
h -1487 -95 137 0
h 95 1487 0
h -137 1487 0
h -1488 -94 136 0
h 94 1488 0
h -136 1488 0
h -1489 -93 135 0
h 93 1489 0
h -135 1489 0
h -1490 -92 134 0
h 92 1490 0
h -134 1490 0
h -1491 -91 133 0
h 91 1491 0
h -133 1491 0
h -1492 -90 132 0
h 90 1492 0
h -132 1492 0
h -1493 -89 131 0
h 89 1493 0
h -131 1493 0
h 1494 -140 -1485 -1486 -1487 -1488 -1489 -1490 -1491 -1492 -1493 88 87 0
h 140 -1494 0
h 1485 -1494 0
h 1486 -1494 0
h 1487 -1494 0
h 1488 -1494 0
h 1489 -1494 0
h 1490 -1494 0
h 1491 -1494 0
h 1492 -1494 0
h 1493 -1494 0
h -88 -1494 0
h -87 -1494 0
h 1495 -238 223 0
h 238 -1495 0
h -223 -1495 0
h 1496 -223 238 0
h 223 -1496 0
h -238 -1496 0
h 1497 -239 224 0
h 239 -1497 0
h -224 -1497 0
h 1498 -224 239 0
h 224 -1498 0
h -239 -1498 0
h 1499 -240 225 0
h 240 -1499 0
h -225 -1499 0
h 1500 -225 240 0
h 225 -1500 0
h -240 -1500 0
h 1501 -241 226 0
h 241 -1501 0
h -226 -1501 0
h 1502 -226 241 0
h 226 -1502 0
h -241 -1502 0
h -1503 -141 117 0
h 141 1503 0
h -117 1503 0
h -1504 -140 116 0
h 140 1504 0
h -116 1504 0
h -1505 -139 115 0
h 139 1505 0
h -115 1505 0
h -1506 -138 114 0
h 138 1506 0
h -114 1506 0
h -1507 -137 113 0
h 137 1507 0
h -113 1507 0
h -1508 -136 112 0
h 136 1508 0
h -112 1508 0
h -1509 -135 111 0
h 135 1509 0
h -111 1509 0
h -1510 -134 110 0
h 134 1510 0
h -110 1510 0
h -1511 -133 109 0
h 133 1511 0
h -109 1511 0
h 1512 -118 -1503 -1504 -1505 -1506 -1507 -1508 -1509 -1510 -1511 132 131 0
h 118 -1512 0
h 1503 -1512 0
h 1504 -1512 0
h 1505 -1512 0
h 1506 -1512 0
h 1507 -1512 0
h 1508 -1512 0
h 1509 -1512 0
h 1510 -1512 0
h 1511 -1512 0
h -132 -1512 0
h -131 -1512 0
h -1513 -119 139 0
h 119 1513 0
h -139 1513 0
h -1514 -118 138 0
h 118 1514 0
h -138 1514 0
h -1515 -117 137 0
h 117 1515 0
h -137 1515 0
h -1516 -116 136 0
h 116 1516 0
h -136 1516 0
h -1517 -115 135 0
h 115 1517 0
h -135 1517 0
h -1518 -114 134 0
h 114 1518 0
h -134 1518 0
h -1519 -113 133 0
h 113 1519 0
h -133 1519 0
h -1520 -112 132 0
h 112 1520 0
h -132 1520 0
h -1521 -111 131 0
h 111 1521 0
h -131 1521 0
h 1522 -140 -1513 -1514 -1515 -1516 -1517 -1518 -1519 -1520 -1521 110 109 0
h 140 -1522 0
h 1513 -1522 0
h 1514 -1522 0
h 1515 -1522 0
h 1516 -1522 0
h 1517 -1522 0
h 1518 -1522 0
h 1519 -1522 0
h 1520 -1522 0
h 1521 -1522 0
h -110 -1522 0
h -109 -1522 0
h 1523 -253 223 0
h 253 -1523 0
h -223 -1523 0
h 1524 -223 253 0
h 223 -1524 0
h -253 -1524 0
h 1525 -254 224 0
h 254 -1525 0
h -224 -1525 0
h 1526 -224 254 0
h 224 -1526 0
h -254 -1526 0
h 1527 -255 225 0
h 255 -1527 0
h -225 -1527 0
h 1528 -225 255 0
h 225 -1528 0
h -255 -1528 0
h 1529 -256 226 0
h 256 -1529 0
h -226 -1529 0
h 1530 -226 256 0
h 226 -1530 0
h -256 -1530 0
h -1531 -278 95 0
h 278 1531 0
h -95 1531 0
h -1532 -277 94 0
h 277 1532 0
h -94 1532 0
h -1533 -276 93 0
h 276 1533 0
h -93 1533 0
h -1534 -275 92 0
h 275 1534 0
h -92 1534 0
h -1535 -274 91 0
h 274 1535 0
h -91 1535 0
h -1536 -273 90 0
h 273 1536 0
h -90 1536 0
h -1537 -272 89 0
h 272 1537 0
h -89 1537 0
h -1538 -271 88 0
h 271 1538 0
h -88 1538 0
h -1539 -270 87 0
h 270 1539 0
h -87 1539 0
h 1540 -96 -1531 -1532 -1533 -1534 -1535 -1536 -1537 -1538 -1539 269 268 0
h 96 -1540 0
h 1531 -1540 0
h 1532 -1540 0
h 1533 -1540 0
h 1534 -1540 0
h 1535 -1540 0
h 1536 -1540 0
h 1537 -1540 0
h 1538 -1540 0
h 1539 -1540 0
h -269 -1540 0
h -268 -1540 0
h -1541 -97 277 0
h 97 1541 0
h -277 1541 0
h -1542 -96 276 0
h 96 1542 0
h -276 1542 0
h -1543 -95 275 0
h 95 1543 0
h -275 1543 0
h -1544 -94 274 0
h 94 1544 0
h -274 1544 0
h -1545 -93 273 0
h 93 1545 0
h -273 1545 0
h -1546 -92 272 0
h 92 1546 0
h -272 1546 0
h -1547 -91 271 0
h 91 1547 0
h -271 1547 0
h -1548 -90 270 0
h 90 1548 0
h -270 1548 0
h -1549 -89 269 0
h 89 1549 0
h -269 1549 0
h -1550 -88 268 0
h 88 1550 0
h -268 1550 0
h 1551 -278 -1541 -1542 -1543 -1544 -1545 -1546 -1547 -1548 -1549 -1550 87 0
h 278 -1551 0
h 1541 -1551 0
h 1542 -1551 0
h 1543 -1551 0
h 1544 -1551 0
h 1545 -1551 0
h 1546 -1551 0
h 1547 -1551 0
h 1548 -1551 0
h 1549 -1551 0
h 1550 -1551 0
h -87 -1551 0
h 1552 -238 42 0
h 238 -1552 0
h -42 -1552 0
h 1553 -42 238 0
h 42 -1553 0
h -238 -1553 0
h 1554 -239 43 0
h 239 -1554 0
h -43 -1554 0
h 1555 -43 239 0
h 43 -1555 0
h -239 -1555 0
h 1556 -240 44 0
h 240 -1556 0
h -44 -1556 0
h 1557 -44 240 0
h 44 -1557 0
h -240 -1557 0
h 1558 -241 45 0
h 241 -1558 0
h -45 -1558 0
h 1559 -45 241 0
h 45 -1559 0
h -241 -1559 0
h -1560 -300 95 0
h 300 1560 0
h -95 1560 0
h -1561 -299 94 0
h 299 1561 0
h -94 1561 0
h -1562 -298 93 0
h 298 1562 0
h -93 1562 0
h -1563 -297 92 0
h 297 1563 0
h -92 1563 0
h -1564 -296 91 0
h 296 1564 0
h -91 1564 0
h -1565 -295 90 0
h 295 1565 0
h -90 1565 0
h -1566 -294 89 0
h 294 1566 0
h -89 1566 0
h -1567 -293 88 0
h 293 1567 0
h -88 1567 0
h -1568 -292 87 0
h 292 1568 0
h -87 1568 0
h 1569 -96 -1560 -1561 -1562 -1563 -1564 -1565 -1566 -1567 -1568 291 290 0
h 96 -1569 0
h 1560 -1569 0
h 1561 -1569 0
h 1562 -1569 0
h 1563 -1569 0
h 1564 -1569 0
h 1565 -1569 0
h 1566 -1569 0
h 1567 -1569 0
h 1568 -1569 0
h -291 -1569 0
h -290 -1569 0
h -1570 -97 299 0
h 97 1570 0
h -299 1570 0
h -1571 -96 298 0
h 96 1571 0
h -298 1571 0
h -1572 -95 297 0
h 95 1572 0
h -297 1572 0
h -1573 -94 296 0
h 94 1573 0
h -296 1573 0
h -1574 -93 295 0
h 93 1574 0
h -295 1574 0
h -1575 -92 294 0
h 92 1575 0
h -294 1575 0
h -1576 -91 293 0
h 91 1576 0
h -293 1576 0
h -1577 -90 292 0
h 90 1577 0
h -292 1577 0
h -1578 -89 291 0
h 89 1578 0
h -291 1578 0
h -1579 -88 290 0
h 88 1579 0
h -290 1579 0
h 1580 -300 -1570 -1571 -1572 -1573 -1574 -1575 -1576 -1577 -1578 -1579 87 0
h 300 -1580 0
h 1570 -1580 0
h 1571 -1580 0
h 1572 -1580 0
h 1573 -1580 0
h 1574 -1580 0
h 1575 -1580 0
h 1576 -1580 0
h 1577 -1580 0
h 1578 -1580 0
h 1579 -1580 0
h -87 -1580 0
h 1581 -238 61 0
h 238 -1581 0
h -61 -1581 0
h 1582 -61 238 0
h 61 -1582 0
h -238 -1582 0
h 1583 -239 62 0
h 239 -1583 0
h -62 -1583 0
h 1584 -62 239 0
h 62 -1584 0
h -239 -1584 0
h 1585 -240 63 0
h 240 -1585 0
h -63 -1585 0
h 1586 -63 240 0
h 63 -1586 0
h -240 -1586 0
h 1587 -241 64 0
h 241 -1587 0
h -64 -1587 0
h 1588 -64 241 0
h 64 -1588 0
h -241 -1588 0
h -1589 -289 95 0
h 289 1589 0
h -95 1589 0
h -1590 -288 94 0
h 288 1590 0
h -94 1590 0
h -1591 -287 93 0
h 287 1591 0
h -93 1591 0
h -1592 -286 92 0
h 286 1592 0
h -92 1592 0
h -1593 -285 91 0
h 285 1593 0
h -91 1593 0
h -1594 -284 90 0
h 284 1594 0
h -90 1594 0
h -1595 -283 89 0
h 283 1595 0
h -89 1595 0
h -1596 -282 88 0
h 282 1596 0
h -88 1596 0
h -1597 -281 87 0
h 281 1597 0
h -87 1597 0
h 1598 -96 -1589 -1590 -1591 -1592 -1593 -1594 -1595 -1596 -1597 280 279 0
h 96 -1598 0
h 1589 -1598 0
h 1590 -1598 0
h 1591 -1598 0
h 1592 -1598 0
h 1593 -1598 0
h 1594 -1598 0
h 1595 -1598 0
h 1596 -1598 0
h 1597 -1598 0
h -280 -1598 0
h -279 -1598 0
h -1599 -97 288 0
h 97 1599 0
h -288 1599 0
h -1600 -96 287 0
h 96 1600 0
h -287 1600 0
h -1601 -95 286 0
h 95 1601 0
h -286 1601 0
h -1602 -94 285 0
h 94 1602 0
h -285 1602 0
h -1603 -93 284 0
h 93 1603 0
h -284 1603 0
h -1604 -92 283 0
h 92 1604 0
h -283 1604 0
h -1605 -91 282 0
h 91 1605 0
h -282 1605 0
h -1606 -90 281 0
h 90 1606 0
h -281 1606 0
h -1607 -89 280 0
h 89 1607 0
h -280 1607 0
h -1608 -88 279 0
h 88 1608 0
h -279 1608 0
h 1609 -289 -1599 -1600 -1601 -1602 -1603 -1604 -1605 -1606 -1607 -1608 87 0
h 289 -1609 0
h 1599 -1609 0
h 1600 -1609 0
h 1601 -1609 0
h 1602 -1609 0
h 1603 -1609 0
h 1604 -1609 0
h 1605 -1609 0
h 1606 -1609 0
h 1607 -1609 0
h 1608 -1609 0
h -87 -1609 0
h 1610 -238 57 0
h 238 -1610 0
h -57 -1610 0
h 1611 -57 238 0
h 57 -1611 0
h -238 -1611 0
h 1612 -239 58 0
h 239 -1612 0
h -58 -1612 0
h 1613 -58 239 0
h 58 -1613 0
h -239 -1613 0
h 1614 -240 59 0
h 240 -1614 0
h -59 -1614 0
h 1615 -59 240 0
h 59 -1615 0
h -240 -1615 0
h 1616 -241 60 0
h 241 -1616 0
h -60 -1616 0
h 1617 -60 241 0
h 60 -1617 0
h -241 -1617 0
h -1618 -278 117 0
h 278 1618 0
h -117 1618 0
h -1619 -277 116 0
h 277 1619 0
h -116 1619 0
h -1620 -276 115 0
h 276 1620 0
h -115 1620 0
h -1621 -275 114 0
h 275 1621 0
h -114 1621 0
h -1622 -274 113 0
h 274 1622 0
h -113 1622 0
h -1623 -273 112 0
h 273 1623 0
h -112 1623 0
h -1624 -272 111 0
h 272 1624 0
h -111 1624 0
h -1625 -271 110 0
h 271 1625 0
h -110 1625 0
h -1626 -270 109 0
h 270 1626 0
h -109 1626 0
h 1627 -118 -1618 -1619 -1620 -1621 -1622 -1623 -1624 -1625 -1626 269 268 0
h 118 -1627 0
h 1618 -1627 0
h 1619 -1627 0
h 1620 -1627 0
h 1621 -1627 0
h 1622 -1627 0
h 1623 -1627 0
h 1624 -1627 0
h 1625 -1627 0
h 1626 -1627 0
h -269 -1627 0
h -268 -1627 0
h -1628 -119 277 0
h 119 1628 0
h -277 1628 0
h -1629 -118 276 0
h 118 1629 0
h -276 1629 0
h -1630 -117 275 0
h 117 1630 0
h -275 1630 0
h -1631 -116 274 0
h 116 1631 0
h -274 1631 0
h -1632 -115 273 0
h 115 1632 0
h -273 1632 0
h -1633 -114 272 0
h 114 1633 0
h -272 1633 0
h -1634 -113 271 0
h 113 1634 0
h -271 1634 0
h -1635 -112 270 0
h 112 1635 0
h -270 1635 0
h -1636 -111 269 0
h 111 1636 0
h -269 1636 0
h -1637 -110 268 0
h 110 1637 0
h -268 1637 0
h 1638 -278 -1628 -1629 -1630 -1631 -1632 -1633 -1634 -1635 -1636 -1637 109 0
h 278 -1638 0
h 1628 -1638 0
h 1629 -1638 0
h 1630 -1638 0
h 1631 -1638 0
h 1632 -1638 0
h 1633 -1638 0
h 1634 -1638 0
h 1635 -1638 0
h 1636 -1638 0
h 1637 -1638 0
h -109 -1638 0
h 1639 -253 42 0
h 253 -1639 0
h -42 -1639 0
h 1640 -42 253 0
h 42 -1640 0
h -253 -1640 0
h 1641 -254 43 0
h 254 -1641 0
h -43 -1641 0
h 1642 -43 254 0
h 43 -1642 0
h -254 -1642 0
h 1643 -255 44 0
h 255 -1643 0
h -44 -1643 0
h 1644 -44 255 0
h 44 -1644 0
h -255 -1644 0
h 1645 -256 45 0
h 256 -1645 0
h -45 -1645 0
h 1646 -45 256 0
h 45 -1646 0
h -256 -1646 0
h -1647 -300 117 0
h 300 1647 0
h -117 1647 0
h -1648 -299 116 0
h 299 1648 0
h -116 1648 0
h -1649 -298 115 0
h 298 1649 0
h -115 1649 0
h -1650 -297 114 0
h 297 1650 0
h -114 1650 0
h -1651 -296 113 0
h 296 1651 0
h -113 1651 0
h -1652 -295 112 0
h 295 1652 0
h -112 1652 0
h -1653 -294 111 0
h 294 1653 0
h -111 1653 0
h -1654 -293 110 0
h 293 1654 0
h -110 1654 0
h -1655 -292 109 0
h 292 1655 0
h -109 1655 0
h 1656 -118 -1647 -1648 -1649 -1650 -1651 -1652 -1653 -1654 -1655 291 290 0
h 118 -1656 0
h 1647 -1656 0
h 1648 -1656 0
h 1649 -1656 0
h 1650 -1656 0
h 1651 -1656 0
h 1652 -1656 0
h 1653 -1656 0
h 1654 -1656 0
h 1655 -1656 0
h -291 -1656 0
h -290 -1656 0
h -1657 -119 299 0
h 119 1657 0
h -299 1657 0
h -1658 -118 298 0
h 118 1658 0
h -298 1658 0
h -1659 -117 297 0
h 117 1659 0
h -297 1659 0
h -1660 -116 296 0
h 116 1660 0
h -296 1660 0
h -1661 -115 295 0
h 115 1661 0
h -295 1661 0
h -1662 -114 294 0
h 114 1662 0
h -294 1662 0
h -1663 -113 293 0
h 113 1663 0
h -293 1663 0
h -1664 -112 292 0
h 112 1664 0
h -292 1664 0
h -1665 -111 291 0
h 111 1665 0
h -291 1665 0
h -1666 -110 290 0
h 110 1666 0
h -290 1666 0
h 1667 -300 -1657 -1658 -1659 -1660 -1661 -1662 -1663 -1664 -1665 -1666 109 0
h 300 -1667 0
h 1657 -1667 0
h 1658 -1667 0
h 1659 -1667 0
h 1660 -1667 0
h 1661 -1667 0
h 1662 -1667 0
h 1663 -1667 0
h 1664 -1667 0
h 1665 -1667 0
h 1666 -1667 0
h -109 -1667 0
h 1668 -253 61 0
h 253 -1668 0
h -61 -1668 0
h 1669 -61 253 0
h 61 -1669 0
h -253 -1669 0
h 1670 -254 62 0
h 254 -1670 0
h -62 -1670 0
h 1671 -62 254 0
h 62 -1671 0
h -254 -1671 0
h 1672 -255 63 0
h 255 -1672 0
h -63 -1672 0
h 1673 -63 255 0
h 63 -1673 0
h -255 -1673 0
h 1674 -256 64 0
h 256 -1674 0
h -64 -1674 0
h 1675 -64 256 0
h 64 -1675 0
h -256 -1675 0
h -1676 -289 117 0
h 289 1676 0
h -117 1676 0
h -1677 -288 116 0
h 288 1677 0
h -116 1677 0
h -1678 -287 115 0
h 287 1678 0
h -115 1678 0
h -1679 -286 114 0
h 286 1679 0
h -114 1679 0
h -1680 -285 113 0
h 285 1680 0
h -113 1680 0
h -1681 -284 112 0
h 284 1681 0
h -112 1681 0
h -1682 -283 111 0
h 283 1682 0
h -111 1682 0
h -1683 -282 110 0
h 282 1683 0
h -110 1683 0
h -1684 -281 109 0
h 281 1684 0
h -109 1684 0
h 1685 -118 -1676 -1677 -1678 -1679 -1680 -1681 -1682 -1683 -1684 280 279 0
h 118 -1685 0
h 1676 -1685 0
h 1677 -1685 0
h 1678 -1685 0
h 1679 -1685 0
h 1680 -1685 0
h 1681 -1685 0
h 1682 -1685 0
h 1683 -1685 0
h 1684 -1685 0
h -280 -1685 0
h -279 -1685 0
h -1686 -119 288 0
h 119 1686 0
h -288 1686 0
h -1687 -118 287 0
h 118 1687 0
h -287 1687 0
h -1688 -117 286 0
h 117 1688 0
h -286 1688 0
h -1689 -116 285 0
h 116 1689 0
h -285 1689 0
h -1690 -115 284 0
h 115 1690 0
h -284 1690 0
h -1691 -114 283 0
h 114 1691 0
h -283 1691 0
h -1692 -113 282 0
h 113 1692 0
h -282 1692 0
h -1693 -112 281 0
h 112 1693 0
h -281 1693 0
h -1694 -111 280 0
h 111 1694 0
h -280 1694 0
h -1695 -110 279 0
h 110 1695 0
h -279 1695 0
h 1696 -289 -1686 -1687 -1688 -1689 -1690 -1691 -1692 -1693 -1694 -1695 109 0
h 289 -1696 0
h 1686 -1696 0
h 1687 -1696 0
h 1688 -1696 0
h 1689 -1696 0
h 1690 -1696 0
h 1691 -1696 0
h 1692 -1696 0
h 1693 -1696 0
h 1694 -1696 0
h 1695 -1696 0
h -109 -1696 0
h 1697 -253 57 0
h 253 -1697 0
h -57 -1697 0
h 1698 -57 253 0
h 57 -1698 0
h -253 -1698 0
h 1699 -254 58 0
h 254 -1699 0
h -58 -1699 0
h 1700 -58 254 0
h 58 -1700 0
h -254 -1700 0
h 1701 -255 59 0
h 255 -1701 0
h -59 -1701 0
h 1702 -59 255 0
h 59 -1702 0
h -255 -1702 0
h 1703 -256 60 0
h 256 -1703 0
h -60 -1703 0
h 1704 -60 256 0
h 60 -1704 0
h -256 -1704 0
h -1705 -278 139 0
h 278 1705 0
h -139 1705 0
h -1706 -277 138 0
h 277 1706 0
h -138 1706 0
h -1707 -276 137 0
h 276 1707 0
h -137 1707 0
h -1708 -275 136 0
h 275 1708 0
h -136 1708 0
h -1709 -274 135 0
h 274 1709 0
h -135 1709 0
h -1710 -273 134 0
h 273 1710 0
h -134 1710 0
h -1711 -272 133 0
h 272 1711 0
h -133 1711 0
h -1712 -271 132 0
h 271 1712 0
h -132 1712 0
h -1713 -270 131 0
h 270 1713 0
h -131 1713 0
h 1714 -140 -1705 -1706 -1707 -1708 -1709 -1710 -1711 -1712 -1713 269 268 0
h 140 -1714 0
h 1705 -1714 0
h 1706 -1714 0
h 1707 -1714 0
h 1708 -1714 0
h 1709 -1714 0
h 1710 -1714 0
h 1711 -1714 0
h 1712 -1714 0
h 1713 -1714 0
h -269 -1714 0
h -268 -1714 0
h -1715 -141 277 0
h 141 1715 0
h -277 1715 0
h -1716 -140 276 0
h 140 1716 0
h -276 1716 0
h -1717 -139 275 0
h 139 1717 0
h -275 1717 0
h -1718 -138 274 0
h 138 1718 0
h -274 1718 0
h -1719 -137 273 0
h 137 1719 0
h -273 1719 0
h -1720 -136 272 0
h 136 1720 0
h -272 1720 0
h -1721 -135 271 0
h 135 1721 0
h -271 1721 0
h -1722 -134 270 0
h 134 1722 0
h -270 1722 0
h -1723 -133 269 0
h 133 1723 0
h -269 1723 0
h -1724 -132 268 0
h 132 1724 0
h -268 1724 0
h 1725 -278 -1715 -1716 -1717 -1718 -1719 -1720 -1721 -1722 -1723 -1724 131 0
h 278 -1725 0
h 1715 -1725 0
h 1716 -1725 0
h 1717 -1725 0
h 1718 -1725 0
h 1719 -1725 0
h 1720 -1725 0
h 1721 -1725 0
h 1722 -1725 0
h 1723 -1725 0
h 1724 -1725 0
h -131 -1725 0
h 1726 -223 42 0
h 223 -1726 0
h -42 -1726 0
h 1727 -42 223 0
h 42 -1727 0
h -223 -1727 0
h 1728 -224 43 0
h 224 -1728 0
h -43 -1728 0
h 1729 -43 224 0
h 43 -1729 0
h -224 -1729 0
h 1730 -225 44 0
h 225 -1730 0
h -44 -1730 0
h 1731 -44 225 0
h 44 -1731 0
h -225 -1731 0
h 1732 -226 45 0
h 226 -1732 0
h -45 -1732 0
h 1733 -45 226 0
h 45 -1733 0
h -226 -1733 0
h -1734 -300 139 0
h 300 1734 0
h -139 1734 0
h -1735 -299 138 0
h 299 1735 0
h -138 1735 0
h -1736 -298 137 0
h 298 1736 0
h -137 1736 0
h -1737 -297 136 0
h 297 1737 0
h -136 1737 0
h -1738 -296 135 0
h 296 1738 0
h -135 1738 0
h -1739 -295 134 0
h 295 1739 0
h -134 1739 0
h -1740 -294 133 0
h 294 1740 0
h -133 1740 0
h -1741 -293 132 0
h 293 1741 0
h -132 1741 0
h -1742 -292 131 0
h 292 1742 0
h -131 1742 0
h 1743 -140 -1734 -1735 -1736 -1737 -1738 -1739 -1740 -1741 -1742 291 290 0
h 140 -1743 0
h 1734 -1743 0
h 1735 -1743 0
h 1736 -1743 0
h 1737 -1743 0
h 1738 -1743 0
h 1739 -1743 0
h 1740 -1743 0
h 1741 -1743 0
h 1742 -1743 0
h -291 -1743 0
h -290 -1743 0
h -1744 -141 299 0
h 141 1744 0
h -299 1744 0
h -1745 -140 298 0
h 140 1745 0
h -298 1745 0
h -1746 -139 297 0
h 139 1746 0
h -297 1746 0
h -1747 -138 296 0
h 138 1747 0
h -296 1747 0
h -1748 -137 295 0
h 137 1748 0
h -295 1748 0
h -1749 -136 294 0
h 136 1749 0
h -294 1749 0
h -1750 -135 293 0
h 135 1750 0
h -293 1750 0
h -1751 -134 292 0
h 134 1751 0
h -292 1751 0
h -1752 -133 291 0
h 133 1752 0
h -291 1752 0
h -1753 -132 290 0
h 132 1753 0
h -290 1753 0
h 1754 -300 -1744 -1745 -1746 -1747 -1748 -1749 -1750 -1751 -1752 -1753 131 0
h 300 -1754 0
h 1744 -1754 0
h 1745 -1754 0
h 1746 -1754 0
h 1747 -1754 0
h 1748 -1754 0
h 1749 -1754 0
h 1750 -1754 0
h 1751 -1754 0
h 1752 -1754 0
h 1753 -1754 0
h -131 -1754 0
h 1755 -223 61 0
h 223 -1755 0
h -61 -1755 0
h 1756 -61 223 0
h 61 -1756 0
h -223 -1756 0
h 1757 -224 62 0
h 224 -1757 0
h -62 -1757 0
h 1758 -62 224 0
h 62 -1758 0
h -224 -1758 0
h 1759 -225 63 0
h 225 -1759 0
h -63 -1759 0
h 1760 -63 225 0
h 63 -1760 0
h -225 -1760 0
h 1761 -226 64 0
h 226 -1761 0
h -64 -1761 0
h 1762 -64 226 0
h 64 -1762 0
h -226 -1762 0
h -1763 -289 139 0
h 289 1763 0
h -139 1763 0
h -1764 -288 138 0
h 288 1764 0
h -138 1764 0
h -1765 -287 137 0
h 287 1765 0
h -137 1765 0
h -1766 -286 136 0
h 286 1766 0
h -136 1766 0
h -1767 -285 135 0
h 285 1767 0
h -135 1767 0
h -1768 -284 134 0
h 284 1768 0
h -134 1768 0
h -1769 -283 133 0
h 283 1769 0
h -133 1769 0
h -1770 -282 132 0
h 282 1770 0
h -132 1770 0
h -1771 -281 131 0
h 281 1771 0
h -131 1771 0
h 1772 -140 -1763 -1764 -1765 -1766 -1767 -1768 -1769 -1770 -1771 280 279 0
h 140 -1772 0
h 1763 -1772 0
h 1764 -1772 0
h 1765 -1772 0
h 1766 -1772 0
h 1767 -1772 0
h 1768 -1772 0
h 1769 -1772 0
h 1770 -1772 0
h 1771 -1772 0
h -280 -1772 0
h -279 -1772 0
h -1773 -141 288 0
h 141 1773 0
h -288 1773 0
h -1774 -140 287 0
h 140 1774 0
h -287 1774 0
h -1775 -139 286 0
h 139 1775 0
h -286 1775 0
h -1776 -138 285 0
h 138 1776 0
h -285 1776 0
h -1777 -137 284 0
h 137 1777 0
h -284 1777 0
h -1778 -136 283 0
h 136 1778 0
h -283 1778 0
h -1779 -135 282 0
h 135 1779 0
h -282 1779 0
h -1780 -134 281 0
h 134 1780 0
h -281 1780 0
h -1781 -133 280 0
h 133 1781 0
h -280 1781 0
h -1782 -132 279 0
h 132 1782 0
h -279 1782 0
h 1783 -289 -1773 -1774 -1775 -1776 -1777 -1778 -1779 -1780 -1781 -1782 131 0
h 289 -1783 0
h 1773 -1783 0
h 1774 -1783 0
h 1775 -1783 0
h 1776 -1783 0
h 1777 -1783 0
h 1778 -1783 0
h 1779 -1783 0
h 1780 -1783 0
h 1781 -1783 0
h 1782 -1783 0
h -131 -1783 0
h 1784 -223 57 0
h 223 -1784 0
h -57 -1784 0
h 1785 -57 223 0
h 57 -1785 0
h -223 -1785 0
h 1786 -224 58 0
h 224 -1786 0
h -58 -1786 0
h 1787 -58 224 0
h 58 -1787 0
h -224 -1787 0
h 1788 -225 59 0
h 225 -1788 0
h -59 -1788 0
h 1789 -59 225 0
h 59 -1789 0
h -225 -1789 0
h 1790 -226 60 0
h 226 -1790 0
h -60 -1790 0
h 1791 -60 226 0
h 60 -1791 0
h -226 -1791 0
h -1792 -86 200 0
h 86 1792 0
h -200 1792 0
h -1793 -85 199 0
h 85 1793 0
h -199 1793 0
h -1794 -84 198 0
h 84 1794 0
h -198 1794 0
h -1795 -83 197 0
h 83 1795 0
h -197 1795 0
h -1796 -82 196 0
h 82 1796 0
h -196 1796 0
h -1797 -81 195 0
h 81 1797 0
h -195 1797 0
h -1798 -80 194 0
h 80 1798 0
h -194 1798 0
h -1799 -79 193 0
h 79 1799 0
h -193 1799 0
h 1800 -201 -1792 -1793 -1794 -1795 -1796 -1797 -1798 -1799 78 77 76 0
h 201 -1800 0
h 1792 -1800 0
h 1793 -1800 0
h 1794 -1800 0
h 1795 -1800 0
h 1796 -1800 0
h 1797 -1800 0
h 1798 -1800 0
h 1799 -1800 0
h -78 -1800 0
h -77 -1800 0
h -76 -1800 0
h -1801 -203 84 0
h 203 1801 0
h -84 1801 0
h -1802 -202 83 0
h 202 1802 0
h -83 1802 0
h -1803 -201 82 0
h 201 1803 0
h -82 1803 0
h -1804 -200 81 0
h 200 1804 0
h -81 1804 0
h -1805 -199 80 0
h 199 1805 0
h -80 1805 0
h -1806 -198 79 0
h 198 1806 0
h -79 1806 0
h -1807 -197 78 0
h 197 1807 0
h -78 1807 0
h -1808 -196 77 0
h 196 1808 0
h -77 1808 0
h -1809 -195 76 0
h 195 1809 0
h -76 1809 0
h 1810 -85 -1801 -1802 -1803 -1804 -1805 -1806 -1807 -1808 -1809 194 193 0
h 85 -1810 0
h 1801 -1810 0
h 1802 -1810 0
h 1803 -1810 0
h 1804 -1810 0
h 1805 -1810 0
h 1806 -1810 0
h 1807 -1810 0
h 1808 -1810 0
h 1809 -1810 0
h -194 -1810 0
h -193 -1810 0
h 1811 -342 185 0
h 342 -1811 0
h -185 -1811 0
h 1812 -185 342 0
h 185 -1812 0
h -342 -1812 0
h 1813 -343 186 0
h 343 -1813 0
h -186 -1813 0
h 1814 -186 343 0
h 186 -1814 0
h -343 -1814 0
h 1815 -344 187 0
h 344 -1815 0
h -187 -1815 0
h 1816 -187 344 0
h 187 -1816 0
h -344 -1816 0
h 1817 -345 188 0
h 345 -1817 0
h -188 -1817 0
h 1818 -188 345 0
h 188 -1818 0
h -345 -1818 0
h -1819 -75 200 0
h 75 1819 0
h -200 1819 0
h -1820 -74 199 0
h 74 1820 0
h -199 1820 0
h -1821 -73 198 0
h 73 1821 0
h -198 1821 0
h -1822 -72 197 0
h 72 1822 0
h -197 1822 0
h -1823 -71 196 0
h 71 1823 0
h -196 1823 0
h -1824 -70 195 0
h 70 1824 0
h -195 1824 0
h -1825 -69 194 0
h 69 1825 0
h -194 1825 0
h -1826 -68 193 0
h 68 1826 0
h -193 1826 0
h 1827 -201 -1819 -1820 -1821 -1822 -1823 -1824 -1825 -1826 67 66 65 0
h 201 -1827 0
h 1819 -1827 0
h 1820 -1827 0
h 1821 -1827 0
h 1822 -1827 0
h 1823 -1827 0
h 1824 -1827 0
h 1825 -1827 0
h 1826 -1827 0
h -67 -1827 0
h -66 -1827 0
h -65 -1827 0
h -1828 -203 73 0
h 203 1828 0
h -73 1828 0
h -1829 -202 72 0
h 202 1829 0
h -72 1829 0
h -1830 -201 71 0
h 201 1830 0
h -71 1830 0
h -1831 -200 70 0
h 200 1831 0
h -70 1831 0
h -1832 -199 69 0
h 199 1832 0
h -69 1832 0
h -1833 -198 68 0
h 198 1833 0
h -68 1833 0
h -1834 -197 67 0
h 197 1834 0
h -67 1834 0
h -1835 -196 66 0
h 196 1835 0
h -66 1835 0
h -1836 -195 65 0
h 195 1836 0
h -65 1836 0
h 1837 -74 -1828 -1829 -1830 -1831 -1832 -1833 -1834 -1835 -1836 194 193 0
h 74 -1837 0
h 1828 -1837 0
h 1829 -1837 0
h 1830 -1837 0
h 1831 -1837 0
h 1832 -1837 0
h 1833 -1837 0
h 1834 -1837 0
h 1835 -1837 0
h 1836 -1837 0
h -194 -1837 0
h -193 -1837 0
h 1838 -342 177 0
h 342 -1838 0
h -177 -1838 0
h 1839 -177 342 0
h 177 -1839 0
h -342 -1839 0
h 1840 -343 178 0
h 343 -1840 0
h -178 -1840 0
h 1841 -178 343 0
h 178 -1841 0
h -343 -1841 0
h 1842 -344 179 0
h 344 -1842 0
h -179 -1842 0
h 1843 -179 344 0
h 179 -1843 0
h -344 -1843 0
h 1844 -345 180 0
h 345 -1844 0
h -180 -1844 0
h 1845 -180 345 0
h 180 -1845 0
h -345 -1845 0
h -1846 -86 215 0
h 86 1846 0
h -215 1846 0
h -1847 -85 214 0
h 85 1847 0
h -214 1847 0
h -1848 -84 213 0
h 84 1848 0
h -213 1848 0
h -1849 -83 212 0
h 83 1849 0
h -212 1849 0
h -1850 -82 211 0
h 82 1850 0
h -211 1850 0
h -1851 -81 210 0
h 81 1851 0
h -210 1851 0
h -1852 -80 209 0
h 80 1852 0
h -209 1852 0
h -1853 -79 208 0
h 79 1853 0
h -208 1853 0
h 1854 -216 -1846 -1847 -1848 -1849 -1850 -1851 -1852 -1853 78 77 76 0
h 216 -1854 0
h 1846 -1854 0
h 1847 -1854 0
h 1848 -1854 0
h 1849 -1854 0
h 1850 -1854 0
h 1851 -1854 0
h 1852 -1854 0
h 1853 -1854 0
h -78 -1854 0
h -77 -1854 0
h -76 -1854 0
h -1855 -218 84 0
h 218 1855 0
h -84 1855 0
h -1856 -217 83 0
h 217 1856 0
h -83 1856 0
h -1857 -216 82 0
h 216 1857 0
h -82 1857 0
h -1858 -215 81 0
h 215 1858 0
h -81 1858 0
h -1859 -214 80 0
h 214 1859 0
h -80 1859 0
h -1860 -213 79 0
h 213 1860 0
h -79 1860 0
h -1861 -212 78 0
h 212 1861 0
h -78 1861 0
h -1862 -211 77 0
h 211 1862 0
h -77 1862 0
h -1863 -210 76 0
h 210 1863 0
h -76 1863 0
h 1864 -85 -1855 -1856 -1857 -1858 -1859 -1860 -1861 -1862 -1863 209 208 0
h 85 -1864 0
h 1855 -1864 0
h 1856 -1864 0
h 1857 -1864 0
h 1858 -1864 0
h 1859 -1864 0
h 1860 -1864 0
h 1861 -1864 0
h 1862 -1864 0
h 1863 -1864 0
h -209 -1864 0
h -208 -1864 0
h 1865 -327 185 0
h 327 -1865 0
h -185 -1865 0
h 1866 -185 327 0
h 185 -1866 0
h -327 -1866 0
h 1867 -328 186 0
h 328 -1867 0
h -186 -1867 0
h 1868 -186 328 0
h 186 -1868 0
h -328 -1868 0
h 1869 -329 187 0
h 329 -1869 0
h -187 -1869 0
h 1870 -187 329 0
h 187 -1870 0
h -329 -1870 0
h 1871 -330 188 0
h 330 -1871 0
h -188 -1871 0
h 1872 -188 330 0
h 188 -1872 0
h -330 -1872 0
h -1873 -75 215 0
h 75 1873 0
h -215 1873 0
h -1874 -74 214 0
h 74 1874 0
h -214 1874 0
h -1875 -73 213 0
h 73 1875 0
h -213 1875 0
h -1876 -72 212 0
h 72 1876 0
h -212 1876 0
h -1877 -71 211 0
h 71 1877 0
h -211 1877 0
h -1878 -70 210 0
h 70 1878 0
h -210 1878 0
h -1879 -69 209 0
h 69 1879 0
h -209 1879 0
h -1880 -68 208 0
h 68 1880 0
h -208 1880 0
h 1881 -216 -1873 -1874 -1875 -1876 -1877 -1878 -1879 -1880 67 66 65 0
h 216 -1881 0
h 1873 -1881 0
h 1874 -1881 0
h 1875 -1881 0
h 1876 -1881 0
h 1877 -1881 0
h 1878 -1881 0
h 1879 -1881 0
h 1880 -1881 0
h -67 -1881 0
h -66 -1881 0
h -65 -1881 0
h -1882 -218 73 0
h 218 1882 0
h -73 1882 0
h -1883 -217 72 0
h 217 1883 0
h -72 1883 0
h -1884 -216 71 0
h 216 1884 0
h -71 1884 0
h -1885 -215 70 0
h 215 1885 0
h -70 1885 0
h -1886 -214 69 0
h 214 1886 0
h -69 1886 0
h -1887 -213 68 0
h 213 1887 0
h -68 1887 0
h -1888 -212 67 0
h 212 1888 0
h -67 1888 0
h -1889 -211 66 0
h 211 1889 0
h -66 1889 0
h -1890 -210 65 0
h 210 1890 0
h -65 1890 0
h 1891 -74 -1882 -1883 -1884 -1885 -1886 -1887 -1888 -1889 -1890 209 208 0
h 74 -1891 0
h 1882 -1891 0
h 1883 -1891 0
h 1884 -1891 0
h 1885 -1891 0
h 1886 -1891 0
h 1887 -1891 0
h 1888 -1891 0
h 1889 -1891 0
h 1890 -1891 0
h -209 -1891 0
h -208 -1891 0
h 1892 -327 177 0
h 327 -1892 0
h -177 -1892 0
h 1893 -177 327 0
h 177 -1893 0
h -327 -1893 0
h 1894 -328 178 0
h 328 -1894 0
h -178 -1894 0
h 1895 -178 328 0
h 178 -1895 0
h -328 -1895 0
h 1896 -329 179 0
h 329 -1896 0
h -179 -1896 0
h 1897 -179 329 0
h 179 -1897 0
h -329 -1897 0
h 1898 -330 180 0
h 330 -1898 0
h -180 -1898 0
h 1899 -180 330 0
h 180 -1899 0
h -330 -1899 0
h -1900 -130 249 0
h 130 1900 0
h -249 1900 0
h -1901 -129 248 0
h 129 1901 0
h -248 1901 0
h -1902 -128 247 0
h 128 1902 0
h -247 1902 0
h -1903 -127 246 0
h 127 1903 0
h -246 1903 0
h -1904 -126 245 0
h 126 1904 0
h -245 1904 0
h -1905 -125 244 0
h 125 1905 0
h -244 1905 0
h -1906 -124 243 0
h 124 1906 0
h -243 1906 0
h -1907 -123 242 0
h 123 1907 0
h -242 1907 0
h 1908 -250 -1900 -1901 -1902 -1903 -1904 -1905 -1906 -1907 122 121 120 0
h 250 -1908 0
h 1900 -1908 0
h 1901 -1908 0
h 1902 -1908 0
h 1903 -1908 0
h 1904 -1908 0
h 1905 -1908 0
h 1906 -1908 0
h 1907 -1908 0
h -122 -1908 0
h -121 -1908 0
h -120 -1908 0
h -1909 -252 128 0
h 252 1909 0
h -128 1909 0
h -1910 -251 127 0
h 251 1910 0
h -127 1910 0
h -1911 -250 126 0
h 250 1911 0
h -126 1911 0
h -1912 -249 125 0
h 249 1912 0
h -125 1912 0
h -1913 -248 124 0
h 248 1913 0
h -124 1913 0
h -1914 -247 123 0
h 247 1914 0
h -123 1914 0
h -1915 -246 122 0
h 246 1915 0
h -122 1915 0
h -1916 -245 121 0
h 245 1916 0
h -121 1916 0
h -1917 -244 120 0
h 244 1917 0
h -120 1917 0
h 1918 -129 -1909 -1910 -1911 -1912 -1913 -1914 -1915 -1916 -1917 243 242 0
h 129 -1918 0
h 1909 -1918 0
h 1910 -1918 0
h 1911 -1918 0
h 1912 -1918 0
h 1913 -1918 0
h 1914 -1918 0
h 1915 -1918 0
h 1916 -1918 0
h 1917 -1918 0
h -243 -1918 0
h -242 -1918 0
h 1919 -1 219 0
h 1 -1919 0
h -219 -1919 0
h 1920 -219 1 0
h 219 -1920 0
h -1 -1920 0
h 1921 -2 220 0
h 2 -1921 0
h -220 -1921 0
h 1922 -220 2 0
h 220 -1922 0
h -2 -1922 0
h 1923 -3 221 0
h 3 -1923 0
h -221 -1923 0
h 1924 -221 3 0
h 221 -1924 0
h -3 -1924 0
h 1925 -4 222 0
h 4 -1925 0
h -222 -1925 0
h 1926 -222 4 0
h 222 -1926 0
h -4 -1926 0
h -1927 -108 249 0
h 108 1927 0
h -249 1927 0
h -1928 -107 248 0
h 107 1928 0
h -248 1928 0
h -1929 -106 247 0
h 106 1929 0
h -247 1929 0
h -1930 -105 246 0
h 105 1930 0
h -246 1930 0
h -1931 -104 245 0
h 104 1931 0
h -245 1931 0
h -1932 -103 244 0
h 103 1932 0
h -244 1932 0
h -1933 -102 243 0
h 102 1933 0
h -243 1933 0
h -1934 -101 242 0
h 101 1934 0
h -242 1934 0
h 1935 -250 -1927 -1928 -1929 -1930 -1931 -1932 -1933 -1934 100 99 98 0
h 250 -1935 0
h 1927 -1935 0
h 1928 -1935 0
h 1929 -1935 0
h 1930 -1935 0
h 1931 -1935 0
h 1932 -1935 0
h 1933 -1935 0
h 1934 -1935 0
h -100 -1935 0
h -99 -1935 0
h -98 -1935 0
h -1936 -252 106 0
h 252 1936 0
h -106 1936 0
h -1937 -251 105 0
h 251 1937 0
h -105 1937 0
h -1938 -250 104 0
h 250 1938 0
h -104 1938 0
h -1939 -249 103 0
h 249 1939 0
h -103 1939 0
h -1940 -248 102 0
h 248 1940 0
h -102 1940 0
h -1941 -247 101 0
h 247 1941 0
h -101 1941 0
h -1942 -246 100 0
h 246 1942 0
h -100 1942 0
h -1943 -245 99 0
h 245 1943 0
h -99 1943 0
h -1944 -244 98 0
h 244 1944 0
h -98 1944 0
h 1945 -107 -1936 -1937 -1938 -1939 -1940 -1941 -1942 -1943 -1944 243 242 0
h 107 -1945 0
h 1936 -1945 0
h 1937 -1945 0
h 1938 -1945 0
h 1939 -1945 0
h 1940 -1945 0
h 1941 -1945 0
h 1942 -1945 0
h 1943 -1945 0
h 1944 -1945 0
h -243 -1945 0
h -242 -1945 0
h 1946 -1 204 0
h 1 -1946 0
h -204 -1946 0
h 1947 -204 1 0
h 204 -1947 0
h -1 -1947 0
h 1948 -2 205 0
h 2 -1948 0
h -205 -1948 0
h 1949 -205 2 0
h 205 -1949 0
h -2 -1949 0
h 1950 -3 206 0
h 3 -1950 0
h -206 -1950 0
h 1951 -206 3 0
h 206 -1951 0
h -3 -1951 0
h 1952 -4 207 0
h 4 -1952 0
h -207 -1952 0
h 1953 -207 4 0
h 207 -1953 0
h -4 -1953 0
h -1954 -130 234 0
h 130 1954 0
h -234 1954 0
h -1955 -129 233 0
h 129 1955 0
h -233 1955 0
h -1956 -128 232 0
h 128 1956 0
h -232 1956 0
h -1957 -127 231 0
h 127 1957 0
h -231 1957 0
h -1958 -126 230 0
h 126 1958 0
h -230 1958 0
h -1959 -125 229 0
h 125 1959 0
h -229 1959 0
h -1960 -124 228 0
h 124 1960 0
h -228 1960 0
h -1961 -123 227 0
h 123 1961 0
h -227 1961 0
h 1962 -235 -1954 -1955 -1956 -1957 -1958 -1959 -1960 -1961 122 121 120 0
h 235 -1962 0
h 1954 -1962 0
h 1955 -1962 0
h 1956 -1962 0
h 1957 -1962 0
h 1958 -1962 0
h 1959 -1962 0
h 1960 -1962 0
h 1961 -1962 0
h -122 -1962 0
h -121 -1962 0
h -120 -1962 0
h -1963 -237 128 0
h 237 1963 0
h -128 1963 0
h -1964 -236 127 0
h 236 1964 0
h -127 1964 0
h -1965 -235 126 0
h 235 1965 0
h -126 1965 0
h -1966 -234 125 0
h 234 1966 0
h -125 1966 0
h -1967 -233 124 0
h 233 1967 0
h -124 1967 0
h -1968 -232 123 0
h 232 1968 0
h -123 1968 0
h -1969 -231 122 0
h 231 1969 0
h -122 1969 0
h -1970 -230 121 0
h 230 1970 0
h -121 1970 0
h -1971 -229 120 0
h 229 1971 0
h -120 1971 0
h 1972 -129 -1963 -1964 -1965 -1966 -1967 -1968 -1969 -1970 -1971 228 227 0
h 129 -1972 0
h 1963 -1972 0
h 1964 -1972 0
h 1965 -1972 0
h 1966 -1972 0
h 1967 -1972 0
h 1968 -1972 0
h 1969 -1972 0
h 1970 -1972 0
h 1971 -1972 0
h -228 -1972 0
h -227 -1972 0
h 1973 -357 219 0
h 357 -1973 0
h -219 -1973 0
h 1974 -219 357 0
h 219 -1974 0
h -357 -1974 0
h 1975 -358 220 0
h 358 -1975 0
h -220 -1975 0
h 1976 -220 358 0
h 220 -1976 0
h -358 -1976 0
h 1977 -359 221 0
h 359 -1977 0
h -221 -1977 0
h 1978 -221 359 0
h 221 -1978 0
h -359 -1978 0
h 1979 -360 222 0
h 360 -1979 0
h -222 -1979 0
h 1980 -222 360 0
h 222 -1980 0
h -360 -1980 0
h -1981 -108 234 0
h 108 1981 0
h -234 1981 0
h -1982 -107 233 0
h 107 1982 0
h -233 1982 0
h -1983 -106 232 0
h 106 1983 0
h -232 1983 0
h -1984 -105 231 0
h 105 1984 0
h -231 1984 0
h -1985 -104 230 0
h 104 1985 0
h -230 1985 0
h -1986 -103 229 0
h 103 1986 0
h -229 1986 0
h -1987 -102 228 0
h 102 1987 0
h -228 1987 0
h -1988 -101 227 0
h 101 1988 0
h -227 1988 0
h 1989 -235 -1981 -1982 -1983 -1984 -1985 -1986 -1987 -1988 100 99 98 0
h 235 -1989 0
h 1981 -1989 0
h 1982 -1989 0
h 1983 -1989 0
h 1984 -1989 0
h 1985 -1989 0
h 1986 -1989 0
h 1987 -1989 0
h 1988 -1989 0
h -100 -1989 0
h -99 -1989 0
h -98 -1989 0
h -1990 -237 106 0
h 237 1990 0
h -106 1990 0
h -1991 -236 105 0
h 236 1991 0
h -105 1991 0
h -1992 -235 104 0
h 235 1992 0
h -104 1992 0
h -1993 -234 103 0
h 234 1993 0
h -103 1993 0
h -1994 -233 102 0
h 233 1994 0
h -102 1994 0
h -1995 -232 101 0
h 232 1995 0
h -101 1995 0
h -1996 -231 100 0
h 231 1996 0
h -100 1996 0
h -1997 -230 99 0
h 230 1997 0
h -99 1997 0
h -1998 -229 98 0
h 229 1998 0
h -98 1998 0
h 1999 -107 -1990 -1991 -1992 -1993 -1994 -1995 -1996 -1997 -1998 228 227 0
h 107 -1999 0
h 1990 -1999 0
h 1991 -1999 0
h 1992 -1999 0
h 1993 -1999 0
h 1994 -1999 0
h 1995 -1999 0
h 1996 -1999 0
h 1997 -1999 0
h 1998 -1999 0
h -228 -1999 0
h -227 -1999 0
h 2000 -357 204 0
h 357 -2000 0
h -204 -2000 0
h 2001 -204 357 0
h 204 -2001 0
h -357 -2001 0
h 2002 -358 205 0
h 358 -2002 0
h -205 -2002 0
h 2003 -205 358 0
h 205 -2003 0
h -358 -2003 0
h 2004 -359 206 0
h 359 -2004 0
h -206 -2004 0
h 2005 -206 359 0
h 206 -2005 0
h -359 -2005 0
h 2006 -360 207 0
h 360 -2006 0
h -207 -2006 0
h 2007 -207 360 0
h 207 -2007 0
h -360 -2007 0
h -2008 -141 354 0
h 141 2008 0
h -354 2008 0
h -2009 -140 353 0
h 140 2009 0
h -353 2009 0
h -2010 -139 352 0
h 139 2010 0
h -352 2010 0
h -2011 -138 351 0
h 138 2011 0
h -351 2011 0
h -2012 -137 350 0
h 137 2012 0
h -350 2012 0
h -2013 -136 349 0
h 136 2013 0
h -349 2013 0
h -2014 -135 348 0
h 135 2014 0
h -348 2014 0
h -2015 -134 347 0
h 134 2015 0
h -347 2015 0
h -2016 -133 346 0
h 133 2016 0
h -346 2016 0
h 2017 -355 -2008 -2009 -2010 -2011 -2012 -2013 -2014 -2015 -2016 132 131 0
h 355 -2017 0
h 2008 -2017 0
h 2009 -2017 0
h 2010 -2017 0
h 2011 -2017 0
h 2012 -2017 0
h 2013 -2017 0
h 2014 -2017 0
h 2015 -2017 0
h 2016 -2017 0
h -132 -2017 0
h -131 -2017 0
h -2018 -356 139 0
h 356 2018 0
h -139 2018 0
h -2019 -355 138 0
h 355 2019 0
h -138 2019 0
h -2020 -354 137 0
h 354 2020 0
h -137 2020 0
h -2021 -353 136 0
h 353 2021 0
h -136 2021 0
h -2022 -352 135 0
h 352 2022 0
h -135 2022 0
h -2023 -351 134 0
h 351 2023 0
h -134 2023 0
h -2024 -350 133 0
h 350 2024 0
h -133 2024 0
h -2025 -349 132 0
h 349 2025 0
h -132 2025 0
h -2026 -348 131 0
h 348 2026 0
h -131 2026 0
h 2027 -140 -2018 -2019 -2020 -2021 -2022 -2023 -2024 -2025 -2026 347 346 0
h 140 -2027 0
h 2018 -2027 0
h 2019 -2027 0
h 2020 -2027 0
h 2021 -2027 0
h 2022 -2027 0
h 2023 -2027 0
h 2024 -2027 0
h 2025 -2027 0
h 2026 -2027 0
h -347 -2027 0
h -346 -2027 0
h 2028 -154 223 0
h 154 -2028 0
h -223 -2028 0
h 2029 -223 154 0
h 223 -2029 0
h -154 -2029 0
h 2030 -155 224 0
h 155 -2030 0
h -224 -2030 0
h 2031 -224 155 0
h 224 -2031 0
h -155 -2031 0
h 2032 -156 225 0
h 156 -2032 0
h -225 -2032 0
h 2033 -225 156 0
h 225 -2033 0
h -156 -2033 0
h 2034 -157 226 0
h 157 -2034 0
h -226 -2034 0
h 2035 -226 157 0
h 226 -2035 0
h -157 -2035 0
h -2036 -97 354 0
h 97 2036 0
h -354 2036 0
h -2037 -96 353 0
h 96 2037 0
h -353 2037 0
h -2038 -95 352 0
h 95 2038 0
h -352 2038 0
h -2039 -94 351 0
h 94 2039 0
h -351 2039 0
h -2040 -93 350 0
h 93 2040 0
h -350 2040 0
h -2041 -92 349 0
h 92 2041 0
h -349 2041 0
h -2042 -91 348 0
h 91 2042 0
h -348 2042 0
h -2043 -90 347 0
h 90 2043 0
h -347 2043 0
h -2044 -89 346 0
h 89 2044 0
h -346 2044 0
h 2045 -355 -2036 -2037 -2038 -2039 -2040 -2041 -2042 -2043 -2044 88 87 0
h 355 -2045 0
h 2036 -2045 0
h 2037 -2045 0
h 2038 -2045 0
h 2039 -2045 0
h 2040 -2045 0
h 2041 -2045 0
h 2042 -2045 0
h 2043 -2045 0
h 2044 -2045 0
h -88 -2045 0
h -87 -2045 0
h -2046 -356 95 0
h 356 2046 0
h -95 2046 0
h -2047 -355 94 0
h 355 2047 0
h -94 2047 0
h -2048 -354 93 0
h 354 2048 0
h -93 2048 0
h -2049 -353 92 0
h 353 2049 0
h -92 2049 0
h -2050 -352 91 0
h 352 2050 0
h -91 2050 0
h -2051 -351 90 0
h 351 2051 0
h -90 2051 0
h -2052 -350 89 0
h 350 2052 0
h -89 2052 0
h -2053 -349 88 0
h 349 2053 0
h -88 2053 0
h -2054 -348 87 0
h 348 2054 0
h -87 2054 0
h 2055 -96 -2046 -2047 -2048 -2049 -2050 -2051 -2052 -2053 -2054 347 346 0
h 96 -2055 0
h 2046 -2055 0
h 2047 -2055 0
h 2048 -2055 0
h 2049 -2055 0
h 2050 -2055 0
h 2051 -2055 0
h 2052 -2055 0
h 2053 -2055 0
h 2054 -2055 0
h -347 -2055 0
h -346 -2055 0
h 2056 -154 238 0
h 154 -2056 0
h -238 -2056 0
h 2057 -238 154 0
h 238 -2057 0
h -154 -2057 0
h 2058 -155 239 0
h 155 -2058 0
h -239 -2058 0
h 2059 -239 155 0
h 239 -2059 0
h -155 -2059 0
h 2060 -156 240 0
h 156 -2060 0
h -240 -2060 0
h 2061 -240 156 0
h 240 -2061 0
h -156 -2061 0
h 2062 -157 241 0
h 157 -2062 0
h -241 -2062 0
h 2063 -241 157 0
h 241 -2063 0
h -157 -2063 0
h -2064 -119 354 0
h 119 2064 0
h -354 2064 0
h -2065 -118 353 0
h 118 2065 0
h -353 2065 0
h -2066 -117 352 0
h 117 2066 0
h -352 2066 0
h -2067 -116 351 0
h 116 2067 0
h -351 2067 0
h -2068 -115 350 0
h 115 2068 0
h -350 2068 0
h -2069 -114 349 0
h 114 2069 0
h -349 2069 0
h -2070 -113 348 0
h 113 2070 0
h -348 2070 0
h -2071 -112 347 0
h 112 2071 0
h -347 2071 0
h -2072 -111 346 0
h 111 2072 0
h -346 2072 0
h 2073 -355 -2064 -2065 -2066 -2067 -2068 -2069 -2070 -2071 -2072 110 109 0
h 355 -2073 0
h 2064 -2073 0
h 2065 -2073 0
h 2066 -2073 0
h 2067 -2073 0
h 2068 -2073 0
h 2069 -2073 0
h 2070 -2073 0
h 2071 -2073 0
h 2072 -2073 0
h -110 -2073 0
h -109 -2073 0
h -2074 -356 117 0
h 356 2074 0
h -117 2074 0
h -2075 -355 116 0
h 355 2075 0
h -116 2075 0
h -2076 -354 115 0
h 354 2076 0
h -115 2076 0
h -2077 -353 114 0
h 353 2077 0
h -114 2077 0
h -2078 -352 113 0
h 352 2078 0
h -113 2078 0
h -2079 -351 112 0
h 351 2079 0
h -112 2079 0
h -2080 -350 111 0
h 350 2080 0
h -111 2080 0
h -2081 -349 110 0
h 349 2081 0
h -110 2081 0
h -2082 -348 109 0
h 348 2082 0
h -109 2082 0
h 2083 -118 -2074 -2075 -2076 -2077 -2078 -2079 -2080 -2081 -2082 347 346 0
h 118 -2083 0
h 2074 -2083 0
h 2075 -2083 0
h 2076 -2083 0
h 2077 -2083 0
h 2078 -2083 0
h 2079 -2083 0
h 2080 -2083 0
h 2081 -2083 0
h 2082 -2083 0
h -347 -2083 0
h -346 -2083 0
h 2084 -154 253 0
h 154 -2084 0
h -253 -2084 0
h 2085 -253 154 0
h 253 -2085 0
h -154 -2085 0
h 2086 -155 254 0
h 155 -2086 0
h -254 -2086 0
h 2087 -254 155 0
h 254 -2087 0
h -155 -2087 0
h 2088 -156 255 0
h 156 -2088 0
h -255 -2088 0
h 2089 -255 156 0
h 255 -2089 0
h -156 -2089 0
h 2090 -157 256 0
h 157 -2090 0
h -256 -2090 0
h 2091 -256 157 0
h 256 -2091 0
h -157 -2091 0
h -2092 -278 354 0
h 278 2092 0
h -354 2092 0
h -2093 -277 353 0
h 277 2093 0
h -353 2093 0
h -2094 -276 352 0
h 276 2094 0
h -352 2094 0
h -2095 -275 351 0
h 275 2095 0
h -351 2095 0
h -2096 -274 350 0
h 274 2096 0
h -350 2096 0
h -2097 -273 349 0
h 273 2097 0
h -349 2097 0
h -2098 -272 348 0
h 272 2098 0
h -348 2098 0
h -2099 -271 347 0
h 271 2099 0
h -347 2099 0
h -2100 -270 346 0
h 270 2100 0
h -346 2100 0
h 2101 -355 -2092 -2093 -2094 -2095 -2096 -2097 -2098 -2099 -2100 269 268 0
h 355 -2101 0
h 2092 -2101 0
h 2093 -2101 0
h 2094 -2101 0
h 2095 -2101 0
h 2096 -2101 0
h 2097 -2101 0
h 2098 -2101 0
h 2099 -2101 0
h 2100 -2101 0
h -269 -2101 0
h -268 -2101 0
h -2102 -356 277 0
h 356 2102 0
h -277 2102 0
h -2103 -355 276 0
h 355 2103 0
h -276 2103 0
h -2104 -354 275 0
h 354 2104 0
h -275 2104 0
h -2105 -353 274 0
h 353 2105 0
h -274 2105 0
h -2106 -352 273 0
h 352 2106 0
h -273 2106 0
h -2107 -351 272 0
h 351 2107 0
h -272 2107 0
h -2108 -350 271 0
h 350 2108 0
h -271 2108 0
h -2109 -349 270 0
h 349 2109 0
h -270 2109 0
h -2110 -348 269 0
h 348 2110 0
h -269 2110 0
h -2111 -347 268 0
h 347 2111 0
h -268 2111 0
h 2112 -278 -2102 -2103 -2104 -2105 -2106 -2107 -2108 -2109 -2110 -2111 346 0
h 278 -2112 0
h 2102 -2112 0
h 2103 -2112 0
h 2104 -2112 0
h 2105 -2112 0
h 2106 -2112 0
h 2107 -2112 0
h 2108 -2112 0
h 2109 -2112 0
h 2110 -2112 0
h 2111 -2112 0
h -346 -2112 0
h 2113 -154 42 0
h 154 -2113 0
h -42 -2113 0
h 2114 -42 154 0
h 42 -2114 0
h -154 -2114 0
h 2115 -155 43 0
h 155 -2115 0
h -43 -2115 0
h 2116 -43 155 0
h 43 -2116 0
h -155 -2116 0
h 2117 -156 44 0
h 156 -2117 0
h -44 -2117 0
h 2118 -44 156 0
h 44 -2118 0
h -156 -2118 0
h 2119 -157 45 0
h 157 -2119 0
h -45 -2119 0
h 2120 -45 157 0
h 45 -2120 0
h -157 -2120 0
h -2121 -300 354 0
h 300 2121 0
h -354 2121 0
h -2122 -299 353 0
h 299 2122 0
h -353 2122 0
h -2123 -298 352 0
h 298 2123 0
h -352 2123 0
h -2124 -297 351 0
h 297 2124 0
h -351 2124 0
h -2125 -296 350 0
h 296 2125 0
h -350 2125 0
h -2126 -295 349 0
h 295 2126 0
h -349 2126 0
h -2127 -294 348 0
h 294 2127 0
h -348 2127 0
h -2128 -293 347 0
h 293 2128 0
h -347 2128 0
h -2129 -292 346 0
h 292 2129 0
h -346 2129 0
h 2130 -355 -2121 -2122 -2123 -2124 -2125 -2126 -2127 -2128 -2129 291 290 0
h 355 -2130 0
h 2121 -2130 0
h 2122 -2130 0
h 2123 -2130 0
h 2124 -2130 0
h 2125 -2130 0
h 2126 -2130 0
h 2127 -2130 0
h 2128 -2130 0
h 2129 -2130 0
h -291 -2130 0
h -290 -2130 0
h -2131 -356 299 0
h 356 2131 0
h -299 2131 0
h -2132 -355 298 0
h 355 2132 0
h -298 2132 0
h -2133 -354 297 0
h 354 2133 0
h -297 2133 0
h -2134 -353 296 0
h 353 2134 0
h -296 2134 0
h -2135 -352 295 0
h 352 2135 0
h -295 2135 0
h -2136 -351 294 0
h 351 2136 0
h -294 2136 0
h -2137 -350 293 0
h 350 2137 0
h -293 2137 0
h -2138 -349 292 0
h 349 2138 0
h -292 2138 0
h -2139 -348 291 0
h 348 2139 0
h -291 2139 0
h -2140 -347 290 0
h 347 2140 0
h -290 2140 0
h 2141 -300 -2131 -2132 -2133 -2134 -2135 -2136 -2137 -2138 -2139 -2140 346 0
h 300 -2141 0
h 2131 -2141 0
h 2132 -2141 0
h 2133 -2141 0
h 2134 -2141 0
h 2135 -2141 0
h 2136 -2141 0
h 2137 -2141 0
h 2138 -2141 0
h 2139 -2141 0
h 2140 -2141 0
h -346 -2141 0
h 2142 -154 61 0
h 154 -2142 0
h -61 -2142 0
h 2143 -61 154 0
h 61 -2143 0
h -154 -2143 0
h 2144 -155 62 0
h 155 -2144 0
h -62 -2144 0
h 2145 -62 155 0
h 62 -2145 0
h -155 -2145 0
h 2146 -156 63 0
h 156 -2146 0
h -63 -2146 0
h 2147 -63 156 0
h 63 -2147 0
h -156 -2147 0
h 2148 -157 64 0
h 157 -2148 0
h -64 -2148 0
h 2149 -64 157 0
h 64 -2149 0
h -157 -2149 0
h -2150 -289 354 0
h 289 2150 0
h -354 2150 0
h -2151 -288 353 0
h 288 2151 0
h -353 2151 0
h -2152 -287 352 0
h 287 2152 0
h -352 2152 0
h -2153 -286 351 0
h 286 2153 0
h -351 2153 0
h -2154 -285 350 0
h 285 2154 0
h -350 2154 0
h -2155 -284 349 0
h 284 2155 0
h -349 2155 0
h -2156 -283 348 0
h 283 2156 0
h -348 2156 0
h -2157 -282 347 0
h 282 2157 0
h -347 2157 0
h -2158 -281 346 0
h 281 2158 0
h -346 2158 0
h 2159 -355 -2150 -2151 -2152 -2153 -2154 -2155 -2156 -2157 -2158 280 279 0
h 355 -2159 0
h 2150 -2159 0
h 2151 -2159 0
h 2152 -2159 0
h 2153 -2159 0
h 2154 -2159 0
h 2155 -2159 0
h 2156 -2159 0
h 2157 -2159 0
h 2158 -2159 0
h -280 -2159 0
h -279 -2159 0
h -2160 -356 288 0
h 356 2160 0
h -288 2160 0
h -2161 -355 287 0
h 355 2161 0
h -287 2161 0
h -2162 -354 286 0
h 354 2162 0
h -286 2162 0
h -2163 -353 285 0
h 353 2163 0
h -285 2163 0
h -2164 -352 284 0
h 352 2164 0
h -284 2164 0
h -2165 -351 283 0
h 351 2165 0
h -283 2165 0
h -2166 -350 282 0
h 350 2166 0
h -282 2166 0
h -2167 -349 281 0
h 349 2167 0
h -281 2167 0
h -2168 -348 280 0
h 348 2168 0
h -280 2168 0
h -2169 -347 279 0
h 347 2169 0
h -279 2169 0
h 2170 -289 -2160 -2161 -2162 -2163 -2164 -2165 -2166 -2167 -2168 -2169 346 0
h 289 -2170 0
h 2160 -2170 0
h 2161 -2170 0
h 2162 -2170 0
h 2163 -2170 0
h 2164 -2170 0
h 2165 -2170 0
h 2166 -2170 0
h 2167 -2170 0
h 2168 -2170 0
h 2169 -2170 0
h -346 -2170 0
h 2171 -154 57 0
h 154 -2171 0
h -57 -2171 0
h 2172 -57 154 0
h 57 -2172 0
h -154 -2172 0
h 2173 -155 58 0
h 155 -2173 0
h -58 -2173 0
h 2174 -58 155 0
h 58 -2174 0
h -155 -2174 0
h 2175 -156 59 0
h 156 -2175 0
h -59 -2175 0
h 2176 -59 156 0
h 59 -2176 0
h -156 -2176 0
h 2177 -157 60 0
h 157 -2177 0
h -60 -2177 0
h 2178 -60 157 0
h 60 -2178 0
h -157 -2178 0
h -2179 -97 340 0
h 97 2179 0
h -340 2179 0
h -2180 -96 339 0
h 96 2180 0
h -339 2180 0
h -2181 -95 338 0
h 95 2181 0
h -338 2181 0
h -2182 -94 337 0
h 94 2182 0
h -337 2182 0
h -2183 -93 336 0
h 93 2183 0
h -336 2183 0
h -2184 -92 335 0
h 92 2184 0
h -335 2184 0
h -2185 -91 334 0
h 91 2185 0
h -334 2185 0
h -2186 -90 333 0
h 90 2186 0
h -333 2186 0
h -2187 -89 332 0
h 89 2187 0
h -332 2187 0
h -2188 -88 331 0
h 88 2188 0
h -331 2188 0
h 2189 -341 -2179 -2180 -2181 -2182 -2183 -2184 -2185 -2186 -2187 -2188 87 0
h 341 -2189 0
h 2179 -2189 0
h 2180 -2189 0
h 2181 -2189 0
h 2182 -2189 0
h 2183 -2189 0
h 2184 -2189 0
h 2185 -2189 0
h 2186 -2189 0
h 2187 -2189 0
h 2188 -2189 0
h -87 -2189 0
h -2190 -341 95 0
h 341 2190 0
h -95 2190 0
h -2191 -340 94 0
h 340 2191 0
h -94 2191 0
h -2192 -339 93 0
h 339 2192 0
h -93 2192 0
h -2193 -338 92 0
h 338 2193 0
h -92 2193 0
h -2194 -337 91 0
h 337 2194 0
h -91 2194 0
h -2195 -336 90 0
h 336 2195 0
h -90 2195 0
h -2196 -335 89 0
h 335 2196 0
h -89 2196 0
h -2197 -334 88 0
h 334 2197 0
h -88 2197 0
h -2198 -333 87 0
h 333 2198 0
h -87 2198 0
h 2199 -96 -2190 -2191 -2192 -2193 -2194 -2195 -2196 -2197 -2198 332 331 0
h 96 -2199 0
h 2190 -2199 0
h 2191 -2199 0
h 2192 -2199 0
h 2193 -2199 0
h 2194 -2199 0
h 2195 -2199 0
h 2196 -2199 0
h 2197 -2199 0
h 2198 -2199 0
h -332 -2199 0
h -331 -2199 0
h 2200 -150 238 0
h 150 -2200 0
h -238 -2200 0
h 2201 -238 150 0
h 238 -2201 0
h -150 -2201 0
h 2202 -151 239 0
h 151 -2202 0
h -239 -2202 0
h 2203 -239 151 0
h 239 -2203 0
h -151 -2203 0
h 2204 -152 240 0
h 152 -2204 0
h -240 -2204 0
h 2205 -240 152 0
h 240 -2205 0
h -152 -2205 0
h 2206 -153 241 0
h 153 -2206 0
h -241 -2206 0
h 2207 -241 153 0
h 241 -2207 0
h -153 -2207 0
h -2208 -119 340 0
h 119 2208 0
h -340 2208 0
h -2209 -118 339 0
h 118 2209 0
h -339 2209 0
h -2210 -117 338 0
h 117 2210 0
h -338 2210 0
h -2211 -116 337 0
h 116 2211 0
h -337 2211 0
h -2212 -115 336 0
h 115 2212 0
h -336 2212 0
h -2213 -114 335 0
h 114 2213 0
h -335 2213 0
h -2214 -113 334 0
h 113 2214 0
h -334 2214 0
h -2215 -112 333 0
h 112 2215 0
h -333 2215 0
h -2216 -111 332 0
h 111 2216 0
h -332 2216 0
h -2217 -110 331 0
h 110 2217 0
h -331 2217 0
h 2218 -341 -2208 -2209 -2210 -2211 -2212 -2213 -2214 -2215 -2216 -2217 109 0
h 341 -2218 0
h 2208 -2218 0
h 2209 -2218 0
h 2210 -2218 0
h 2211 -2218 0
h 2212 -2218 0
h 2213 -2218 0
h 2214 -2218 0
h 2215 -2218 0
h 2216 -2218 0
h 2217 -2218 0
h -109 -2218 0
h -2219 -341 117 0
h 341 2219 0
h -117 2219 0
h -2220 -340 116 0
h 340 2220 0
h -116 2220 0
h -2221 -339 115 0
h 339 2221 0
h -115 2221 0
h -2222 -338 114 0
h 338 2222 0
h -114 2222 0
h -2223 -337 113 0
h 337 2223 0
h -113 2223 0
h -2224 -336 112 0
h 336 2224 0
h -112 2224 0
h -2225 -335 111 0
h 335 2225 0
h -111 2225 0
h -2226 -334 110 0
h 334 2226 0
h -110 2226 0
h -2227 -333 109 0
h 333 2227 0
h -109 2227 0
h 2228 -118 -2219 -2220 -2221 -2222 -2223 -2224 -2225 -2226 -2227 332 331 0
h 118 -2228 0
h 2219 -2228 0
h 2220 -2228 0
h 2221 -2228 0
h 2222 -2228 0
h 2223 -2228 0
h 2224 -2228 0
h 2225 -2228 0
h 2226 -2228 0
h 2227 -2228 0
h -332 -2228 0
h -331 -2228 0
h 2229 -150 253 0
h 150 -2229 0
h -253 -2229 0
h 2230 -253 150 0
h 253 -2230 0
h -150 -2230 0
h 2231 -151 254 0
h 151 -2231 0
h -254 -2231 0
h 2232 -254 151 0
h 254 -2232 0
h -151 -2232 0
h 2233 -152 255 0
h 152 -2233 0
h -255 -2233 0
h 2234 -255 152 0
h 255 -2234 0
h -152 -2234 0
h 2235 -153 256 0
h 153 -2235 0
h -256 -2235 0
h 2236 -256 153 0
h 256 -2236 0
h -153 -2236 0
h -2237 -97 325 0
h 97 2237 0
h -325 2237 0
h -2238 -96 324 0
h 96 2238 0
h -324 2238 0
h -2239 -95 323 0
h 95 2239 0
h -323 2239 0
h -2240 -94 322 0
h 94 2240 0
h -322 2240 0
h -2241 -93 321 0
h 93 2241 0
h -321 2241 0
h -2242 -92 320 0
h 92 2242 0
h -320 2242 0
h -2243 -91 319 0
h 91 2243 0
h -319 2243 0
h -2244 -90 318 0
h 90 2244 0
h -318 2244 0
h -2245 -89 317 0
h 89 2245 0
h -317 2245 0
h -2246 -88 316 0
h 88 2246 0
h -316 2246 0
h 2247 -326 -2237 -2238 -2239 -2240 -2241 -2242 -2243 -2244 -2245 -2246 87 0
h 326 -2247 0
h 2237 -2247 0
h 2238 -2247 0
h 2239 -2247 0
h 2240 -2247 0
h 2241 -2247 0
h 2242 -2247 0
h 2243 -2247 0
h 2244 -2247 0
h 2245 -2247 0
h 2246 -2247 0
h -87 -2247 0
h -2248 -326 95 0
h 326 2248 0
h -95 2248 0
h -2249 -325 94 0
h 325 2249 0
h -94 2249 0
h -2250 -324 93 0
h 324 2250 0
h -93 2250 0
h -2251 -323 92 0
h 323 2251 0
h -92 2251 0
h -2252 -322 91 0
h 322 2252 0
h -91 2252 0
h -2253 -321 90 0
h 321 2253 0
h -90 2253 0
h -2254 -320 89 0
h 320 2254 0
h -89 2254 0
h -2255 -319 88 0
h 319 2255 0
h -88 2255 0
h -2256 -318 87 0
h 318 2256 0
h -87 2256 0
h 2257 -96 -2248 -2249 -2250 -2251 -2252 -2253 -2254 -2255 -2256 317 316 0
h 96 -2257 0
h 2248 -2257 0
h 2249 -2257 0
h 2250 -2257 0
h 2251 -2257 0
h 2252 -2257 0
h 2253 -2257 0
h 2254 -2257 0
h 2255 -2257 0
h 2256 -2257 0
h -317 -2257 0
h -316 -2257 0
h 2258 -142 238 0
h 142 -2258 0
h -238 -2258 0
h 2259 -238 142 0
h 238 -2259 0
h -142 -2259 0
h 2260 -143 239 0
h 143 -2260 0
h -239 -2260 0
h 2261 -239 143 0
h 239 -2261 0
h -143 -2261 0
h 2262 -144 240 0
h 144 -2262 0
h -240 -2262 0
h 2263 -240 144 0
h 240 -2263 0
h -144 -2263 0
h 2264 -145 241 0
h 145 -2264 0
h -241 -2264 0
h 2265 -241 145 0
h 241 -2265 0
h -145 -2265 0
h -2266 -119 325 0
h 119 2266 0
h -325 2266 0
h -2267 -118 324 0
h 118 2267 0
h -324 2267 0
h -2268 -117 323 0
h 117 2268 0
h -323 2268 0
h -2269 -116 322 0
h 116 2269 0
h -322 2269 0
h -2270 -115 321 0
h 115 2270 0
h -321 2270 0
h -2271 -114 320 0
h 114 2271 0
h -320 2271 0
h -2272 -113 319 0
h 113 2272 0
h -319 2272 0
h -2273 -112 318 0
h 112 2273 0
h -318 2273 0
h -2274 -111 317 0
h 111 2274 0
h -317 2274 0
h -2275 -110 316 0
h 110 2275 0
h -316 2275 0
h 2276 -326 -2266 -2267 -2268 -2269 -2270 -2271 -2272 -2273 -2274 -2275 109 0
h 326 -2276 0
h 2266 -2276 0
h 2267 -2276 0
h 2268 -2276 0
h 2269 -2276 0
h 2270 -2276 0
h 2271 -2276 0
h 2272 -2276 0
h 2273 -2276 0
h 2274 -2276 0
h 2275 -2276 0
h -109 -2276 0
h -2277 -326 117 0
h 326 2277 0
h -117 2277 0
h -2278 -325 116 0
h 325 2278 0
h -116 2278 0
h -2279 -324 115 0
h 324 2279 0
h -115 2279 0
h -2280 -323 114 0
h 323 2280 0
h -114 2280 0
h -2281 -322 113 0
h 322 2281 0
h -113 2281 0
h -2282 -321 112 0
h 321 2282 0
h -112 2282 0
h -2283 -320 111 0
h 320 2283 0
h -111 2283 0
h -2284 -319 110 0
h 319 2284 0
h -110 2284 0
h -2285 -318 109 0
h 318 2285 0
h -109 2285 0
h 2286 -118 -2277 -2278 -2279 -2280 -2281 -2282 -2283 -2284 -2285 317 316 0
h 118 -2286 0
h 2277 -2286 0
h 2278 -2286 0
h 2279 -2286 0
h 2280 -2286 0
h 2281 -2286 0
h 2282 -2286 0
h 2283 -2286 0
h 2284 -2286 0
h 2285 -2286 0
h -317 -2286 0
h -316 -2286 0
h 2287 -142 253 0
h 142 -2287 0
h -253 -2287 0
h 2288 -253 142 0
h 253 -2288 0
h -142 -2288 0
h 2289 -143 254 0
h 143 -2289 0
h -254 -2289 0
h 2290 -254 143 0
h 254 -2290 0
h -143 -2290 0
h 2291 -144 255 0
h 144 -2291 0
h -255 -2291 0
h 2292 -255 144 0
h 255 -2292 0
h -144 -2292 0
h 2293 -145 256 0
h 145 -2293 0
h -256 -2293 0
h 2294 -256 145 0
h 256 -2294 0
h -145 -2294 0
h -2295 -97 314 0
h 97 2295 0
h -314 2295 0
h -2296 -96 313 0
h 96 2296 0
h -313 2296 0
h -2297 -95 312 0
h 95 2297 0
h -312 2297 0
h -2298 -94 311 0
h 94 2298 0
h -311 2298 0
h -2299 -93 310 0
h 93 2299 0
h -310 2299 0
h -2300 -92 309 0
h 92 2300 0
h -309 2300 0
h -2301 -91 308 0
h 91 2301 0
h -308 2301 0
h -2302 -90 307 0
h 90 2302 0
h -307 2302 0
h -2303 -89 306 0
h 89 2303 0
h -306 2303 0
h -2304 -88 305 0
h 88 2304 0
h -305 2304 0
h 2305 -315 -2295 -2296 -2297 -2298 -2299 -2300 -2301 -2302 -2303 -2304 87 0
h 315 -2305 0
h 2295 -2305 0
h 2296 -2305 0
h 2297 -2305 0
h 2298 -2305 0
h 2299 -2305 0
h 2300 -2305 0
h 2301 -2305 0
h 2302 -2305 0
h 2303 -2305 0
h 2304 -2305 0
h -87 -2305 0
h -2306 -315 95 0
h 315 2306 0
h -95 2306 0
h -2307 -314 94 0
h 314 2307 0
h -94 2307 0
h -2308 -313 93 0
h 313 2308 0
h -93 2308 0
h -2309 -312 92 0
h 312 2309 0
h -92 2309 0
h -2310 -311 91 0
h 311 2310 0
h -91 2310 0
h -2311 -310 90 0
h 310 2311 0
h -90 2311 0
h -2312 -309 89 0
h 309 2312 0
h -89 2312 0
h -2313 -308 88 0
h 308 2313 0
h -88 2313 0
h -2314 -307 87 0
h 307 2314 0
h -87 2314 0
h 2315 -96 -2306 -2307 -2308 -2309 -2310 -2311 -2312 -2313 -2314 306 305 0
h 96 -2315 0
h 2306 -2315 0
h 2307 -2315 0
h 2308 -2315 0
h 2309 -2315 0
h 2310 -2315 0
h 2311 -2315 0
h 2312 -2315 0
h 2313 -2315 0
h 2314 -2315 0
h -306 -2315 0
h -305 -2315 0
h 2316 -146 238 0
h 146 -2316 0
h -238 -2316 0
h 2317 -238 146 0
h 238 -2317 0
h -146 -2317 0
h 2318 -147 239 0
h 147 -2318 0
h -239 -2318 0
h 2319 -239 147 0
h 239 -2319 0
h -147 -2319 0
h 2320 -148 240 0
h 148 -2320 0
h -240 -2320 0
h 2321 -240 148 0
h 240 -2321 0
h -148 -2321 0
h 2322 -149 241 0
h 149 -2322 0
h -241 -2322 0
h 2323 -241 149 0
h 241 -2323 0
h -149 -2323 0
h -2324 -119 314 0
h 119 2324 0
h -314 2324 0
h -2325 -118 313 0
h 118 2325 0
h -313 2325 0
h -2326 -117 312 0
h 117 2326 0
h -312 2326 0
h -2327 -116 311 0
h 116 2327 0
h -311 2327 0
h -2328 -115 310 0
h 115 2328 0
h -310 2328 0
h -2329 -114 309 0
h 114 2329 0
h -309 2329 0
h -2330 -113 308 0
h 113 2330 0
h -308 2330 0
h -2331 -112 307 0
h 112 2331 0
h -307 2331 0
h -2332 -111 306 0
h 111 2332 0
h -306 2332 0
h -2333 -110 305 0
h 110 2333 0
h -305 2333 0
h 2334 -315 -2324 -2325 -2326 -2327 -2328 -2329 -2330 -2331 -2332 -2333 109 0
h 315 -2334 0
h 2324 -2334 0
h 2325 -2334 0
h 2326 -2334 0
h 2327 -2334 0
h 2328 -2334 0
h 2329 -2334 0
h 2330 -2334 0
h 2331 -2334 0
h 2332 -2334 0
h 2333 -2334 0
h -109 -2334 0
h -2335 -315 117 0
h 315 2335 0
h -117 2335 0
h -2336 -314 116 0
h 314 2336 0
h -116 2336 0
h -2337 -313 115 0
h 313 2337 0
h -115 2337 0
h -2338 -312 114 0
h 312 2338 0
h -114 2338 0
h -2339 -311 113 0
h 311 2339 0
h -113 2339 0
h -2340 -310 112 0
h 310 2340 0
h -112 2340 0
h -2341 -309 111 0
h 309 2341 0
h -111 2341 0
h -2342 -308 110 0
h 308 2342 0
h -110 2342 0
h -2343 -307 109 0
h 307 2343 0
h -109 2343 0
h 2344 -118 -2335 -2336 -2337 -2338 -2339 -2340 -2341 -2342 -2343 306 305 0
h 118 -2344 0
h 2335 -2344 0
h 2336 -2344 0
h 2337 -2344 0
h 2338 -2344 0
h 2339 -2344 0
h 2340 -2344 0
h 2341 -2344 0
h 2342 -2344 0
h 2343 -2344 0
h -306 -2344 0
h -305 -2344 0
h 2345 -146 253 0
h 146 -2345 0
h -253 -2345 0
h 2346 -253 146 0
h 253 -2346 0
h -146 -2346 0
h 2347 -147 254 0
h 147 -2347 0
h -254 -2347 0
h 2348 -254 147 0
h 254 -2348 0
h -147 -2348 0
h 2349 -148 255 0
h 148 -2349 0
h -255 -2349 0
h 2350 -255 148 0
h 255 -2350 0
h -148 -2350 0
h 2351 -149 256 0
h 149 -2351 0
h -256 -2351 0
h 2352 -256 149 0
h 256 -2352 0
h -149 -2352 0
h -2353 -141 340 0
h 141 2353 0
h -340 2353 0
h -2354 -140 339 0
h 140 2354 0
h -339 2354 0
h -2355 -139 338 0
h 139 2355 0
h -338 2355 0
h -2356 -138 337 0
h 138 2356 0
h -337 2356 0
h -2357 -137 336 0
h 137 2357 0
h -336 2357 0
h -2358 -136 335 0
h 136 2358 0
h -335 2358 0
h -2359 -135 334 0
h 135 2359 0
h -334 2359 0
h -2360 -134 333 0
h 134 2360 0
h -333 2360 0
h -2361 -133 332 0
h 133 2361 0
h -332 2361 0
h -2362 -132 331 0
h 132 2362 0
h -331 2362 0
h 2363 -341 -2353 -2354 -2355 -2356 -2357 -2358 -2359 -2360 -2361 -2362 131 0
h 341 -2363 0
h 2353 -2363 0
h 2354 -2363 0
h 2355 -2363 0
h 2356 -2363 0
h 2357 -2363 0
h 2358 -2363 0
h 2359 -2363 0
h 2360 -2363 0
h 2361 -2363 0
h 2362 -2363 0
h -131 -2363 0
h -2364 -341 139 0
h 341 2364 0
h -139 2364 0
h -2365 -340 138 0
h 340 2365 0
h -138 2365 0
h -2366 -339 137 0
h 339 2366 0
h -137 2366 0
h -2367 -338 136 0
h 338 2367 0
h -136 2367 0
h -2368 -337 135 0
h 337 2368 0
h -135 2368 0
h -2369 -336 134 0
h 336 2369 0
h -134 2369 0
h -2370 -335 133 0
h 335 2370 0
h -133 2370 0
h -2371 -334 132 0
h 334 2371 0
h -132 2371 0
h -2372 -333 131 0
h 333 2372 0
h -131 2372 0
h 2373 -140 -2364 -2365 -2366 -2367 -2368 -2369 -2370 -2371 -2372 332 331 0
h 140 -2373 0
h 2364 -2373 0
h 2365 -2373 0
h 2366 -2373 0
h 2367 -2373 0
h 2368 -2373 0
h 2369 -2373 0
h 2370 -2373 0
h 2371 -2373 0
h 2372 -2373 0
h -332 -2373 0
h -331 -2373 0
h 2374 -150 223 0
h 150 -2374 0
h -223 -2374 0
h 2375 -223 150 0
h 223 -2375 0
h -150 -2375 0
h 2376 -151 224 0
h 151 -2376 0
h -224 -2376 0
h 2377 -224 151 0
h 224 -2377 0
h -151 -2377 0
h 2378 -152 225 0
h 152 -2378 0
h -225 -2378 0
h 2379 -225 152 0
h 225 -2379 0
h -152 -2379 0
h 2380 -153 226 0
h 153 -2380 0
h -226 -2380 0
h 2381 -226 153 0
h 226 -2381 0
h -153 -2381 0
h -2382 -141 325 0
h 141 2382 0
h -325 2382 0
h -2383 -140 324 0
h 140 2383 0
h -324 2383 0
h -2384 -139 323 0
h 139 2384 0
h -323 2384 0
h -2385 -138 322 0
h 138 2385 0
h -322 2385 0
h -2386 -137 321 0
h 137 2386 0
h -321 2386 0
h -2387 -136 320 0
h 136 2387 0
h -320 2387 0
h -2388 -135 319 0
h 135 2388 0
h -319 2388 0
h -2389 -134 318 0
h 134 2389 0
h -318 2389 0
h -2390 -133 317 0
h 133 2390 0
h -317 2390 0
h -2391 -132 316 0
h 132 2391 0
h -316 2391 0
h 2392 -326 -2382 -2383 -2384 -2385 -2386 -2387 -2388 -2389 -2390 -2391 131 0
h 326 -2392 0
h 2382 -2392 0
h 2383 -2392 0
h 2384 -2392 0
h 2385 -2392 0
h 2386 -2392 0
h 2387 -2392 0
h 2388 -2392 0
h 2389 -2392 0
h 2390 -2392 0
h 2391 -2392 0
h -131 -2392 0
h -2393 -326 139 0
h 326 2393 0
h -139 2393 0
h -2394 -325 138 0
h 325 2394 0
h -138 2394 0
h -2395 -324 137 0
h 324 2395 0
h -137 2395 0
h -2396 -323 136 0
h 323 2396 0
h -136 2396 0
h -2397 -322 135 0
h 322 2397 0
h -135 2397 0
h -2398 -321 134 0
h 321 2398 0
h -134 2398 0
h -2399 -320 133 0
h 320 2399 0
h -133 2399 0
h -2400 -319 132 0
h 319 2400 0
h -132 2400 0
h -2401 -318 131 0
h 318 2401 0
h -131 2401 0
h 2402 -140 -2393 -2394 -2395 -2396 -2397 -2398 -2399 -2400 -2401 317 316 0
h 140 -2402 0
h 2393 -2402 0
h 2394 -2402 0
h 2395 -2402 0
h 2396 -2402 0
h 2397 -2402 0
h 2398 -2402 0
h 2399 -2402 0
h 2400 -2402 0
h 2401 -2402 0
h -317 -2402 0
h -316 -2402 0
h 2403 -142 223 0
h 142 -2403 0
h -223 -2403 0
h 2404 -223 142 0
h 223 -2404 0
h -142 -2404 0
h 2405 -143 224 0
h 143 -2405 0
h -224 -2405 0
h 2406 -224 143 0
h 224 -2406 0
h -143 -2406 0
h 2407 -144 225 0
h 144 -2407 0
h -225 -2407 0
h 2408 -225 144 0
h 225 -2408 0
h -144 -2408 0
h 2409 -145 226 0
h 145 -2409 0
h -226 -2409 0
h 2410 -226 145 0
h 226 -2410 0
h -145 -2410 0
h -2411 -141 314 0
h 141 2411 0
h -314 2411 0
h -2412 -140 313 0
h 140 2412 0
h -313 2412 0
h -2413 -139 312 0
h 139 2413 0
h -312 2413 0
h -2414 -138 311 0
h 138 2414 0
h -311 2414 0
h -2415 -137 310 0
h 137 2415 0
h -310 2415 0
h -2416 -136 309 0
h 136 2416 0
h -309 2416 0
h -2417 -135 308 0
h 135 2417 0
h -308 2417 0
h -2418 -134 307 0
h 134 2418 0
h -307 2418 0
h -2419 -133 306 0
h 133 2419 0
h -306 2419 0
h -2420 -132 305 0
h 132 2420 0
h -305 2420 0
h 2421 -315 -2411 -2412 -2413 -2414 -2415 -2416 -2417 -2418 -2419 -2420 131 0
h 315 -2421 0
h 2411 -2421 0
h 2412 -2421 0
h 2413 -2421 0
h 2414 -2421 0
h 2415 -2421 0
h 2416 -2421 0
h 2417 -2421 0
h 2418 -2421 0
h 2419 -2421 0
h 2420 -2421 0
h -131 -2421 0
h -2422 -315 139 0
h 315 2422 0
h -139 2422 0
h -2423 -314 138 0
h 314 2423 0
h -138 2423 0
h -2424 -313 137 0
h 313 2424 0
h -137 2424 0
h -2425 -312 136 0
h 312 2425 0
h -136 2425 0
h -2426 -311 135 0
h 311 2426 0
h -135 2426 0
h -2427 -310 134 0
h 310 2427 0
h -134 2427 0
h -2428 -309 133 0
h 309 2428 0
h -133 2428 0
h -2429 -308 132 0
h 308 2429 0
h -132 2429 0
h -2430 -307 131 0
h 307 2430 0
h -131 2430 0
h 2431 -140 -2422 -2423 -2424 -2425 -2426 -2427 -2428 -2429 -2430 306 305 0
h 140 -2431 0
h 2422 -2431 0
h 2423 -2431 0
h 2424 -2431 0
h 2425 -2431 0
h 2426 -2431 0
h 2427 -2431 0
h 2428 -2431 0
h 2429 -2431 0
h 2430 -2431 0
h -306 -2431 0
h -305 -2431 0
h 2432 -146 223 0
h 146 -2432 0
h -223 -2432 0
h 2433 -223 146 0
h 223 -2433 0
h -146 -2433 0
h 2434 -147 224 0
h 147 -2434 0
h -224 -2434 0
h 2435 -224 147 0
h 224 -2435 0
h -147 -2435 0
h 2436 -148 225 0
h 148 -2436 0
h -225 -2436 0
h 2437 -225 148 0
h 225 -2437 0
h -148 -2437 0
h 2438 -149 226 0
h 149 -2438 0
h -226 -2438 0
h 2439 -226 149 0
h 226 -2439 0
h -149 -2439 0
h -2440 -278 340 0
h 278 2440 0
h -340 2440 0
h -2441 -277 339 0
h 277 2441 0
h -339 2441 0
h -2442 -276 338 0
h 276 2442 0
h -338 2442 0
h -2443 -275 337 0
h 275 2443 0
h -337 2443 0
h -2444 -274 336 0
h 274 2444 0
h -336 2444 0
h -2445 -273 335 0
h 273 2445 0
h -335 2445 0
h -2446 -272 334 0
h 272 2446 0
h -334 2446 0
h -2447 -271 333 0
h 271 2447 0
h -333 2447 0
h -2448 -270 332 0
h 270 2448 0
h -332 2448 0
h -2449 -269 331 0
h 269 2449 0
h -331 2449 0
h 2450 -341 -2440 -2441 -2442 -2443 -2444 -2445 -2446 -2447 -2448 -2449 268 0
h 341 -2450 0
h 2440 -2450 0
h 2441 -2450 0
h 2442 -2450 0
h 2443 -2450 0
h 2444 -2450 0
h 2445 -2450 0
h 2446 -2450 0
h 2447 -2450 0
h 2448 -2450 0
h 2449 -2450 0
h -268 -2450 0
h -2451 -341 277 0
h 341 2451 0
h -277 2451 0
h -2452 -340 276 0
h 340 2452 0
h -276 2452 0
h -2453 -339 275 0
h 339 2453 0
h -275 2453 0
h -2454 -338 274 0
h 338 2454 0
h -274 2454 0
h -2455 -337 273 0
h 337 2455 0
h -273 2455 0
h -2456 -336 272 0
h 336 2456 0
h -272 2456 0
h -2457 -335 271 0
h 335 2457 0
h -271 2457 0
h -2458 -334 270 0
h 334 2458 0
h -270 2458 0
h -2459 -333 269 0
h 333 2459 0
h -269 2459 0
h -2460 -332 268 0
h 332 2460 0
h -268 2460 0
h 2461 -278 -2451 -2452 -2453 -2454 -2455 -2456 -2457 -2458 -2459 -2460 331 0
h 278 -2461 0
h 2451 -2461 0
h 2452 -2461 0
h 2453 -2461 0
h 2454 -2461 0
h 2455 -2461 0
h 2456 -2461 0
h 2457 -2461 0
h 2458 -2461 0
h 2459 -2461 0
h 2460 -2461 0
h -331 -2461 0
h 2462 -150 42 0
h 150 -2462 0
h -42 -2462 0
h 2463 -42 150 0
h 42 -2463 0
h -150 -2463 0
h 2464 -151 43 0
h 151 -2464 0
h -43 -2464 0
h 2465 -43 151 0
h 43 -2465 0
h -151 -2465 0
h 2466 -152 44 0
h 152 -2466 0
h -44 -2466 0
h 2467 -44 152 0
h 44 -2467 0
h -152 -2467 0
h 2468 -153 45 0
h 153 -2468 0
h -45 -2468 0
h 2469 -45 153 0
h 45 -2469 0
h -153 -2469 0
h -2470 -300 340 0
h 300 2470 0
h -340 2470 0
h -2471 -299 339 0
h 299 2471 0
h -339 2471 0
h -2472 -298 338 0
h 298 2472 0
h -338 2472 0
h -2473 -297 337 0
h 297 2473 0
h -337 2473 0
h -2474 -296 336 0
h 296 2474 0
h -336 2474 0
h -2475 -295 335 0
h 295 2475 0
h -335 2475 0
h -2476 -294 334 0
h 294 2476 0
h -334 2476 0
h -2477 -293 333 0
h 293 2477 0
h -333 2477 0
h -2478 -292 332 0
h 292 2478 0
h -332 2478 0
h -2479 -291 331 0
h 291 2479 0
h -331 2479 0
h 2480 -341 -2470 -2471 -2472 -2473 -2474 -2475 -2476 -2477 -2478 -2479 290 0
h 341 -2480 0
h 2470 -2480 0
h 2471 -2480 0
h 2472 -2480 0
h 2473 -2480 0
h 2474 -2480 0
h 2475 -2480 0
h 2476 -2480 0
h 2477 -2480 0
h 2478 -2480 0
h 2479 -2480 0
h -290 -2480 0
h -2481 -341 299 0
h 341 2481 0
h -299 2481 0
h -2482 -340 298 0
h 340 2482 0
h -298 2482 0
h -2483 -339 297 0
h 339 2483 0
h -297 2483 0
h -2484 -338 296 0
h 338 2484 0
h -296 2484 0
h -2485 -337 295 0
h 337 2485 0
h -295 2485 0
h -2486 -336 294 0
h 336 2486 0
h -294 2486 0
h -2487 -335 293 0
h 335 2487 0
h -293 2487 0
h -2488 -334 292 0
h 334 2488 0
h -292 2488 0
h -2489 -333 291 0
h 333 2489 0
h -291 2489 0
h -2490 -332 290 0
h 332 2490 0
h -290 2490 0
h 2491 -300 -2481 -2482 -2483 -2484 -2485 -2486 -2487 -2488 -2489 -2490 331 0
h 300 -2491 0
h 2481 -2491 0
h 2482 -2491 0
h 2483 -2491 0
h 2484 -2491 0
h 2485 -2491 0
h 2486 -2491 0
h 2487 -2491 0
h 2488 -2491 0
h 2489 -2491 0
h 2490 -2491 0
h -331 -2491 0
h 2492 -150 61 0
h 150 -2492 0
h -61 -2492 0
h 2493 -61 150 0
h 61 -2493 0
h -150 -2493 0
h 2494 -151 62 0
h 151 -2494 0
h -62 -2494 0
h 2495 -62 151 0
h 62 -2495 0
h -151 -2495 0
h 2496 -152 63 0
h 152 -2496 0
h -63 -2496 0
h 2497 -63 152 0
h 63 -2497 0
h -152 -2497 0
h 2498 -153 64 0
h 153 -2498 0
h -64 -2498 0
h 2499 -64 153 0
h 64 -2499 0
h -153 -2499 0
h -2500 -289 340 0
h 289 2500 0
h -340 2500 0
h -2501 -288 339 0
h 288 2501 0
h -339 2501 0
h -2502 -287 338 0
h 287 2502 0
h -338 2502 0
h -2503 -286 337 0
h 286 2503 0
h -337 2503 0
h -2504 -285 336 0
h 285 2504 0
h -336 2504 0
h -2505 -284 335 0
h 284 2505 0
h -335 2505 0
h -2506 -283 334 0
h 283 2506 0
h -334 2506 0
h -2507 -282 333 0
h 282 2507 0
h -333 2507 0
h -2508 -281 332 0
h 281 2508 0
h -332 2508 0
h -2509 -280 331 0
h 280 2509 0
h -331 2509 0
h 2510 -341 -2500 -2501 -2502 -2503 -2504 -2505 -2506 -2507 -2508 -2509 279 0
h 341 -2510 0
h 2500 -2510 0
h 2501 -2510 0
h 2502 -2510 0
h 2503 -2510 0
h 2504 -2510 0
h 2505 -2510 0
h 2506 -2510 0
h 2507 -2510 0
h 2508 -2510 0
h 2509 -2510 0
h -279 -2510 0
h -2511 -341 288 0
h 341 2511 0
h -288 2511 0
h -2512 -340 287 0
h 340 2512 0
h -287 2512 0
h -2513 -339 286 0
h 339 2513 0
h -286 2513 0
h -2514 -338 285 0
h 338 2514 0
h -285 2514 0
h -2515 -337 284 0
h 337 2515 0
h -284 2515 0
h -2516 -336 283 0
h 336 2516 0
h -283 2516 0
h -2517 -335 282 0
h 335 2517 0
h -282 2517 0
h -2518 -334 281 0
h 334 2518 0
h -281 2518 0
h -2519 -333 280 0
h 333 2519 0
h -280 2519 0
h -2520 -332 279 0
h 332 2520 0
h -279 2520 0
h 2521 -289 -2511 -2512 -2513 -2514 -2515 -2516 -2517 -2518 -2519 -2520 331 0
h 289 -2521 0
h 2511 -2521 0
h 2512 -2521 0
h 2513 -2521 0
h 2514 -2521 0
h 2515 -2521 0
h 2516 -2521 0
h 2517 -2521 0
h 2518 -2521 0
h 2519 -2521 0
h 2520 -2521 0
h -331 -2521 0
h 2522 -150 57 0
h 150 -2522 0
h -57 -2522 0
h 2523 -57 150 0
h 57 -2523 0
h -150 -2523 0
h 2524 -151 58 0
h 151 -2524 0
h -58 -2524 0
h 2525 -58 151 0
h 58 -2525 0
h -151 -2525 0
h 2526 -152 59 0
h 152 -2526 0
h -59 -2526 0
h 2527 -59 152 0
h 59 -2527 0
h -152 -2527 0
h 2528 -153 60 0
h 153 -2528 0
h -60 -2528 0
h 2529 -60 153 0
h 60 -2529 0
h -153 -2529 0
h -2530 -278 325 0
h 278 2530 0
h -325 2530 0
h -2531 -277 324 0
h 277 2531 0
h -324 2531 0
h -2532 -276 323 0
h 276 2532 0
h -323 2532 0
h -2533 -275 322 0
h 275 2533 0
h -322 2533 0
h -2534 -274 321 0
h 274 2534 0
h -321 2534 0
h -2535 -273 320 0
h 273 2535 0
h -320 2535 0
h -2536 -272 319 0
h 272 2536 0
h -319 2536 0
h -2537 -271 318 0
h 271 2537 0
h -318 2537 0
h -2538 -270 317 0
h 270 2538 0
h -317 2538 0
h -2539 -269 316 0
h 269 2539 0
h -316 2539 0
h 2540 -326 -2530 -2531 -2532 -2533 -2534 -2535 -2536 -2537 -2538 -2539 268 0
h 326 -2540 0
h 2530 -2540 0
h 2531 -2540 0
h 2532 -2540 0
h 2533 -2540 0
h 2534 -2540 0
h 2535 -2540 0
h 2536 -2540 0
h 2537 -2540 0
h 2538 -2540 0
h 2539 -2540 0
h -268 -2540 0
h -2541 -326 277 0
h 326 2541 0
h -277 2541 0
h -2542 -325 276 0
h 325 2542 0
h -276 2542 0
h -2543 -324 275 0
h 324 2543 0
h -275 2543 0
h -2544 -323 274 0
h 323 2544 0
h -274 2544 0
h -2545 -322 273 0
h 322 2545 0
h -273 2545 0
h -2546 -321 272 0
h 321 2546 0
h -272 2546 0
h -2547 -320 271 0
h 320 2547 0
h -271 2547 0
h -2548 -319 270 0
h 319 2548 0
h -270 2548 0
h -2549 -318 269 0
h 318 2549 0
h -269 2549 0
h -2550 -317 268 0
h 317 2550 0
h -268 2550 0
h 2551 -278 -2541 -2542 -2543 -2544 -2545 -2546 -2547 -2548 -2549 -2550 316 0
h 278 -2551 0
h 2541 -2551 0
h 2542 -2551 0
h 2543 -2551 0
h 2544 -2551 0
h 2545 -2551 0
h 2546 -2551 0
h 2547 -2551 0
h 2548 -2551 0
h 2549 -2551 0
h 2550 -2551 0
h -316 -2551 0
h 2552 -142 42 0
h 142 -2552 0
h -42 -2552 0
h 2553 -42 142 0
h 42 -2553 0
h -142 -2553 0
h 2554 -143 43 0
h 143 -2554 0
h -43 -2554 0
h 2555 -43 143 0
h 43 -2555 0
h -143 -2555 0
h 2556 -144 44 0
h 144 -2556 0
h -44 -2556 0
h 2557 -44 144 0
h 44 -2557 0
h -144 -2557 0
h 2558 -145 45 0
h 145 -2558 0
h -45 -2558 0
h 2559 -45 145 0
h 45 -2559 0
h -145 -2559 0
h -2560 -300 325 0
h 300 2560 0
h -325 2560 0
h -2561 -299 324 0
h 299 2561 0
h -324 2561 0
h -2562 -298 323 0
h 298 2562 0
h -323 2562 0
h -2563 -297 322 0
h 297 2563 0
h -322 2563 0
h -2564 -296 321 0
h 296 2564 0
h -321 2564 0
h -2565 -295 320 0
h 295 2565 0
h -320 2565 0
h -2566 -294 319 0
h 294 2566 0
h -319 2566 0
h -2567 -293 318 0
h 293 2567 0
h -318 2567 0
h -2568 -292 317 0
h 292 2568 0
h -317 2568 0
h -2569 -291 316 0
h 291 2569 0
h -316 2569 0
h 2570 -326 -2560 -2561 -2562 -2563 -2564 -2565 -2566 -2567 -2568 -2569 290 0
h 326 -2570 0
h 2560 -2570 0
h 2561 -2570 0
h 2562 -2570 0
h 2563 -2570 0
h 2564 -2570 0
h 2565 -2570 0
h 2566 -2570 0
h 2567 -2570 0
h 2568 -2570 0
h 2569 -2570 0
h -290 -2570 0
h -2571 -326 299 0
h 326 2571 0
h -299 2571 0
h -2572 -325 298 0
h 325 2572 0
h -298 2572 0
h -2573 -324 297 0
h 324 2573 0
h -297 2573 0
h -2574 -323 296 0
h 323 2574 0
h -296 2574 0
h -2575 -322 295 0
h 322 2575 0
h -295 2575 0
h -2576 -321 294 0
h 321 2576 0
h -294 2576 0
h -2577 -320 293 0
h 320 2577 0
h -293 2577 0
h -2578 -319 292 0
h 319 2578 0
h -292 2578 0
h -2579 -318 291 0
h 318 2579 0
h -291 2579 0
h -2580 -317 290 0
h 317 2580 0
h -290 2580 0
h 2581 -300 -2571 -2572 -2573 -2574 -2575 -2576 -2577 -2578 -2579 -2580 316 0
h 300 -2581 0
h 2571 -2581 0
h 2572 -2581 0
h 2573 -2581 0
h 2574 -2581 0
h 2575 -2581 0
h 2576 -2581 0
h 2577 -2581 0
h 2578 -2581 0
h 2579 -2581 0
h 2580 -2581 0
h -316 -2581 0
h 2582 -142 61 0
h 142 -2582 0
h -61 -2582 0
h 2583 -61 142 0
h 61 -2583 0
h -142 -2583 0
h 2584 -143 62 0
h 143 -2584 0
h -62 -2584 0
h 2585 -62 143 0
h 62 -2585 0
h -143 -2585 0
h 2586 -144 63 0
h 144 -2586 0
h -63 -2586 0
h 2587 -63 144 0
h 63 -2587 0
h -144 -2587 0
h 2588 -145 64 0
h 145 -2588 0
h -64 -2588 0
h 2589 -64 145 0
h 64 -2589 0
h -145 -2589 0
h -2590 -289 325 0
h 289 2590 0
h -325 2590 0
h -2591 -288 324 0
h 288 2591 0
h -324 2591 0
h -2592 -287 323 0
h 287 2592 0
h -323 2592 0
h -2593 -286 322 0
h 286 2593 0
h -322 2593 0
h -2594 -285 321 0
h 285 2594 0
h -321 2594 0
h -2595 -284 320 0
h 284 2595 0
h -320 2595 0
h -2596 -283 319 0
h 283 2596 0
h -319 2596 0
h -2597 -282 318 0
h 282 2597 0
h -318 2597 0
h -2598 -281 317 0
h 281 2598 0
h -317 2598 0
h -2599 -280 316 0
h 280 2599 0
h -316 2599 0
h 2600 -326 -2590 -2591 -2592 -2593 -2594 -2595 -2596 -2597 -2598 -2599 279 0
h 326 -2600 0
h 2590 -2600 0
h 2591 -2600 0
h 2592 -2600 0
h 2593 -2600 0
h 2594 -2600 0
h 2595 -2600 0
h 2596 -2600 0
h 2597 -2600 0
h 2598 -2600 0
h 2599 -2600 0
h -279 -2600 0
h -2601 -326 288 0
h 326 2601 0
h -288 2601 0
h -2602 -325 287 0
h 325 2602 0
h -287 2602 0
h -2603 -324 286 0
h 324 2603 0
h -286 2603 0
h -2604 -323 285 0
h 323 2604 0
h -285 2604 0
h -2605 -322 284 0
h 322 2605 0
h -284 2605 0
h -2606 -321 283 0
h 321 2606 0
h -283 2606 0
h -2607 -320 282 0
h 320 2607 0
h -282 2607 0
h -2608 -319 281 0
h 319 2608 0
h -281 2608 0
h -2609 -318 280 0
h 318 2609 0
h -280 2609 0
h -2610 -317 279 0
h 317 2610 0
h -279 2610 0
h 2611 -289 -2601 -2602 -2603 -2604 -2605 -2606 -2607 -2608 -2609 -2610 316 0
h 289 -2611 0
h 2601 -2611 0
h 2602 -2611 0
h 2603 -2611 0
h 2604 -2611 0
h 2605 -2611 0
h 2606 -2611 0
h 2607 -2611 0
h 2608 -2611 0
h 2609 -2611 0
h 2610 -2611 0
h -316 -2611 0
h 2612 -142 57 0
h 142 -2612 0
h -57 -2612 0
h 2613 -57 142 0
h 57 -2613 0
h -142 -2613 0
h 2614 -143 58 0
h 143 -2614 0
h -58 -2614 0
h 2615 -58 143 0
h 58 -2615 0
h -143 -2615 0
h 2616 -144 59 0
h 144 -2616 0
h -59 -2616 0
h 2617 -59 144 0
h 59 -2617 0
h -144 -2617 0
h 2618 -145 60 0
h 145 -2618 0
h -60 -2618 0
h 2619 -60 145 0
h 60 -2619 0
h -145 -2619 0
h -2620 -278 314 0
h 278 2620 0
h -314 2620 0
h -2621 -277 313 0
h 277 2621 0
h -313 2621 0
h -2622 -276 312 0
h 276 2622 0
h -312 2622 0
h -2623 -275 311 0
h 275 2623 0
h -311 2623 0
h -2624 -274 310 0
h 274 2624 0
h -310 2624 0
h -2625 -273 309 0
h 273 2625 0
h -309 2625 0
h -2626 -272 308 0
h 272 2626 0
h -308 2626 0
h -2627 -271 307 0
h 271 2627 0
h -307 2627 0
h -2628 -270 306 0
h 270 2628 0
h -306 2628 0
h -2629 -269 305 0
h 269 2629 0
h -305 2629 0
h 2630 -315 -2620 -2621 -2622 -2623 -2624 -2625 -2626 -2627 -2628 -2629 268 0
h 315 -2630 0
h 2620 -2630 0
h 2621 -2630 0
h 2622 -2630 0
h 2623 -2630 0
h 2624 -2630 0
h 2625 -2630 0
h 2626 -2630 0
h 2627 -2630 0
h 2628 -2630 0
h 2629 -2630 0
h -268 -2630 0
h -2631 -315 277 0
h 315 2631 0
h -277 2631 0
h -2632 -314 276 0
h 314 2632 0
h -276 2632 0
h -2633 -313 275 0
h 313 2633 0
h -275 2633 0
h -2634 -312 274 0
h 312 2634 0
h -274 2634 0
h -2635 -311 273 0
h 311 2635 0
h -273 2635 0
h -2636 -310 272 0
h 310 2636 0
h -272 2636 0
h -2637 -309 271 0
h 309 2637 0
h -271 2637 0
h -2638 -308 270 0
h 308 2638 0
h -270 2638 0
h -2639 -307 269 0
h 307 2639 0
h -269 2639 0
h -2640 -306 268 0
h 306 2640 0
h -268 2640 0
h 2641 -278 -2631 -2632 -2633 -2634 -2635 -2636 -2637 -2638 -2639 -2640 305 0
h 278 -2641 0
h 2631 -2641 0
h 2632 -2641 0
h 2633 -2641 0
h 2634 -2641 0
h 2635 -2641 0
h 2636 -2641 0
h 2637 -2641 0
h 2638 -2641 0
h 2639 -2641 0
h 2640 -2641 0
h -305 -2641 0
h 2642 -146 42 0
h 146 -2642 0
h -42 -2642 0
h 2643 -42 146 0
h 42 -2643 0
h -146 -2643 0
h 2644 -147 43 0
h 147 -2644 0
h -43 -2644 0
h 2645 -43 147 0
h 43 -2645 0
h -147 -2645 0
h 2646 -148 44 0
h 148 -2646 0
h -44 -2646 0
h 2647 -44 148 0
h 44 -2647 0
h -148 -2647 0
h 2648 -149 45 0
h 149 -2648 0
h -45 -2648 0
h 2649 -45 149 0
h 45 -2649 0
h -149 -2649 0
h -2650 -300 314 0
h 300 2650 0
h -314 2650 0
h -2651 -299 313 0
h 299 2651 0
h -313 2651 0
h -2652 -298 312 0
h 298 2652 0
h -312 2652 0
h -2653 -297 311 0
h 297 2653 0
h -311 2653 0
h -2654 -296 310 0
h 296 2654 0
h -310 2654 0
h -2655 -295 309 0
h 295 2655 0
h -309 2655 0
h -2656 -294 308 0
h 294 2656 0
h -308 2656 0
h -2657 -293 307 0
h 293 2657 0
h -307 2657 0
h -2658 -292 306 0
h 292 2658 0
h -306 2658 0
h -2659 -291 305 0
h 291 2659 0
h -305 2659 0
h 2660 -315 -2650 -2651 -2652 -2653 -2654 -2655 -2656 -2657 -2658 -2659 290 0
h 315 -2660 0
h 2650 -2660 0
h 2651 -2660 0
h 2652 -2660 0
h 2653 -2660 0
h 2654 -2660 0
h 2655 -2660 0
h 2656 -2660 0
h 2657 -2660 0
h 2658 -2660 0
h 2659 -2660 0
h -290 -2660 0
h -2661 -315 299 0
h 315 2661 0
h -299 2661 0
h -2662 -314 298 0
h 314 2662 0
h -298 2662 0
h -2663 -313 297 0
h 313 2663 0
h -297 2663 0
h -2664 -312 296 0
h 312 2664 0
h -296 2664 0
h -2665 -311 295 0
h 311 2665 0
h -295 2665 0
h -2666 -310 294 0
h 310 2666 0
h -294 2666 0
h -2667 -309 293 0
h 309 2667 0
h -293 2667 0
h -2668 -308 292 0
h 308 2668 0
h -292 2668 0
h -2669 -307 291 0
h 307 2669 0
h -291 2669 0
h -2670 -306 290 0
h 306 2670 0
h -290 2670 0
h 2671 -300 -2661 -2662 -2663 -2664 -2665 -2666 -2667 -2668 -2669 -2670 305 0
h 300 -2671 0
h 2661 -2671 0
h 2662 -2671 0
h 2663 -2671 0
h 2664 -2671 0
h 2665 -2671 0
h 2666 -2671 0
h 2667 -2671 0
h 2668 -2671 0
h 2669 -2671 0
h 2670 -2671 0
h -305 -2671 0
h 2672 -146 61 0
h 146 -2672 0
h -61 -2672 0
h 2673 -61 146 0
h 61 -2673 0
h -146 -2673 0
h 2674 -147 62 0
h 147 -2674 0
h -62 -2674 0
h 2675 -62 147 0
h 62 -2675 0
h -147 -2675 0
h 2676 -148 63 0
h 148 -2676 0
h -63 -2676 0
h 2677 -63 148 0
h 63 -2677 0
h -148 -2677 0
h 2678 -149 64 0
h 149 -2678 0
h -64 -2678 0
h 2679 -64 149 0
h 64 -2679 0
h -149 -2679 0
h -2680 -289 314 0
h 289 2680 0
h -314 2680 0
h -2681 -288 313 0
h 288 2681 0
h -313 2681 0
h -2682 -287 312 0
h 287 2682 0
h -312 2682 0
h -2683 -286 311 0
h 286 2683 0
h -311 2683 0
h -2684 -285 310 0
h 285 2684 0
h -310 2684 0
h -2685 -284 309 0
h 284 2685 0
h -309 2685 0
h -2686 -283 308 0
h 283 2686 0
h -308 2686 0
h -2687 -282 307 0
h 282 2687 0
h -307 2687 0
h -2688 -281 306 0
h 281 2688 0
h -306 2688 0
h -2689 -280 305 0
h 280 2689 0
h -305 2689 0
h 2690 -315 -2680 -2681 -2682 -2683 -2684 -2685 -2686 -2687 -2688 -2689 279 0
h 315 -2690 0
h 2680 -2690 0
h 2681 -2690 0
h 2682 -2690 0
h 2683 -2690 0
h 2684 -2690 0
h 2685 -2690 0
h 2686 -2690 0
h 2687 -2690 0
h 2688 -2690 0
h 2689 -2690 0
h -279 -2690 0
h -2691 -315 288 0
h 315 2691 0
h -288 2691 0
h -2692 -314 287 0
h 314 2692 0
h -287 2692 0
h -2693 -313 286 0
h 313 2693 0
h -286 2693 0
h -2694 -312 285 0
h 312 2694 0
h -285 2694 0
h -2695 -311 284 0
h 311 2695 0
h -284 2695 0
h -2696 -310 283 0
h 310 2696 0
h -283 2696 0
h -2697 -309 282 0
h 309 2697 0
h -282 2697 0
h -2698 -308 281 0
h 308 2698 0
h -281 2698 0
h -2699 -307 280 0
h 307 2699 0
h -280 2699 0
h -2700 -306 279 0
h 306 2700 0
h -279 2700 0
h 2701 -289 -2691 -2692 -2693 -2694 -2695 -2696 -2697 -2698 -2699 -2700 305 0
h 289 -2701 0
h 2691 -2701 0
h 2692 -2701 0
h 2693 -2701 0
h 2694 -2701 0
h 2695 -2701 0
h 2696 -2701 0
h 2697 -2701 0
h 2698 -2701 0
h 2699 -2701 0
h 2700 -2701 0
h -305 -2701 0
h 2702 -146 57 0
h 146 -2702 0
h -57 -2702 0
h 2703 -57 146 0
h 57 -2703 0
h -146 -2703 0
h 2704 -147 58 0
h 147 -2704 0
h -58 -2704 0
h 2705 -58 147 0
h 58 -2705 0
h -147 -2705 0
h 2706 -148 59 0
h 148 -2706 0
h -59 -2706 0
h 2707 -59 148 0
h 59 -2707 0
h -148 -2707 0
h 2708 -149 60 0
h 149 -2708 0
h -60 -2708 0
h 2709 -60 149 0
h 60 -2709 0
h -149 -2709 0
h -2710 -252 354 0
h 252 2710 0
h -354 2710 0
h -2711 -251 353 0
h 251 2711 0
h -353 2711 0
h -2712 -250 352 0
h 250 2712 0
h -352 2712 0
h -2713 -249 351 0
h 249 2713 0
h -351 2713 0
h -2714 -248 350 0
h 248 2714 0
h -350 2714 0
h -2715 -247 349 0
h 247 2715 0
h -349 2715 0
h -2716 -246 348 0
h 246 2716 0
h -348 2716 0
h -2717 -245 347 0
h 245 2717 0
h -347 2717 0
h -2718 -244 346 0
h 244 2718 0
h -346 2718 0
h 2719 -355 -2710 -2711 -2712 -2713 -2714 -2715 -2716 -2717 -2718 243 242 0
h 355 -2719 0
h 2710 -2719 0
h 2711 -2719 0
h 2712 -2719 0
h 2713 -2719 0
h 2714 -2719 0
h 2715 -2719 0
h 2716 -2719 0
h 2717 -2719 0
h 2718 -2719 0
h -243 -2719 0
h -242 -2719 0
h -2720 -356 249 0
h 356 2720 0
h -249 2720 0
h -2721 -355 248 0
h 355 2721 0
h -248 2721 0
h -2722 -354 247 0
h 354 2722 0
h -247 2722 0
h -2723 -353 246 0
h 353 2723 0
h -246 2723 0
h -2724 -352 245 0
h 352 2724 0
h -245 2724 0
h -2725 -351 244 0
h 351 2725 0
h -244 2725 0
h -2726 -350 243 0
h 350 2726 0
h -243 2726 0
h -2727 -349 242 0
h 349 2727 0
h -242 2727 0
h 2728 -250 -2720 -2721 -2722 -2723 -2724 -2725 -2726 -2727 348 347 346 0
h 250 -2728 0
h 2720 -2728 0
h 2721 -2728 0
h 2722 -2728 0
h 2723 -2728 0
h 2724 -2728 0
h 2725 -2728 0
h 2726 -2728 0
h 2727 -2728 0
h -348 -2728 0
h -347 -2728 0
h -346 -2728 0
h 2729 -154 1 0
h 154 -2729 0
h -1 -2729 0
h 2730 -1 154 0
h 1 -2730 0
h -154 -2730 0
h 2731 -155 2 0
h 155 -2731 0
h -2 -2731 0
h 2732 -2 155 0
h 2 -2732 0
h -155 -2732 0
h 2733 -156 3 0
h 156 -2733 0
h -3 -2733 0
h 2734 -3 156 0
h 3 -2734 0
h -156 -2734 0
h 2735 -157 4 0
h 157 -2735 0
h -4 -2735 0
h 2736 -4 157 0
h 4 -2736 0
h -157 -2736 0
h -2737 -237 354 0
h 237 2737 0
h -354 2737 0
h -2738 -236 353 0
h 236 2738 0
h -353 2738 0
h -2739 -235 352 0
h 235 2739 0
h -352 2739 0
h -2740 -234 351 0
h 234 2740 0
h -351 2740 0
h -2741 -233 350 0
h 233 2741 0
h -350 2741 0
h -2742 -232 349 0
h 232 2742 0
h -349 2742 0
h -2743 -231 348 0
h 231 2743 0
h -348 2743 0
h -2744 -230 347 0
h 230 2744 0
h -347 2744 0
h -2745 -229 346 0
h 229 2745 0
h -346 2745 0
h 2746 -355 -2737 -2738 -2739 -2740 -2741 -2742 -2743 -2744 -2745 228 227 0
h 355 -2746 0
h 2737 -2746 0
h 2738 -2746 0
h 2739 -2746 0
h 2740 -2746 0
h 2741 -2746 0
h 2742 -2746 0
h 2743 -2746 0
h 2744 -2746 0
h 2745 -2746 0
h -228 -2746 0
h -227 -2746 0
h -2747 -356 234 0
h 356 2747 0
h -234 2747 0
h -2748 -355 233 0
h 355 2748 0
h -233 2748 0
h -2749 -354 232 0
h 354 2749 0
h -232 2749 0
h -2750 -353 231 0
h 353 2750 0
h -231 2750 0
h -2751 -352 230 0
h 352 2751 0
h -230 2751 0
h -2752 -351 229 0
h 351 2752 0
h -229 2752 0
h -2753 -350 228 0
h 350 2753 0
h -228 2753 0
h -2754 -349 227 0
h 349 2754 0
h -227 2754 0
h 2755 -235 -2747 -2748 -2749 -2750 -2751 -2752 -2753 -2754 348 347 346 0
h 235 -2755 0
h 2747 -2755 0
h 2748 -2755 0
h 2749 -2755 0
h 2750 -2755 0
h 2751 -2755 0
h 2752 -2755 0
h 2753 -2755 0
h 2754 -2755 0
h -348 -2755 0
h -347 -2755 0
h -346 -2755 0
h 2756 -154 357 0
h 154 -2756 0
h -357 -2756 0
h 2757 -357 154 0
h 357 -2757 0
h -154 -2757 0
h 2758 -155 358 0
h 155 -2758 0
h -358 -2758 0
h 2759 -358 155 0
h 358 -2759 0
h -155 -2759 0
h 2760 -156 359 0
h 156 -2760 0
h -359 -2760 0
h 2761 -359 156 0
h 359 -2761 0
h -156 -2761 0
h 2762 -157 360 0
h 157 -2762 0
h -360 -2762 0
h 2763 -360 157 0
h 360 -2763 0
h -157 -2763 0
h -2764 -130 354 0
h 130 2764 0
h -354 2764 0
h -2765 -129 353 0
h 129 2765 0
h -353 2765 0
h -2766 -128 352 0
h 128 2766 0
h -352 2766 0
h -2767 -127 351 0
h 127 2767 0
h -351 2767 0
h -2768 -126 350 0
h 126 2768 0
h -350 2768 0
h -2769 -125 349 0
h 125 2769 0
h -349 2769 0
h -2770 -124 348 0
h 124 2770 0
h -348 2770 0
h -2771 -123 347 0
h 123 2771 0
h -347 2771 0
h -2772 -122 346 0
h 122 2772 0
h -346 2772 0
h 2773 -355 -2764 -2765 -2766 -2767 -2768 -2769 -2770 -2771 -2772 121 120 0
h 355 -2773 0
h 2764 -2773 0
h 2765 -2773 0
h 2766 -2773 0
h 2767 -2773 0
h 2768 -2773 0
h 2769 -2773 0
h 2770 -2773 0
h 2771 -2773 0
h 2772 -2773 0
h -121 -2773 0
h -120 -2773 0
h -2774 -356 128 0
h 356 2774 0
h -128 2774 0
h -2775 -355 127 0
h 355 2775 0
h -127 2775 0
h -2776 -354 126 0
h 354 2776 0
h -126 2776 0
h -2777 -353 125 0
h 353 2777 0
h -125 2777 0
h -2778 -352 124 0
h 352 2778 0
h -124 2778 0
h -2779 -351 123 0
h 351 2779 0
h -123 2779 0
h -2780 -350 122 0
h 350 2780 0
h -122 2780 0
h -2781 -349 121 0
h 349 2781 0
h -121 2781 0
h -2782 -348 120 0
h 348 2782 0
h -120 2782 0
h 2783 -129 -2774 -2775 -2776 -2777 -2778 -2779 -2780 -2781 -2782 347 346 0
h 129 -2783 0
h 2774 -2783 0
h 2775 -2783 0
h 2776 -2783 0
h 2777 -2783 0
h 2778 -2783 0
h 2779 -2783 0
h 2780 -2783 0
h 2781 -2783 0
h 2782 -2783 0
h -347 -2783 0
h -346 -2783 0
h 2784 -154 219 0
h 154 -2784 0
h -219 -2784 0
h 2785 -219 154 0
h 219 -2785 0
h -154 -2785 0
h 2786 -155 220 0
h 155 -2786 0
h -220 -2786 0
h 2787 -220 155 0
h 220 -2787 0
h -155 -2787 0
h 2788 -156 221 0
h 156 -2788 0
h -221 -2788 0
h 2789 -221 156 0
h 221 -2789 0
h -156 -2789 0
h 2790 -157 222 0
h 157 -2790 0
h -222 -2790 0
h 2791 -222 157 0
h 222 -2791 0
h -157 -2791 0
h -2792 -108 354 0
h 108 2792 0
h -354 2792 0
h -2793 -107 353 0
h 107 2793 0
h -353 2793 0
h -2794 -106 352 0
h 106 2794 0
h -352 2794 0
h -2795 -105 351 0
h 105 2795 0
h -351 2795 0
h -2796 -104 350 0
h 104 2796 0
h -350 2796 0
h -2797 -103 349 0
h 103 2797 0
h -349 2797 0
h -2798 -102 348 0
h 102 2798 0
h -348 2798 0
h -2799 -101 347 0
h 101 2799 0
h -347 2799 0
h -2800 -100 346 0
h 100 2800 0
h -346 2800 0
h 2801 -355 -2792 -2793 -2794 -2795 -2796 -2797 -2798 -2799 -2800 99 98 0
h 355 -2801 0
h 2792 -2801 0
h 2793 -2801 0
h 2794 -2801 0
h 2795 -2801 0
h 2796 -2801 0
h 2797 -2801 0
h 2798 -2801 0
h 2799 -2801 0
h 2800 -2801 0
h -99 -2801 0
h -98 -2801 0
h -2802 -356 106 0
h 356 2802 0
h -106 2802 0
h -2803 -355 105 0
h 355 2803 0
h -105 2803 0
h -2804 -354 104 0
h 354 2804 0
h -104 2804 0
h -2805 -353 103 0
h 353 2805 0
h -103 2805 0
h -2806 -352 102 0
h 352 2806 0
h -102 2806 0
h -2807 -351 101 0
h 351 2807 0
h -101 2807 0
h -2808 -350 100 0
h 350 2808 0
h -100 2808 0
h -2809 -349 99 0
h 349 2809 0
h -99 2809 0
h -2810 -348 98 0
h 348 2810 0
h -98 2810 0
h 2811 -107 -2802 -2803 -2804 -2805 -2806 -2807 -2808 -2809 -2810 347 346 0
h 107 -2811 0
h 2802 -2811 0
h 2803 -2811 0
h 2804 -2811 0
h 2805 -2811 0
h 2806 -2811 0
h 2807 -2811 0
h 2808 -2811 0
h 2809 -2811 0
h 2810 -2811 0
h -347 -2811 0
h -346 -2811 0
h 2812 -154 204 0
h 154 -2812 0
h -204 -2812 0
h 2813 -204 154 0
h 204 -2813 0
h -154 -2813 0
h 2814 -155 205 0
h 155 -2814 0
h -205 -2814 0
h 2815 -205 155 0
h 205 -2815 0
h -155 -2815 0
h 2816 -156 206 0
h 156 -2816 0
h -206 -2816 0
h 2817 -206 156 0
h 206 -2817 0
h -156 -2817 0
h 2818 -157 207 0
h 157 -2818 0
h -207 -2818 0
h 2819 -207 157 0
h 207 -2819 0
h -157 -2819 0
h -2820 -252 340 0
h 252 2820 0
h -340 2820 0
h -2821 -251 339 0
h 251 2821 0
h -339 2821 0
h -2822 -250 338 0
h 250 2822 0
h -338 2822 0
h -2823 -249 337 0
h 249 2823 0
h -337 2823 0
h -2824 -248 336 0
h 248 2824 0
h -336 2824 0
h -2825 -247 335 0
h 247 2825 0
h -335 2825 0
h -2826 -246 334 0
h 246 2826 0
h -334 2826 0
h -2827 -245 333 0
h 245 2827 0
h -333 2827 0
h -2828 -244 332 0
h 244 2828 0
h -332 2828 0
h -2829 -243 331 0
h 243 2829 0
h -331 2829 0
h 2830 -341 -2820 -2821 -2822 -2823 -2824 -2825 -2826 -2827 -2828 -2829 242 0
h 341 -2830 0
h 2820 -2830 0
h 2821 -2830 0
h 2822 -2830 0
h 2823 -2830 0
h 2824 -2830 0
h 2825 -2830 0
h 2826 -2830 0
h 2827 -2830 0
h 2828 -2830 0
h 2829 -2830 0
h -242 -2830 0
h -2831 -341 249 0
h 341 2831 0
h -249 2831 0
h -2832 -340 248 0
h 340 2832 0
h -248 2832 0
h -2833 -339 247 0
h 339 2833 0
h -247 2833 0
h -2834 -338 246 0
h 338 2834 0
h -246 2834 0
h -2835 -337 245 0
h 337 2835 0
h -245 2835 0
h -2836 -336 244 0
h 336 2836 0
h -244 2836 0
h -2837 -335 243 0
h 335 2837 0
h -243 2837 0
h -2838 -334 242 0
h 334 2838 0
h -242 2838 0
h 2839 -250 -2831 -2832 -2833 -2834 -2835 -2836 -2837 -2838 333 332 331 0
h 250 -2839 0
h 2831 -2839 0
h 2832 -2839 0
h 2833 -2839 0
h 2834 -2839 0
h 2835 -2839 0
h 2836 -2839 0
h 2837 -2839 0
h 2838 -2839 0
h -333 -2839 0
h -332 -2839 0
h -331 -2839 0
h 2840 -150 1 0
h 150 -2840 0
h -1 -2840 0
h 2841 -1 150 0
h 1 -2841 0
h -150 -2841 0
h 2842 -151 2 0
h 151 -2842 0
h -2 -2842 0
h 2843 -2 151 0
h 2 -2843 0
h -151 -2843 0
h 2844 -152 3 0
h 152 -2844 0
h -3 -2844 0
h 2845 -3 152 0
h 3 -2845 0
h -152 -2845 0
h 2846 -153 4 0
h 153 -2846 0
h -4 -2846 0
h 2847 -4 153 0
h 4 -2847 0
h -153 -2847 0
h -2848 -237 340 0
h 237 2848 0
h -340 2848 0
h -2849 -236 339 0
h 236 2849 0
h -339 2849 0
h -2850 -235 338 0
h 235 2850 0
h -338 2850 0
h -2851 -234 337 0
h 234 2851 0
h -337 2851 0
h -2852 -233 336 0
h 233 2852 0
h -336 2852 0
h -2853 -232 335 0
h 232 2853 0
h -335 2853 0
h -2854 -231 334 0
h 231 2854 0
h -334 2854 0
h -2855 -230 333 0
h 230 2855 0
h -333 2855 0
h -2856 -229 332 0
h 229 2856 0
h -332 2856 0
h -2857 -228 331 0
h 228 2857 0
h -331 2857 0
h 2858 -341 -2848 -2849 -2850 -2851 -2852 -2853 -2854 -2855 -2856 -2857 227 0
h 341 -2858 0
h 2848 -2858 0
h 2849 -2858 0
h 2850 -2858 0
h 2851 -2858 0
h 2852 -2858 0
h 2853 -2858 0
h 2854 -2858 0
h 2855 -2858 0
h 2856 -2858 0
h 2857 -2858 0
h -227 -2858 0
h -2859 -341 234 0
h 341 2859 0
h -234 2859 0
h -2860 -340 233 0
h 340 2860 0
h -233 2860 0
h -2861 -339 232 0
h 339 2861 0
h -232 2861 0
h -2862 -338 231 0
h 338 2862 0
h -231 2862 0
h -2863 -337 230 0
h 337 2863 0
h -230 2863 0
h -2864 -336 229 0
h 336 2864 0
h -229 2864 0
h -2865 -335 228 0
h 335 2865 0
h -228 2865 0
h -2866 -334 227 0
h 334 2866 0
h -227 2866 0
h 2867 -235 -2859 -2860 -2861 -2862 -2863 -2864 -2865 -2866 333 332 331 0
h 235 -2867 0
h 2859 -2867 0
h 2860 -2867 0
h 2861 -2867 0
h 2862 -2867 0
h 2863 -2867 0
h 2864 -2867 0
h 2865 -2867 0
h 2866 -2867 0
h -333 -2867 0
h -332 -2867 0
h -331 -2867 0
h 2868 -150 357 0
h 150 -2868 0
h -357 -2868 0
h 2869 -357 150 0
h 357 -2869 0
h -150 -2869 0
h 2870 -151 358 0
h 151 -2870 0
h -358 -2870 0
h 2871 -358 151 0
h 358 -2871 0
h -151 -2871 0
h 2872 -152 359 0
h 152 -2872 0
h -359 -2872 0
h 2873 -359 152 0
h 359 -2873 0
h -152 -2873 0
h 2874 -153 360 0
h 153 -2874 0
h -360 -2874 0
h 2875 -360 153 0
h 360 -2875 0
h -153 -2875 0
h -2876 -252 325 0
h 252 2876 0
h -325 2876 0
h -2877 -251 324 0
h 251 2877 0
h -324 2877 0
h -2878 -250 323 0
h 250 2878 0
h -323 2878 0
h -2879 -249 322 0
h 249 2879 0
h -322 2879 0
h -2880 -248 321 0
h 248 2880 0
h -321 2880 0
h -2881 -247 320 0
h 247 2881 0
h -320 2881 0
h -2882 -246 319 0
h 246 2882 0
h -319 2882 0
h -2883 -245 318 0
h 245 2883 0
h -318 2883 0
h -2884 -244 317 0
h 244 2884 0
h -317 2884 0
h -2885 -243 316 0
h 243 2885 0
h -316 2885 0
h 2886 -326 -2876 -2877 -2878 -2879 -2880 -2881 -2882 -2883 -2884 -2885 242 0
h 326 -2886 0
h 2876 -2886 0
h 2877 -2886 0
h 2878 -2886 0
h 2879 -2886 0
h 2880 -2886 0
h 2881 -2886 0
h 2882 -2886 0
h 2883 -2886 0
h 2884 -2886 0
h 2885 -2886 0
h -242 -2886 0
h -2887 -326 249 0
h 326 2887 0
h -249 2887 0
h -2888 -325 248 0
h 325 2888 0
h -248 2888 0
h -2889 -324 247 0
h 324 2889 0
h -247 2889 0
h -2890 -323 246 0
h 323 2890 0
h -246 2890 0
h -2891 -322 245 0
h 322 2891 0
h -245 2891 0
h -2892 -321 244 0
h 321 2892 0
h -244 2892 0
h -2893 -320 243 0
h 320 2893 0
h -243 2893 0
h -2894 -319 242 0
h 319 2894 0
h -242 2894 0
h 2895 -250 -2887 -2888 -2889 -2890 -2891 -2892 -2893 -2894 318 317 316 0
h 250 -2895 0
h 2887 -2895 0
h 2888 -2895 0
h 2889 -2895 0
h 2890 -2895 0
h 2891 -2895 0
h 2892 -2895 0
h 2893 -2895 0
h 2894 -2895 0
h -318 -2895 0
h -317 -2895 0
h -316 -2895 0
h 2896 -142 1 0
h 142 -2896 0
h -1 -2896 0
h 2897 -1 142 0
h 1 -2897 0
h -142 -2897 0
h 2898 -143 2 0
h 143 -2898 0
h -2 -2898 0
h 2899 -2 143 0
h 2 -2899 0
h -143 -2899 0
h 2900 -144 3 0
h 144 -2900 0
h -3 -2900 0
h 2901 -3 144 0
h 3 -2901 0
h -144 -2901 0
h 2902 -145 4 0
h 145 -2902 0
h -4 -2902 0
h 2903 -4 145 0
h 4 -2903 0
h -145 -2903 0
h -2904 -237 325 0
h 237 2904 0
h -325 2904 0
h -2905 -236 324 0
h 236 2905 0
h -324 2905 0
h -2906 -235 323 0
h 235 2906 0
h -323 2906 0
h -2907 -234 322 0
h 234 2907 0
h -322 2907 0
h -2908 -233 321 0
h 233 2908 0
h -321 2908 0
h -2909 -232 320 0
h 232 2909 0
h -320 2909 0
h -2910 -231 319 0
h 231 2910 0
h -319 2910 0
h -2911 -230 318 0
h 230 2911 0
h -318 2911 0
h -2912 -229 317 0
h 229 2912 0
h -317 2912 0
h -2913 -228 316 0
h 228 2913 0
h -316 2913 0
h 2914 -326 -2904 -2905 -2906 -2907 -2908 -2909 -2910 -2911 -2912 -2913 227 0
h 326 -2914 0
h 2904 -2914 0
h 2905 -2914 0
h 2906 -2914 0
h 2907 -2914 0
h 2908 -2914 0
h 2909 -2914 0
h 2910 -2914 0
h 2911 -2914 0
h 2912 -2914 0
h 2913 -2914 0
h -227 -2914 0
h -2915 -326 234 0
h 326 2915 0
h -234 2915 0
h -2916 -325 233 0
h 325 2916 0
h -233 2916 0
h -2917 -324 232 0
h 324 2917 0
h -232 2917 0
h -2918 -323 231 0
h 323 2918 0
h -231 2918 0
h -2919 -322 230 0
h 322 2919 0
h -230 2919 0
h -2920 -321 229 0
h 321 2920 0
h -229 2920 0
h -2921 -320 228 0
h 320 2921 0
h -228 2921 0
h -2922 -319 227 0
h 319 2922 0
h -227 2922 0
h 2923 -235 -2915 -2916 -2917 -2918 -2919 -2920 -2921 -2922 318 317 316 0
h 235 -2923 0
h 2915 -2923 0
h 2916 -2923 0
h 2917 -2923 0
h 2918 -2923 0
h 2919 -2923 0
h 2920 -2923 0
h 2921 -2923 0
h 2922 -2923 0
h -318 -2923 0
h -317 -2923 0
h -316 -2923 0
h 2924 -142 357 0
h 142 -2924 0
h -357 -2924 0
h 2925 -357 142 0
h 357 -2925 0
h -142 -2925 0
h 2926 -143 358 0
h 143 -2926 0
h -358 -2926 0
h 2927 -358 143 0
h 358 -2927 0
h -143 -2927 0
h 2928 -144 359 0
h 144 -2928 0
h -359 -2928 0
h 2929 -359 144 0
h 359 -2929 0
h -144 -2929 0
h 2930 -145 360 0
h 145 -2930 0
h -360 -2930 0
h 2931 -360 145 0
h 360 -2931 0
h -145 -2931 0
h -2932 -252 314 0
h 252 2932 0
h -314 2932 0
h -2933 -251 313 0
h 251 2933 0
h -313 2933 0
h -2934 -250 312 0
h 250 2934 0
h -312 2934 0
h -2935 -249 311 0
h 249 2935 0
h -311 2935 0
h -2936 -248 310 0
h 248 2936 0
h -310 2936 0
h -2937 -247 309 0
h 247 2937 0
h -309 2937 0
h -2938 -246 308 0
h 246 2938 0
h -308 2938 0
h -2939 -245 307 0
h 245 2939 0
h -307 2939 0
h -2940 -244 306 0
h 244 2940 0
h -306 2940 0
h -2941 -243 305 0
h 243 2941 0
h -305 2941 0
h 2942 -315 -2932 -2933 -2934 -2935 -2936 -2937 -2938 -2939 -2940 -2941 242 0
h 315 -2942 0
h 2932 -2942 0
h 2933 -2942 0
h 2934 -2942 0
h 2935 -2942 0
h 2936 -2942 0
h 2937 -2942 0
h 2938 -2942 0
h 2939 -2942 0
h 2940 -2942 0
h 2941 -2942 0
h -242 -2942 0
h -2943 -315 249 0
h 315 2943 0
h -249 2943 0
h -2944 -314 248 0
h 314 2944 0
h -248 2944 0
h -2945 -313 247 0
h 313 2945 0
h -247 2945 0
h -2946 -312 246 0
h 312 2946 0
h -246 2946 0
h -2947 -311 245 0
h 311 2947 0
h -245 2947 0
h -2948 -310 244 0
h 310 2948 0
h -244 2948 0
h -2949 -309 243 0
h 309 2949 0
h -243 2949 0
h -2950 -308 242 0
h 308 2950 0
h -242 2950 0
h 2951 -250 -2943 -2944 -2945 -2946 -2947 -2948 -2949 -2950 307 306 305 0
h 250 -2951 0
h 2943 -2951 0
h 2944 -2951 0
h 2945 -2951 0
h 2946 -2951 0
h 2947 -2951 0
h 2948 -2951 0
h 2949 -2951 0
h 2950 -2951 0
h -307 -2951 0
h -306 -2951 0
h -305 -2951 0
h 2952 -146 1 0
h 146 -2952 0
h -1 -2952 0
h 2953 -1 146 0
h 1 -2953 0
h -146 -2953 0
h 2954 -147 2 0
h 147 -2954 0
h -2 -2954 0
h 2955 -2 147 0
h 2 -2955 0
h -147 -2955 0
h 2956 -148 3 0
h 148 -2956 0
h -3 -2956 0
h 2957 -3 148 0
h 3 -2957 0
h -148 -2957 0
h 2958 -149 4 0
h 149 -2958 0
h -4 -2958 0
h 2959 -4 149 0
h 4 -2959 0
h -149 -2959 0
h -2960 -237 314 0
h 237 2960 0
h -314 2960 0
h -2961 -236 313 0
h 236 2961 0
h -313 2961 0
h -2962 -235 312 0
h 235 2962 0
h -312 2962 0
h -2963 -234 311 0
h 234 2963 0
h -311 2963 0
h -2964 -233 310 0
h 233 2964 0
h -310 2964 0
h -2965 -232 309 0
h 232 2965 0
h -309 2965 0
h -2966 -231 308 0
h 231 2966 0
h -308 2966 0
h -2967 -230 307 0
h 230 2967 0
h -307 2967 0
h -2968 -229 306 0
h 229 2968 0
h -306 2968 0
h -2969 -228 305 0
h 228 2969 0
h -305 2969 0
h 2970 -315 -2960 -2961 -2962 -2963 -2964 -2965 -2966 -2967 -2968 -2969 227 0
h 315 -2970 0
h 2960 -2970 0
h 2961 -2970 0
h 2962 -2970 0
h 2963 -2970 0
h 2964 -2970 0
h 2965 -2970 0
h 2966 -2970 0
h 2967 -2970 0
h 2968 -2970 0
h 2969 -2970 0
h -227 -2970 0
h -2971 -315 234 0
h 315 2971 0
h -234 2971 0
h -2972 -314 233 0
h 314 2972 0
h -233 2972 0
h -2973 -313 232 0
h 313 2973 0
h -232 2973 0
h -2974 -312 231 0
h 312 2974 0
h -231 2974 0
h -2975 -311 230 0
h 311 2975 0
h -230 2975 0
h -2976 -310 229 0
h 310 2976 0
h -229 2976 0
h -2977 -309 228 0
h 309 2977 0
h -228 2977 0
h -2978 -308 227 0
h 308 2978 0
h -227 2978 0
h 2979 -235 -2971 -2972 -2973 -2974 -2975 -2976 -2977 -2978 307 306 305 0
h 235 -2979 0
h 2971 -2979 0
h 2972 -2979 0
h 2973 -2979 0
h 2974 -2979 0
h 2975 -2979 0
h 2976 -2979 0
h 2977 -2979 0
h 2978 -2979 0
h -307 -2979 0
h -306 -2979 0
h -305 -2979 0
h 2980 -146 357 0
h 146 -2980 0
h -357 -2980 0
h 2981 -357 146 0
h 357 -2981 0
h -146 -2981 0
h 2982 -147 358 0
h 147 -2982 0
h -358 -2982 0
h 2983 -358 147 0
h 358 -2983 0
h -147 -2983 0
h 2984 -148 359 0
h 148 -2984 0
h -359 -2984 0
h 2985 -359 148 0
h 359 -2985 0
h -148 -2985 0
h 2986 -149 360 0
h 149 -2986 0
h -360 -2986 0
h 2987 -360 149 0
h 360 -2987 0
h -149 -2987 0
h -2988 -130 340 0
h 130 2988 0
h -340 2988 0
h -2989 -129 339 0
h 129 2989 0
h -339 2989 0
h -2990 -128 338 0
h 128 2990 0
h -338 2990 0
h -2991 -127 337 0
h 127 2991 0
h -337 2991 0
h -2992 -126 336 0
h 126 2992 0
h -336 2992 0
h -2993 -125 335 0
h 125 2993 0
h -335 2993 0
h -2994 -124 334 0
h 124 2994 0
h -334 2994 0
h -2995 -123 333 0
h 123 2995 0
h -333 2995 0
h -2996 -122 332 0
h 122 2996 0
h -332 2996 0
h -2997 -121 331 0
h 121 2997 0
h -331 2997 0
h 2998 -341 -2988 -2989 -2990 -2991 -2992 -2993 -2994 -2995 -2996 -2997 120 0
h 341 -2998 0
h 2988 -2998 0
h 2989 -2998 0
h 2990 -2998 0
h 2991 -2998 0
h 2992 -2998 0
h 2993 -2998 0
h 2994 -2998 0
h 2995 -2998 0
h 2996 -2998 0
h 2997 -2998 0
h -120 -2998 0
h -2999 -341 128 0
h 341 2999 0
h -128 2999 0
h -3000 -340 127 0
h 340 3000 0
h -127 3000 0
h -3001 -339 126 0
h 339 3001 0
h -126 3001 0
h -3002 -338 125 0
h 338 3002 0
h -125 3002 0
h -3003 -337 124 0
h 337 3003 0
h -124 3003 0
h -3004 -336 123 0
h 336 3004 0
h -123 3004 0
h -3005 -335 122 0
h 335 3005 0
h -122 3005 0
h -3006 -334 121 0
h 334 3006 0
h -121 3006 0
h -3007 -333 120 0
h 333 3007 0
h -120 3007 0
h 3008 -129 -2999 -3000 -3001 -3002 -3003 -3004 -3005 -3006 -3007 332 331 0
h 129 -3008 0
h 2999 -3008 0
h 3000 -3008 0
h 3001 -3008 0
h 3002 -3008 0
h 3003 -3008 0
h 3004 -3008 0
h 3005 -3008 0
h 3006 -3008 0
h 3007 -3008 0
h -332 -3008 0
h -331 -3008 0
h 3009 -150 219 0
h 150 -3009 0
h -219 -3009 0
h 3010 -219 150 0
h 219 -3010 0
h -150 -3010 0
h 3011 -151 220 0
h 151 -3011 0
h -220 -3011 0
h 3012 -220 151 0
h 220 -3012 0
h -151 -3012 0
h 3013 -152 221 0
h 152 -3013 0
h -221 -3013 0
h 3014 -221 152 0
h 221 -3014 0
h -152 -3014 0
h 3015 -153 222 0
h 153 -3015 0
h -222 -3015 0
h 3016 -222 153 0
h 222 -3016 0
h -153 -3016 0
h -3017 -108 340 0
h 108 3017 0
h -340 3017 0
h -3018 -107 339 0
h 107 3018 0
h -339 3018 0
h -3019 -106 338 0
h 106 3019 0
h -338 3019 0
h -3020 -105 337 0
h 105 3020 0
h -337 3020 0
h -3021 -104 336 0
h 104 3021 0
h -336 3021 0
h -3022 -103 335 0
h 103 3022 0
h -335 3022 0
h -3023 -102 334 0
h 102 3023 0
h -334 3023 0
h -3024 -101 333 0
h 101 3024 0
h -333 3024 0
h -3025 -100 332 0
h 100 3025 0
h -332 3025 0
h -3026 -99 331 0
h 99 3026 0
h -331 3026 0
h 3027 -341 -3017 -3018 -3019 -3020 -3021 -3022 -3023 -3024 -3025 -3026 98 0
h 341 -3027 0
h 3017 -3027 0
h 3018 -3027 0
h 3019 -3027 0
h 3020 -3027 0
h 3021 -3027 0
h 3022 -3027 0
h 3023 -3027 0
h 3024 -3027 0
h 3025 -3027 0
h 3026 -3027 0
h -98 -3027 0
h -3028 -341 106 0
h 341 3028 0
h -106 3028 0
h -3029 -340 105 0
h 340 3029 0
h -105 3029 0
h -3030 -339 104 0
h 339 3030 0
h -104 3030 0
h -3031 -338 103 0
h 338 3031 0
h -103 3031 0
h -3032 -337 102 0
h 337 3032 0
h -102 3032 0
h -3033 -336 101 0
h 336 3033 0
h -101 3033 0
h -3034 -335 100 0
h 335 3034 0
h -100 3034 0
h -3035 -334 99 0
h 334 3035 0
h -99 3035 0
h -3036 -333 98 0
h 333 3036 0
h -98 3036 0
h 3037 -107 -3028 -3029 -3030 -3031 -3032 -3033 -3034 -3035 -3036 332 331 0
h 107 -3037 0
h 3028 -3037 0
h 3029 -3037 0
h 3030 -3037 0
h 3031 -3037 0
h 3032 -3037 0
h 3033 -3037 0
h 3034 -3037 0
h 3035 -3037 0
h 3036 -3037 0
h -332 -3037 0
h -331 -3037 0
h 3038 -150 204 0
h 150 -3038 0
h -204 -3038 0
h 3039 -204 150 0
h 204 -3039 0
h -150 -3039 0
h 3040 -151 205 0
h 151 -3040 0
h -205 -3040 0
h 3041 -205 151 0
h 205 -3041 0
h -151 -3041 0
h 3042 -152 206 0
h 152 -3042 0
h -206 -3042 0
h 3043 -206 152 0
h 206 -3043 0
h -152 -3043 0
h 3044 -153 207 0
h 153 -3044 0
h -207 -3044 0
h 3045 -207 153 0
h 207 -3045 0
h -153 -3045 0
h -3046 -130 325 0
h 130 3046 0
h -325 3046 0
h -3047 -129 324 0
h 129 3047 0
h -324 3047 0
h -3048 -128 323 0
h 128 3048 0
h -323 3048 0
h -3049 -127 322 0
h 127 3049 0
h -322 3049 0
h -3050 -126 321 0
h 126 3050 0
h -321 3050 0
h -3051 -125 320 0
h 125 3051 0
h -320 3051 0
h -3052 -124 319 0
h 124 3052 0
h -319 3052 0
h -3053 -123 318 0
h 123 3053 0
h -318 3053 0
h -3054 -122 317 0
h 122 3054 0
h -317 3054 0
h -3055 -121 316 0
h 121 3055 0
h -316 3055 0
h 3056 -326 -3046 -3047 -3048 -3049 -3050 -3051 -3052 -3053 -3054 -3055 120 0
h 326 -3056 0
h 3046 -3056 0
h 3047 -3056 0
h 3048 -3056 0
h 3049 -3056 0
h 3050 -3056 0
h 3051 -3056 0
h 3052 -3056 0
h 3053 -3056 0
h 3054 -3056 0
h 3055 -3056 0
h -120 -3056 0
h -3057 -326 128 0
h 326 3057 0
h -128 3057 0
h -3058 -325 127 0
h 325 3058 0
h -127 3058 0
h -3059 -324 126 0
h 324 3059 0
h -126 3059 0
h -3060 -323 125 0
h 323 3060 0
h -125 3060 0
h -3061 -322 124 0
h 322 3061 0
h -124 3061 0
h -3062 -321 123 0
h 321 3062 0
h -123 3062 0
h -3063 -320 122 0
h 320 3063 0
h -122 3063 0
h -3064 -319 121 0
h 319 3064 0
h -121 3064 0
h -3065 -318 120 0
h 318 3065 0
h -120 3065 0
h 3066 -129 -3057 -3058 -3059 -3060 -3061 -3062 -3063 -3064 -3065 317 316 0
h 129 -3066 0
h 3057 -3066 0
h 3058 -3066 0
h 3059 -3066 0
h 3060 -3066 0
h 3061 -3066 0
h 3062 -3066 0
h 3063 -3066 0
h 3064 -3066 0
h 3065 -3066 0
h -317 -3066 0
h -316 -3066 0
h 3067 -142 219 0
h 142 -3067 0
h -219 -3067 0
h 3068 -219 142 0
h 219 -3068 0
h -142 -3068 0
h 3069 -143 220 0
h 143 -3069 0
h -220 -3069 0
h 3070 -220 143 0
h 220 -3070 0
h -143 -3070 0
h 3071 -144 221 0
h 144 -3071 0
h -221 -3071 0
h 3072 -221 144 0
h 221 -3072 0
h -144 -3072 0
h 3073 -145 222 0
h 145 -3073 0
h -222 -3073 0
h 3074 -222 145 0
h 222 -3074 0
h -145 -3074 0
h -3075 -108 325 0
h 108 3075 0
h -325 3075 0
h -3076 -107 324 0
h 107 3076 0
h -324 3076 0
h -3077 -106 323 0
h 106 3077 0
h -323 3077 0
h -3078 -105 322 0
h 105 3078 0
h -322 3078 0
h -3079 -104 321 0
h 104 3079 0
h -321 3079 0
h -3080 -103 320 0
h 103 3080 0
h -320 3080 0
h -3081 -102 319 0
h 102 3081 0
h -319 3081 0
h -3082 -101 318 0
h 101 3082 0
h -318 3082 0
h -3083 -100 317 0
h 100 3083 0
h -317 3083 0
h -3084 -99 316 0
h 99 3084 0
h -316 3084 0
h 3085 -326 -3075 -3076 -3077 -3078 -3079 -3080 -3081 -3082 -3083 -3084 98 0
h 326 -3085 0
h 3075 -3085 0
h 3076 -3085 0
h 3077 -3085 0
h 3078 -3085 0
h 3079 -3085 0
h 3080 -3085 0
h 3081 -3085 0
h 3082 -3085 0
h 3083 -3085 0
h 3084 -3085 0
h -98 -3085 0
h -3086 -326 106 0
h 326 3086 0
h -106 3086 0
h -3087 -325 105 0
h 325 3087 0
h -105 3087 0
h -3088 -324 104 0
h 324 3088 0
h -104 3088 0
h -3089 -323 103 0
h 323 3089 0
h -103 3089 0
h -3090 -322 102 0
h 322 3090 0
h -102 3090 0
h -3091 -321 101 0
h 321 3091 0
h -101 3091 0
h -3092 -320 100 0
h 320 3092 0
h -100 3092 0
h -3093 -319 99 0
h 319 3093 0
h -99 3093 0
h -3094 -318 98 0
h 318 3094 0
h -98 3094 0
h 3095 -107 -3086 -3087 -3088 -3089 -3090 -3091 -3092 -3093 -3094 317 316 0
h 107 -3095 0
h 3086 -3095 0
h 3087 -3095 0
h 3088 -3095 0
h 3089 -3095 0
h 3090 -3095 0
h 3091 -3095 0
h 3092 -3095 0
h 3093 -3095 0
h 3094 -3095 0
h -317 -3095 0
h -316 -3095 0
h 3096 -142 204 0
h 142 -3096 0
h -204 -3096 0
h 3097 -204 142 0
h 204 -3097 0
h -142 -3097 0
h 3098 -143 205 0
h 143 -3098 0
h -205 -3098 0
h 3099 -205 143 0
h 205 -3099 0
h -143 -3099 0
h 3100 -144 206 0
h 144 -3100 0
h -206 -3100 0
h 3101 -206 144 0
h 206 -3101 0
h -144 -3101 0
h 3102 -145 207 0
h 145 -3102 0
h -207 -3102 0
h 3103 -207 145 0
h 207 -3103 0
h -145 -3103 0
h -3104 -130 314 0
h 130 3104 0
h -314 3104 0
h -3105 -129 313 0
h 129 3105 0
h -313 3105 0
h -3106 -128 312 0
h 128 3106 0
h -312 3106 0
h -3107 -127 311 0
h 127 3107 0
h -311 3107 0
h -3108 -126 310 0
h 126 3108 0
h -310 3108 0
h -3109 -125 309 0
h 125 3109 0
h -309 3109 0
h -3110 -124 308 0
h 124 3110 0
h -308 3110 0
h -3111 -123 307 0
h 123 3111 0
h -307 3111 0
h -3112 -122 306 0
h 122 3112 0
h -306 3112 0
h -3113 -121 305 0
h 121 3113 0
h -305 3113 0
h 3114 -315 -3104 -3105 -3106 -3107 -3108 -3109 -3110 -3111 -3112 -3113 120 0
h 315 -3114 0
h 3104 -3114 0
h 3105 -3114 0
h 3106 -3114 0
h 3107 -3114 0
h 3108 -3114 0
h 3109 -3114 0
h 3110 -3114 0
h 3111 -3114 0
h 3112 -3114 0
h 3113 -3114 0
h -120 -3114 0
h -3115 -315 128 0
h 315 3115 0
h -128 3115 0
h -3116 -314 127 0
h 314 3116 0
h -127 3116 0
h -3117 -313 126 0
h 313 3117 0
h -126 3117 0
h -3118 -312 125 0
h 312 3118 0
h -125 3118 0
h -3119 -311 124 0
h 311 3119 0
h -124 3119 0
h -3120 -310 123 0
h 310 3120 0
h -123 3120 0
h -3121 -309 122 0
h 309 3121 0
h -122 3121 0
h -3122 -308 121 0
h 308 3122 0
h -121 3122 0
h -3123 -307 120 0
h 307 3123 0
h -120 3123 0
h 3124 -129 -3115 -3116 -3117 -3118 -3119 -3120 -3121 -3122 -3123 306 305 0
h 129 -3124 0
h 3115 -3124 0
h 3116 -3124 0
h 3117 -3124 0
h 3118 -3124 0
h 3119 -3124 0
h 3120 -3124 0
h 3121 -3124 0
h 3122 -3124 0
h 3123 -3124 0
h -306 -3124 0
h -305 -3124 0
h 3125 -146 219 0
h 146 -3125 0
h -219 -3125 0
h 3126 -219 146 0
h 219 -3126 0
h -146 -3126 0
h 3127 -147 220 0
h 147 -3127 0
h -220 -3127 0
h 3128 -220 147 0
h 220 -3128 0
h -147 -3128 0
h 3129 -148 221 0
h 148 -3129 0
h -221 -3129 0
h 3130 -221 148 0
h 221 -3130 0
h -148 -3130 0
h 3131 -149 222 0
h 149 -3131 0
h -222 -3131 0
h 3132 -222 149 0
h 222 -3132 0
h -149 -3132 0
h -3133 -108 314 0
h 108 3133 0
h -314 3133 0
h -3134 -107 313 0
h 107 3134 0
h -313 3134 0
h -3135 -106 312 0
h 106 3135 0
h -312 3135 0
h -3136 -105 311 0
h 105 3136 0
h -311 3136 0
h -3137 -104 310 0
h 104 3137 0
h -310 3137 0
h -3138 -103 309 0
h 103 3138 0
h -309 3138 0
h -3139 -102 308 0
h 102 3139 0
h -308 3139 0
h -3140 -101 307 0
h 101 3140 0
h -307 3140 0
h -3141 -100 306 0
h 100 3141 0
h -306 3141 0
h -3142 -99 305 0
h 99 3142 0
h -305 3142 0
h 3143 -315 -3133 -3134 -3135 -3136 -3137 -3138 -3139 -3140 -3141 -3142 98 0
h 315 -3143 0
h 3133 -3143 0
h 3134 -3143 0
h 3135 -3143 0
h 3136 -3143 0
h 3137 -3143 0
h 3138 -3143 0
h 3139 -3143 0
h 3140 -3143 0
h 3141 -3143 0
h 3142 -3143 0
h -98 -3143 0
h -3144 -315 106 0
h 315 3144 0
h -106 3144 0
h -3145 -314 105 0
h 314 3145 0
h -105 3145 0
h -3146 -313 104 0
h 313 3146 0
h -104 3146 0
h -3147 -312 103 0
h 312 3147 0
h -103 3147 0
h -3148 -311 102 0
h 311 3148 0
h -102 3148 0
h -3149 -310 101 0
h 310 3149 0
h -101 3149 0
h -3150 -309 100 0
h 309 3150 0
h -100 3150 0
h -3151 -308 99 0
h 308 3151 0
h -99 3151 0
h -3152 -307 98 0
h 307 3152 0
h -98 3152 0
h 3153 -107 -3144 -3145 -3146 -3147 -3148 -3149 -3150 -3151 -3152 306 305 0
h 107 -3153 0
h 3144 -3153 0
h 3145 -3153 0
h 3146 -3153 0
h 3147 -3153 0
h 3148 -3153 0
h 3149 -3153 0
h 3150 -3153 0
h 3151 -3153 0
h 3152 -3153 0
h -306 -3153 0
h -305 -3153 0
h 3154 -146 204 0
h 146 -3154 0
h -204 -3154 0
h 3155 -204 146 0
h 204 -3155 0
h -146 -3155 0
h 3156 -147 205 0
h 147 -3156 0
h -205 -3156 0
h 3157 -205 147 0
h 205 -3157 0
h -147 -3157 0
h 3158 -148 206 0
h 148 -3158 0
h -206 -3158 0
h 3159 -206 148 0
h 206 -3159 0
h -148 -3159 0
h 3160 -149 207 0
h 149 -3160 0
h -207 -3160 0
h 3161 -207 149 0
h 207 -3161 0
h -149 -3161 0
h -3162 -252 95 0
h 252 3162 0
h -95 3162 0
h -3163 -251 94 0
h 251 3163 0
h -94 3163 0
h -3164 -250 93 0
h 250 3164 0
h -93 3164 0
h -3165 -249 92 0
h 249 3165 0
h -92 3165 0
h -3166 -248 91 0
h 248 3166 0
h -91 3166 0
h -3167 -247 90 0
h 247 3167 0
h -90 3167 0
h -3168 -246 89 0
h 246 3168 0
h -89 3168 0
h -3169 -245 88 0
h 245 3169 0
h -88 3169 0
h -3170 -244 87 0
h 244 3170 0
h -87 3170 0
h 3171 -96 -3162 -3163 -3164 -3165 -3166 -3167 -3168 -3169 -3170 243 242 0
h 96 -3171 0
h 3162 -3171 0
h 3163 -3171 0
h 3164 -3171 0
h 3165 -3171 0
h 3166 -3171 0
h 3167 -3171 0
h 3168 -3171 0
h 3169 -3171 0
h 3170 -3171 0
h -243 -3171 0
h -242 -3171 0
h -3172 -97 249 0
h 97 3172 0
h -249 3172 0
h -3173 -96 248 0
h 96 3173 0
h -248 3173 0
h -3174 -95 247 0
h 95 3174 0
h -247 3174 0
h -3175 -94 246 0
h 94 3175 0
h -246 3175 0
h -3176 -93 245 0
h 93 3176 0
h -245 3176 0
h -3177 -92 244 0
h 92 3177 0
h -244 3177 0
h -3178 -91 243 0
h 91 3178 0
h -243 3178 0
h -3179 -90 242 0
h 90 3179 0
h -242 3179 0
h 3180 -250 -3172 -3173 -3174 -3175 -3176 -3177 -3178 -3179 89 88 87 0
h 250 -3180 0
h 3172 -3180 0
h 3173 -3180 0
h 3174 -3180 0
h 3175 -3180 0
h 3176 -3180 0
h 3177 -3180 0
h 3178 -3180 0
h 3179 -3180 0
h -89 -3180 0
h -88 -3180 0
h -87 -3180 0
h 3181 -238 1 0
h 238 -3181 0
h -1 -3181 0
h 3182 -1 238 0
h 1 -3182 0
h -238 -3182 0
h 3183 -239 2 0
h 239 -3183 0
h -2 -3183 0
h 3184 -2 239 0
h 2 -3184 0
h -239 -3184 0
h 3185 -240 3 0
h 240 -3185 0
h -3 -3185 0
h 3186 -3 240 0
h 3 -3186 0
h -240 -3186 0
h 3187 -241 4 0
h 241 -3187 0
h -4 -3187 0
h 3188 -4 241 0
h 4 -3188 0
h -241 -3188 0
h -3189 -237 95 0
h 237 3189 0
h -95 3189 0
h -3190 -236 94 0
h 236 3190 0
h -94 3190 0
h -3191 -235 93 0
h 235 3191 0
h -93 3191 0
h -3192 -234 92 0
h 234 3192 0
h -92 3192 0
h -3193 -233 91 0
h 233 3193 0
h -91 3193 0
h -3194 -232 90 0
h 232 3194 0
h -90 3194 0
h -3195 -231 89 0
h 231 3195 0
h -89 3195 0
h -3196 -230 88 0
h 230 3196 0
h -88 3196 0
h -3197 -229 87 0
h 229 3197 0
h -87 3197 0
h 3198 -96 -3189 -3190 -3191 -3192 -3193 -3194 -3195 -3196 -3197 228 227 0
h 96 -3198 0
h 3189 -3198 0
h 3190 -3198 0
h 3191 -3198 0
h 3192 -3198 0
h 3193 -3198 0
h 3194 -3198 0
h 3195 -3198 0
h 3196 -3198 0
h 3197 -3198 0
h -228 -3198 0
h -227 -3198 0
h -3199 -97 234 0
h 97 3199 0
h -234 3199 0
h -3200 -96 233 0
h 96 3200 0
h -233 3200 0
h -3201 -95 232 0
h 95 3201 0
h -232 3201 0
h -3202 -94 231 0
h 94 3202 0
h -231 3202 0
h -3203 -93 230 0
h 93 3203 0
h -230 3203 0
h -3204 -92 229 0
h 92 3204 0
h -229 3204 0
h -3205 -91 228 0
h 91 3205 0
h -228 3205 0
h -3206 -90 227 0
h 90 3206 0
h -227 3206 0
h 3207 -235 -3199 -3200 -3201 -3202 -3203 -3204 -3205 -3206 89 88 87 0
h 235 -3207 0
h 3199 -3207 0
h 3200 -3207 0
h 3201 -3207 0
h 3202 -3207 0
h 3203 -3207 0
h 3204 -3207 0
h 3205 -3207 0
h 3206 -3207 0
h -89 -3207 0
h -88 -3207 0
h -87 -3207 0
h 3208 -238 357 0
h 238 -3208 0
h -357 -3208 0
h 3209 -357 238 0
h 357 -3209 0
h -238 -3209 0
h 3210 -239 358 0
h 239 -3210 0
h -358 -3210 0
h 3211 -358 239 0
h 358 -3211 0
h -239 -3211 0
h 3212 -240 359 0
h 240 -3212 0
h -359 -3212 0
h 3213 -359 240 0
h 359 -3213 0
h -240 -3213 0
h 3214 -241 360 0
h 241 -3214 0
h -360 -3214 0
h 3215 -360 241 0
h 360 -3215 0
h -241 -3215 0
h -3216 -252 117 0
h 252 3216 0
h -117 3216 0
h -3217 -251 116 0
h 251 3217 0
h -116 3217 0
h -3218 -250 115 0
h 250 3218 0
h -115 3218 0
h -3219 -249 114 0
h 249 3219 0
h -114 3219 0
h -3220 -248 113 0
h 248 3220 0
h -113 3220 0
h -3221 -247 112 0
h 247 3221 0
h -112 3221 0
h -3222 -246 111 0
h 246 3222 0
h -111 3222 0
h -3223 -245 110 0
h 245 3223 0
h -110 3223 0
h -3224 -244 109 0
h 244 3224 0
h -109 3224 0
h 3225 -118 -3216 -3217 -3218 -3219 -3220 -3221 -3222 -3223 -3224 243 242 0
h 118 -3225 0
h 3216 -3225 0
h 3217 -3225 0
h 3218 -3225 0
h 3219 -3225 0
h 3220 -3225 0
h 3221 -3225 0
h 3222 -3225 0
h 3223 -3225 0
h 3224 -3225 0
h -243 -3225 0
h -242 -3225 0
h -3226 -119 249 0
h 119 3226 0
h -249 3226 0
h -3227 -118 248 0
h 118 3227 0
h -248 3227 0
h -3228 -117 247 0
h 117 3228 0
h -247 3228 0
h -3229 -116 246 0
h 116 3229 0
h -246 3229 0
h -3230 -115 245 0
h 115 3230 0
h -245 3230 0
h -3231 -114 244 0
h 114 3231 0
h -244 3231 0
h -3232 -113 243 0
h 113 3232 0
h -243 3232 0
h -3233 -112 242 0
h 112 3233 0
h -242 3233 0
h 3234 -250 -3226 -3227 -3228 -3229 -3230 -3231 -3232 -3233 111 110 109 0
h 250 -3234 0
h 3226 -3234 0
h 3227 -3234 0
h 3228 -3234 0
h 3229 -3234 0
h 3230 -3234 0
h 3231 -3234 0
h 3232 -3234 0
h 3233 -3234 0
h -111 -3234 0
h -110 -3234 0
h -109 -3234 0
h 3235 -253 1 0
h 253 -3235 0
h -1 -3235 0
h 3236 -1 253 0
h 1 -3236 0
h -253 -3236 0
h 3237 -254 2 0
h 254 -3237 0
h -2 -3237 0
h 3238 -2 254 0
h 2 -3238 0
h -254 -3238 0
h 3239 -255 3 0
h 255 -3239 0
h -3 -3239 0
h 3240 -3 255 0
h 3 -3240 0
h -255 -3240 0
h 3241 -256 4 0
h 256 -3241 0
h -4 -3241 0
h 3242 -4 256 0
h 4 -3242 0
h -256 -3242 0
h -3243 -237 117 0
h 237 3243 0
h -117 3243 0
h -3244 -236 116 0
h 236 3244 0
h -116 3244 0
h -3245 -235 115 0
h 235 3245 0
h -115 3245 0
h -3246 -234 114 0
h 234 3246 0
h -114 3246 0
h -3247 -233 113 0
h 233 3247 0
h -113 3247 0
h -3248 -232 112 0
h 232 3248 0
h -112 3248 0
h -3249 -231 111 0
h 231 3249 0
h -111 3249 0
h -3250 -230 110 0
h 230 3250 0
h -110 3250 0
h -3251 -229 109 0
h 229 3251 0
h -109 3251 0
h 3252 -118 -3243 -3244 -3245 -3246 -3247 -3248 -3249 -3250 -3251 228 227 0
h 118 -3252 0
h 3243 -3252 0
h 3244 -3252 0
h 3245 -3252 0
h 3246 -3252 0
h 3247 -3252 0
h 3248 -3252 0
h 3249 -3252 0
h 3250 -3252 0
h 3251 -3252 0
h -228 -3252 0
h -227 -3252 0
h -3253 -119 234 0
h 119 3253 0
h -234 3253 0
h -3254 -118 233 0
h 118 3254 0
h -233 3254 0
h -3255 -117 232 0
h 117 3255 0
h -232 3255 0
h -3256 -116 231 0
h 116 3256 0
h -231 3256 0
h -3257 -115 230 0
h 115 3257 0
h -230 3257 0
h -3258 -114 229 0
h 114 3258 0
h -229 3258 0
h -3259 -113 228 0
h 113 3259 0
h -228 3259 0
h -3260 -112 227 0
h 112 3260 0
h -227 3260 0
h 3261 -235 -3253 -3254 -3255 -3256 -3257 -3258 -3259 -3260 111 110 109 0
h 235 -3261 0
h 3253 -3261 0
h 3254 -3261 0
h 3255 -3261 0
h 3256 -3261 0
h 3257 -3261 0
h 3258 -3261 0
h 3259 -3261 0
h 3260 -3261 0
h -111 -3261 0
h -110 -3261 0
h -109 -3261 0
h 3262 -253 357 0
h 253 -3262 0
h -357 -3262 0
h 3263 -357 253 0
h 357 -3263 0
h -253 -3263 0
h 3264 -254 358 0
h 254 -3264 0
h -358 -3264 0
h 3265 -358 254 0
h 358 -3265 0
h -254 -3265 0
h 3266 -255 359 0
h 255 -3266 0
h -359 -3266 0
h 3267 -359 255 0
h 359 -3267 0
h -255 -3267 0
h 3268 -256 360 0
h 256 -3268 0
h -360 -3268 0
h 3269 -360 256 0
h 360 -3269 0
h -256 -3269 0
h -3270 -130 95 0
h 130 3270 0
h -95 3270 0
h -3271 -129 94 0
h 129 3271 0
h -94 3271 0
h -3272 -128 93 0
h 128 3272 0
h -93 3272 0
h -3273 -127 92 0
h 127 3273 0
h -92 3273 0
h -3274 -126 91 0
h 126 3274 0
h -91 3274 0
h -3275 -125 90 0
h 125 3275 0
h -90 3275 0
h -3276 -124 89 0
h 124 3276 0
h -89 3276 0
h -3277 -123 88 0
h 123 3277 0
h -88 3277 0
h -3278 -122 87 0
h 122 3278 0
h -87 3278 0
h 3279 -96 -3270 -3271 -3272 -3273 -3274 -3275 -3276 -3277 -3278 121 120 0
h 96 -3279 0
h 3270 -3279 0
h 3271 -3279 0
h 3272 -3279 0
h 3273 -3279 0
h 3274 -3279 0
h 3275 -3279 0
h 3276 -3279 0
h 3277 -3279 0
h 3278 -3279 0
h -121 -3279 0
h -120 -3279 0
h -3280 -97 128 0
h 97 3280 0
h -128 3280 0
h -3281 -96 127 0
h 96 3281 0
h -127 3281 0
h -3282 -95 126 0
h 95 3282 0
h -126 3282 0
h -3283 -94 125 0
h 94 3283 0
h -125 3283 0
h -3284 -93 124 0
h 93 3284 0
h -124 3284 0
h -3285 -92 123 0
h 92 3285 0
h -123 3285 0
h -3286 -91 122 0
h 91 3286 0
h -122 3286 0
h -3287 -90 121 0
h 90 3287 0
h -121 3287 0
h -3288 -89 120 0
h 89 3288 0
h -120 3288 0
h 3289 -129 -3280 -3281 -3282 -3283 -3284 -3285 -3286 -3287 -3288 88 87 0
h 129 -3289 0
h 3280 -3289 0
h 3281 -3289 0
h 3282 -3289 0
h 3283 -3289 0
h 3284 -3289 0
h 3285 -3289 0
h 3286 -3289 0
h 3287 -3289 0
h 3288 -3289 0
h -88 -3289 0
h -87 -3289 0
h 3290 -238 219 0
h 238 -3290 0
h -219 -3290 0
h 3291 -219 238 0
h 219 -3291 0
h -238 -3291 0
h 3292 -239 220 0
h 239 -3292 0
h -220 -3292 0
h 3293 -220 239 0
h 220 -3293 0
h -239 -3293 0
h 3294 -240 221 0
h 240 -3294 0
h -221 -3294 0
h 3295 -221 240 0
h 221 -3295 0
h -240 -3295 0
h 3296 -241 222 0
h 241 -3296 0
h -222 -3296 0
h 3297 -222 241 0
h 222 -3297 0
h -241 -3297 0
h -3298 -108 95 0
h 108 3298 0
h -95 3298 0
h -3299 -107 94 0
h 107 3299 0
h -94 3299 0
h -3300 -106 93 0
h 106 3300 0
h -93 3300 0
h -3301 -105 92 0
h 105 3301 0
h -92 3301 0
h -3302 -104 91 0
h 104 3302 0
h -91 3302 0
h -3303 -103 90 0
h 103 3303 0
h -90 3303 0
h -3304 -102 89 0
h 102 3304 0
h -89 3304 0
h -3305 -101 88 0
h 101 3305 0
h -88 3305 0
h -3306 -100 87 0
h 100 3306 0
h -87 3306 0
h 3307 -96 -3298 -3299 -3300 -3301 -3302 -3303 -3304 -3305 -3306 99 98 0
h 96 -3307 0
h 3298 -3307 0
h 3299 -3307 0
h 3300 -3307 0
h 3301 -3307 0
h 3302 -3307 0
h 3303 -3307 0
h 3304 -3307 0
h 3305 -3307 0
h 3306 -3307 0
h -99 -3307 0
h -98 -3307 0
h -3308 -97 106 0
h 97 3308 0
h -106 3308 0
h -3309 -96 105 0
h 96 3309 0
h -105 3309 0
h -3310 -95 104 0
h 95 3310 0
h -104 3310 0
h -3311 -94 103 0
h 94 3311 0
h -103 3311 0
h -3312 -93 102 0
h 93 3312 0
h -102 3312 0
h -3313 -92 101 0
h 92 3313 0
h -101 3313 0
h -3314 -91 100 0
h 91 3314 0
h -100 3314 0
h -3315 -90 99 0
h 90 3315 0
h -99 3315 0
h -3316 -89 98 0
h 89 3316 0
h -98 3316 0
h 3317 -107 -3308 -3309 -3310 -3311 -3312 -3313 -3314 -3315 -3316 88 87 0
h 107 -3317 0
h 3308 -3317 0
h 3309 -3317 0
h 3310 -3317 0
h 3311 -3317 0
h 3312 -3317 0
h 3313 -3317 0
h 3314 -3317 0
h 3315 -3317 0
h 3316 -3317 0
h -88 -3317 0
h -87 -3317 0
h 3318 -238 204 0
h 238 -3318 0
h -204 -3318 0
h 3319 -204 238 0
h 204 -3319 0
h -238 -3319 0
h 3320 -239 205 0
h 239 -3320 0
h -205 -3320 0
h 3321 -205 239 0
h 205 -3321 0
h -239 -3321 0
h 3322 -240 206 0
h 240 -3322 0
h -206 -3322 0
h 3323 -206 240 0
h 206 -3323 0
h -240 -3323 0
h 3324 -241 207 0
h 241 -3324 0
h -207 -3324 0
h 3325 -207 241 0
h 207 -3325 0
h -241 -3325 0
h -3326 -130 117 0
h 130 3326 0
h -117 3326 0
h -3327 -129 116 0
h 129 3327 0
h -116 3327 0
h -3328 -128 115 0
h 128 3328 0
h -115 3328 0
h -3329 -127 114 0
h 127 3329 0
h -114 3329 0
h -3330 -126 113 0
h 126 3330 0
h -113 3330 0
h -3331 -125 112 0
h 125 3331 0
h -112 3331 0
h -3332 -124 111 0
h 124 3332 0
h -111 3332 0
h -3333 -123 110 0
h 123 3333 0
h -110 3333 0
h -3334 -122 109 0
h 122 3334 0
h -109 3334 0
h 3335 -118 -3326 -3327 -3328 -3329 -3330 -3331 -3332 -3333 -3334 121 120 0
h 118 -3335 0
h 3326 -3335 0
h 3327 -3335 0
h 3328 -3335 0
h 3329 -3335 0
h 3330 -3335 0
h 3331 -3335 0
h 3332 -3335 0
h 3333 -3335 0
h 3334 -3335 0
h -121 -3335 0
h -120 -3335 0
h -3336 -119 128 0
h 119 3336 0
h -128 3336 0
h -3337 -118 127 0
h 118 3337 0
h -127 3337 0
h -3338 -117 126 0
h 117 3338 0
h -126 3338 0
h -3339 -116 125 0
h 116 3339 0
h -125 3339 0
h -3340 -115 124 0
h 115 3340 0
h -124 3340 0
h -3341 -114 123 0
h 114 3341 0
h -123 3341 0
h -3342 -113 122 0
h 113 3342 0
h -122 3342 0
h -3343 -112 121 0
h 112 3343 0
h -121 3343 0
h -3344 -111 120 0
h 111 3344 0
h -120 3344 0
h 3345 -129 -3336 -3337 -3338 -3339 -3340 -3341 -3342 -3343 -3344 110 109 0
h 129 -3345 0
h 3336 -3345 0
h 3337 -3345 0
h 3338 -3345 0
h 3339 -3345 0
h 3340 -3345 0
h 3341 -3345 0
h 3342 -3345 0
h 3343 -3345 0
h 3344 -3345 0
h -110 -3345 0
h -109 -3345 0
h 3346 -253 219 0
h 253 -3346 0
h -219 -3346 0
h 3347 -219 253 0
h 219 -3347 0
h -253 -3347 0
h 3348 -254 220 0
h 254 -3348 0
h -220 -3348 0
h 3349 -220 254 0
h 220 -3349 0
h -254 -3349 0
h 3350 -255 221 0
h 255 -3350 0
h -221 -3350 0
h 3351 -221 255 0
h 221 -3351 0
h -255 -3351 0
h 3352 -256 222 0
h 256 -3352 0
h -222 -3352 0
h 3353 -222 256 0
h 222 -3353 0
h -256 -3353 0
h -3354 -108 117 0
h 108 3354 0
h -117 3354 0
h -3355 -107 116 0
h 107 3355 0
h -116 3355 0
h -3356 -106 115 0
h 106 3356 0
h -115 3356 0
h -3357 -105 114 0
h 105 3357 0
h -114 3357 0
h -3358 -104 113 0
h 104 3358 0
h -113 3358 0
h -3359 -103 112 0
h 103 3359 0
h -112 3359 0
h -3360 -102 111 0
h 102 3360 0
h -111 3360 0
h -3361 -101 110 0
h 101 3361 0
h -110 3361 0
h -3362 -100 109 0
h 100 3362 0
h -109 3362 0
h 3363 -118 -3354 -3355 -3356 -3357 -3358 -3359 -3360 -3361 -3362 99 98 0
h 118 -3363 0
h 3354 -3363 0
h 3355 -3363 0
h 3356 -3363 0
h 3357 -3363 0
h 3358 -3363 0
h 3359 -3363 0
h 3360 -3363 0
h 3361 -3363 0
h 3362 -3363 0
h -99 -3363 0
h -98 -3363 0
h -3364 -119 106 0
h 119 3364 0
h -106 3364 0
h -3365 -118 105 0
h 118 3365 0
h -105 3365 0
h -3366 -117 104 0
h 117 3366 0
h -104 3366 0
h -3367 -116 103 0
h 116 3367 0
h -103 3367 0
h -3368 -115 102 0
h 115 3368 0
h -102 3368 0
h -3369 -114 101 0
h 114 3369 0
h -101 3369 0
h -3370 -113 100 0
h 113 3370 0
h -100 3370 0
h -3371 -112 99 0
h 112 3371 0
h -99 3371 0
h -3372 -111 98 0
h 111 3372 0
h -98 3372 0
h 3373 -107 -3364 -3365 -3366 -3367 -3368 -3369 -3370 -3371 -3372 110 109 0
h 107 -3373 0
h 3364 -3373 0
h 3365 -3373 0
h 3366 -3373 0
h 3367 -3373 0
h 3368 -3373 0
h 3369 -3373 0
h 3370 -3373 0
h 3371 -3373 0
h 3372 -3373 0
h -110 -3373 0
h -109 -3373 0
h 3374 -253 204 0
h 253 -3374 0
h -204 -3374 0
h 3375 -204 253 0
h 204 -3375 0
h -253 -3375 0
h 3376 -254 205 0
h 254 -3376 0
h -205 -3376 0
h 3377 -205 254 0
h 205 -3377 0
h -254 -3377 0
h 3378 -255 206 0
h 255 -3378 0
h -206 -3378 0
h 3379 -206 255 0
h 206 -3379 0
h -255 -3379 0
h 3380 -256 207 0
h 256 -3380 0
h -207 -3380 0
h 3381 -207 256 0
h 207 -3381 0
h -256 -3381 0
h -3382 -252 139 0
h 252 3382 0
h -139 3382 0
h -3383 -251 138 0
h 251 3383 0
h -138 3383 0
h -3384 -250 137 0
h 250 3384 0
h -137 3384 0
h -3385 -249 136 0
h 249 3385 0
h -136 3385 0
h -3386 -248 135 0
h 248 3386 0
h -135 3386 0
h -3387 -247 134 0
h 247 3387 0
h -134 3387 0
h -3388 -246 133 0
h 246 3388 0
h -133 3388 0
h -3389 -245 132 0
h 245 3389 0
h -132 3389 0
h -3390 -244 131 0
h 244 3390 0
h -131 3390 0
h 3391 -140 -3382 -3383 -3384 -3385 -3386 -3387 -3388 -3389 -3390 243 242 0
h 140 -3391 0
h 3382 -3391 0
h 3383 -3391 0
h 3384 -3391 0
h 3385 -3391 0
h 3386 -3391 0
h 3387 -3391 0
h 3388 -3391 0
h 3389 -3391 0
h 3390 -3391 0
h -243 -3391 0
h -242 -3391 0
h -3392 -141 249 0
h 141 3392 0
h -249 3392 0
h -3393 -140 248 0
h 140 3393 0
h -248 3393 0
h -3394 -139 247 0
h 139 3394 0
h -247 3394 0
h -3395 -138 246 0
h 138 3395 0
h -246 3395 0
h -3396 -137 245 0
h 137 3396 0
h -245 3396 0
h -3397 -136 244 0
h 136 3397 0
h -244 3397 0
h -3398 -135 243 0
h 135 3398 0
h -243 3398 0
h -3399 -134 242 0
h 134 3399 0
h -242 3399 0
h 3400 -250 -3392 -3393 -3394 -3395 -3396 -3397 -3398 -3399 133 132 131 0
h 250 -3400 0
h 3392 -3400 0
h 3393 -3400 0
h 3394 -3400 0
h 3395 -3400 0
h 3396 -3400 0
h 3397 -3400 0
h 3398 -3400 0
h 3399 -3400 0
h -133 -3400 0
h -132 -3400 0
h -131 -3400 0
h 3401 -223 1 0
h 223 -3401 0
h -1 -3401 0
h 3402 -1 223 0
h 1 -3402 0
h -223 -3402 0
h 3403 -224 2 0
h 224 -3403 0
h -2 -3403 0
h 3404 -2 224 0
h 2 -3404 0
h -224 -3404 0
h 3405 -225 3 0
h 225 -3405 0
h -3 -3405 0
h 3406 -3 225 0
h 3 -3406 0
h -225 -3406 0
h 3407 -226 4 0
h 226 -3407 0
h -4 -3407 0
h 3408 -4 226 0
h 4 -3408 0
h -226 -3408 0
h -3409 -237 139 0
h 237 3409 0
h -139 3409 0
h -3410 -236 138 0
h 236 3410 0
h -138 3410 0
h -3411 -235 137 0
h 235 3411 0
h -137 3411 0
h -3412 -234 136 0
h 234 3412 0
h -136 3412 0
h -3413 -233 135 0
h 233 3413 0
h -135 3413 0
h -3414 -232 134 0
h 232 3414 0
h -134 3414 0
h -3415 -231 133 0
h 231 3415 0
h -133 3415 0
h -3416 -230 132 0
h 230 3416 0
h -132 3416 0
h -3417 -229 131 0
h 229 3417 0
h -131 3417 0
h 3418 -140 -3409 -3410 -3411 -3412 -3413 -3414 -3415 -3416 -3417 228 227 0
h 140 -3418 0
h 3409 -3418 0
h 3410 -3418 0
h 3411 -3418 0
h 3412 -3418 0
h 3413 -3418 0
h 3414 -3418 0
h 3415 -3418 0
h 3416 -3418 0
h 3417 -3418 0
h -228 -3418 0
h -227 -3418 0
h -3419 -141 234 0
h 141 3419 0
h -234 3419 0
h -3420 -140 233 0
h 140 3420 0
h -233 3420 0
h -3421 -139 232 0
h 139 3421 0
h -232 3421 0
h -3422 -138 231 0
h 138 3422 0
h -231 3422 0
h -3423 -137 230 0
h 137 3423 0
h -230 3423 0
h -3424 -136 229 0
h 136 3424 0
h -229 3424 0
h -3425 -135 228 0
h 135 3425 0
h -228 3425 0
h -3426 -134 227 0
h 134 3426 0
h -227 3426 0
h 3427 -235 -3419 -3420 -3421 -3422 -3423 -3424 -3425 -3426 133 132 131 0
h 235 -3427 0
h 3419 -3427 0
h 3420 -3427 0
h 3421 -3427 0
h 3422 -3427 0
h 3423 -3427 0
h 3424 -3427 0
h 3425 -3427 0
h 3426 -3427 0
h -133 -3427 0
h -132 -3427 0
h -131 -3427 0
h 3428 -223 357 0
h 223 -3428 0
h -357 -3428 0
h 3429 -357 223 0
h 357 -3429 0
h -223 -3429 0
h 3430 -224 358 0
h 224 -3430 0
h -358 -3430 0
h 3431 -358 224 0
h 358 -3431 0
h -224 -3431 0
h 3432 -225 359 0
h 225 -3432 0
h -359 -3432 0
h 3433 -359 225 0
h 359 -3433 0
h -225 -3433 0
h 3434 -226 360 0
h 226 -3434 0
h -360 -3434 0
h 3435 -360 226 0
h 360 -3435 0
h -226 -3435 0
h -3436 -130 139 0
h 130 3436 0
h -139 3436 0
h -3437 -129 138 0
h 129 3437 0
h -138 3437 0
h -3438 -128 137 0
h 128 3438 0
h -137 3438 0
h -3439 -127 136 0
h 127 3439 0
h -136 3439 0
h -3440 -126 135 0
h 126 3440 0
h -135 3440 0
h -3441 -125 134 0
h 125 3441 0
h -134 3441 0
h -3442 -124 133 0
h 124 3442 0
h -133 3442 0
h -3443 -123 132 0
h 123 3443 0
h -132 3443 0
h -3444 -122 131 0
h 122 3444 0
h -131 3444 0
h 3445 -140 -3436 -3437 -3438 -3439 -3440 -3441 -3442 -3443 -3444 121 120 0
h 140 -3445 0
h 3436 -3445 0
h 3437 -3445 0
h 3438 -3445 0
h 3439 -3445 0
h 3440 -3445 0
h 3441 -3445 0
h 3442 -3445 0
h 3443 -3445 0
h 3444 -3445 0
h -121 -3445 0
h -120 -3445 0
h -3446 -141 128 0
h 141 3446 0
h -128 3446 0
h -3447 -140 127 0
h 140 3447 0
h -127 3447 0
h -3448 -139 126 0
h 139 3448 0
h -126 3448 0
h -3449 -138 125 0
h 138 3449 0
h -125 3449 0
h -3450 -137 124 0
h 137 3450 0
h -124 3450 0
h -3451 -136 123 0
h 136 3451 0
h -123 3451 0
h -3452 -135 122 0
h 135 3452 0
h -122 3452 0
h -3453 -134 121 0
h 134 3453 0
h -121 3453 0
h -3454 -133 120 0
h 133 3454 0
h -120 3454 0
h 3455 -129 -3446 -3447 -3448 -3449 -3450 -3451 -3452 -3453 -3454 132 131 0
h 129 -3455 0
h 3446 -3455 0
h 3447 -3455 0
h 3448 -3455 0
h 3449 -3455 0
h 3450 -3455 0
h 3451 -3455 0
h 3452 -3455 0
h 3453 -3455 0
h 3454 -3455 0
h -132 -3455 0
h -131 -3455 0
h 3456 -223 219 0
h 223 -3456 0
h -219 -3456 0
h 3457 -219 223 0
h 219 -3457 0
h -223 -3457 0
h 3458 -224 220 0
h 224 -3458 0
h -220 -3458 0
h 3459 -220 224 0
h 220 -3459 0
h -224 -3459 0
h 3460 -225 221 0
h 225 -3460 0
h -221 -3460 0
h 3461 -221 225 0
h 221 -3461 0
h -225 -3461 0
h 3462 -226 222 0
h 226 -3462 0
h -222 -3462 0
h 3463 -222 226 0
h 222 -3463 0
h -226 -3463 0
h -3464 -108 139 0
h 108 3464 0
h -139 3464 0
h -3465 -107 138 0
h 107 3465 0
h -138 3465 0
h -3466 -106 137 0
h 106 3466 0
h -137 3466 0
h -3467 -105 136 0
h 105 3467 0
h -136 3467 0
h -3468 -104 135 0
h 104 3468 0
h -135 3468 0
h -3469 -103 134 0
h 103 3469 0
h -134 3469 0
h -3470 -102 133 0
h 102 3470 0
h -133 3470 0
h -3471 -101 132 0
h 101 3471 0
h -132 3471 0
h -3472 -100 131 0
h 100 3472 0
h -131 3472 0
h 3473 -140 -3464 -3465 -3466 -3467 -3468 -3469 -3470 -3471 -3472 99 98 0
h 140 -3473 0
h 3464 -3473 0
h 3465 -3473 0
h 3466 -3473 0
h 3467 -3473 0
h 3468 -3473 0
h 3469 -3473 0
h 3470 -3473 0
h 3471 -3473 0
h 3472 -3473 0
h -99 -3473 0
h -98 -3473 0
h -3474 -141 106 0
h 141 3474 0
h -106 3474 0
h -3475 -140 105 0
h 140 3475 0
h -105 3475 0
h -3476 -139 104 0
h 139 3476 0
h -104 3476 0
h -3477 -138 103 0
h 138 3477 0
h -103 3477 0
h -3478 -137 102 0
h 137 3478 0
h -102 3478 0
h -3479 -136 101 0
h 136 3479 0
h -101 3479 0
h -3480 -135 100 0
h 135 3480 0
h -100 3480 0
h -3481 -134 99 0
h 134 3481 0
h -99 3481 0
h -3482 -133 98 0
h 133 3482 0
h -98 3482 0
h 3483 -107 -3474 -3475 -3476 -3477 -3478 -3479 -3480 -3481 -3482 132 131 0
h 107 -3483 0
h 3474 -3483 0
h 3475 -3483 0
h 3476 -3483 0
h 3477 -3483 0
h 3478 -3483 0
h 3479 -3483 0
h 3480 -3483 0
h 3481 -3483 0
h 3482 -3483 0
h -132 -3483 0
h -131 -3483 0
h 3484 -223 204 0
h 223 -3484 0
h -204 -3484 0
h 3485 -204 223 0
h 204 -3485 0
h -223 -3485 0
h 3486 -224 205 0
h 224 -3486 0
h -205 -3486 0
h 3487 -205 224 0
h 205 -3487 0
h -224 -3487 0
h 3488 -225 206 0
h 225 -3488 0
h -206 -3488 0
h 3489 -206 225 0
h 206 -3489 0
h -225 -3489 0
h 3490 -226 207 0
h 226 -3490 0
h -207 -3490 0
h 3491 -207 226 0
h 207 -3491 0
h -226 -3491 0
h -3492 -252 277 0
h 252 3492 0
h -277 3492 0
h -3493 -251 276 0
h 251 3493 0
h -276 3493 0
h -3494 -250 275 0
h 250 3494 0
h -275 3494 0
h -3495 -249 274 0
h 249 3495 0
h -274 3495 0
h -3496 -248 273 0
h 248 3496 0
h -273 3496 0
h -3497 -247 272 0
h 247 3497 0
h -272 3497 0
h -3498 -246 271 0
h 246 3498 0
h -271 3498 0
h -3499 -245 270 0
h 245 3499 0
h -270 3499 0
h -3500 -244 269 0
h 244 3500 0
h -269 3500 0
h -3501 -243 268 0
h 243 3501 0
h -268 3501 0
h 3502 -278 -3492 -3493 -3494 -3495 -3496 -3497 -3498 -3499 -3500 -3501 242 0
h 278 -3502 0
h 3492 -3502 0
h 3493 -3502 0
h 3494 -3502 0
h 3495 -3502 0
h 3496 -3502 0
h 3497 -3502 0
h 3498 -3502 0
h 3499 -3502 0
h 3500 -3502 0
h 3501 -3502 0
h -242 -3502 0
h -3503 -278 249 0
h 278 3503 0
h -249 3503 0
h -3504 -277 248 0
h 277 3504 0
h -248 3504 0
h -3505 -276 247 0
h 276 3505 0
h -247 3505 0
h -3506 -275 246 0
h 275 3506 0
h -246 3506 0
h -3507 -274 245 0
h 274 3507 0
h -245 3507 0
h -3508 -273 244 0
h 273 3508 0
h -244 3508 0
h -3509 -272 243 0
h 272 3509 0
h -243 3509 0
h -3510 -271 242 0
h 271 3510 0
h -242 3510 0
h 3511 -250 -3503 -3504 -3505 -3506 -3507 -3508 -3509 -3510 270 269 268 0
h 250 -3511 0
h 3503 -3511 0
h 3504 -3511 0
h 3505 -3511 0
h 3506 -3511 0
h 3507 -3511 0
h 3508 -3511 0
h 3509 -3511 0
h 3510 -3511 0
h -270 -3511 0
h -269 -3511 0
h -268 -3511 0
h 3512 -42 1 0
h 42 -3512 0
h -1 -3512 0
h 3513 -1 42 0
h 1 -3513 0
h -42 -3513 0
h 3514 -43 2 0
h 43 -3514 0
h -2 -3514 0
h 3515 -2 43 0
h 2 -3515 0
h -43 -3515 0
h 3516 -44 3 0
h 44 -3516 0
h -3 -3516 0
h 3517 -3 44 0
h 3 -3517 0
h -44 -3517 0
h 3518 -45 4 0
h 45 -3518 0
h -4 -3518 0
h 3519 -4 45 0
h 4 -3519 0
h -45 -3519 0
h -3520 -237 277 0
h 237 3520 0
h -277 3520 0
h -3521 -236 276 0
h 236 3521 0
h -276 3521 0
h -3522 -235 275 0
h 235 3522 0
h -275 3522 0
h -3523 -234 274 0
h 234 3523 0
h -274 3523 0
h -3524 -233 273 0
h 233 3524 0
h -273 3524 0
h -3525 -232 272 0
h 232 3525 0
h -272 3525 0
h -3526 -231 271 0
h 231 3526 0
h -271 3526 0
h -3527 -230 270 0
h 230 3527 0
h -270 3527 0
h -3528 -229 269 0
h 229 3528 0
h -269 3528 0
h -3529 -228 268 0
h 228 3529 0
h -268 3529 0
h 3530 -278 -3520 -3521 -3522 -3523 -3524 -3525 -3526 -3527 -3528 -3529 227 0
h 278 -3530 0
h 3520 -3530 0
h 3521 -3530 0
h 3522 -3530 0
h 3523 -3530 0
h 3524 -3530 0
h 3525 -3530 0
h 3526 -3530 0
h 3527 -3530 0
h 3528 -3530 0
h 3529 -3530 0
h -227 -3530 0
h -3531 -278 234 0
h 278 3531 0
h -234 3531 0
h -3532 -277 233 0
h 277 3532 0
h -233 3532 0
h -3533 -276 232 0
h 276 3533 0
h -232 3533 0
h -3534 -275 231 0
h 275 3534 0
h -231 3534 0
h -3535 -274 230 0
h 274 3535 0
h -230 3535 0
h -3536 -273 229 0
h 273 3536 0
h -229 3536 0
h -3537 -272 228 0
h 272 3537 0
h -228 3537 0
h -3538 -271 227 0
h 271 3538 0
h -227 3538 0
h 3539 -235 -3531 -3532 -3533 -3534 -3535 -3536 -3537 -3538 270 269 268 0
h 235 -3539 0
h 3531 -3539 0
h 3532 -3539 0
h 3533 -3539 0
h 3534 -3539 0
h 3535 -3539 0
h 3536 -3539 0
h 3537 -3539 0
h 3538 -3539 0
h -270 -3539 0
h -269 -3539 0
h -268 -3539 0
h 3540 -42 357 0
h 42 -3540 0
h -357 -3540 0
h 3541 -357 42 0
h 357 -3541 0
h -42 -3541 0
h 3542 -43 358 0
h 43 -3542 0
h -358 -3542 0
h 3543 -358 43 0
h 358 -3543 0
h -43 -3543 0
h 3544 -44 359 0
h 44 -3544 0
h -359 -3544 0
h 3545 -359 44 0
h 359 -3545 0
h -44 -3545 0
h 3546 -45 360 0
h 45 -3546 0
h -360 -3546 0
h 3547 -360 45 0
h 360 -3547 0
h -45 -3547 0
h -3548 -252 299 0
h 252 3548 0
h -299 3548 0
h -3549 -251 298 0
h 251 3549 0
h -298 3549 0
h -3550 -250 297 0
h 250 3550 0
h -297 3550 0
h -3551 -249 296 0
h 249 3551 0
h -296 3551 0
h -3552 -248 295 0
h 248 3552 0
h -295 3552 0
h -3553 -247 294 0
h 247 3553 0
h -294 3553 0
h -3554 -246 293 0
h 246 3554 0
h -293 3554 0
h -3555 -245 292 0
h 245 3555 0
h -292 3555 0
h -3556 -244 291 0
h 244 3556 0
h -291 3556 0
h -3557 -243 290 0
h 243 3557 0
h -290 3557 0
h 3558 -300 -3548 -3549 -3550 -3551 -3552 -3553 -3554 -3555 -3556 -3557 242 0
h 300 -3558 0
h 3548 -3558 0
h 3549 -3558 0
h 3550 -3558 0
h 3551 -3558 0
h 3552 -3558 0
h 3553 -3558 0
h 3554 -3558 0
h 3555 -3558 0
h 3556 -3558 0
h 3557 -3558 0
h -242 -3558 0
h -3559 -300 249 0
h 300 3559 0
h -249 3559 0
h -3560 -299 248 0
h 299 3560 0
h -248 3560 0
h -3561 -298 247 0
h 298 3561 0
h -247 3561 0
h -3562 -297 246 0
h 297 3562 0
h -246 3562 0
h -3563 -296 245 0
h 296 3563 0
h -245 3563 0
h -3564 -295 244 0
h 295 3564 0
h -244 3564 0
h -3565 -294 243 0
h 294 3565 0
h -243 3565 0
h -3566 -293 242 0
h 293 3566 0
h -242 3566 0
h 3567 -250 -3559 -3560 -3561 -3562 -3563 -3564 -3565 -3566 292 291 290 0
h 250 -3567 0
h 3559 -3567 0
h 3560 -3567 0
h 3561 -3567 0
h 3562 -3567 0
h 3563 -3567 0
h 3564 -3567 0
h 3565 -3567 0
h 3566 -3567 0
h -292 -3567 0
h -291 -3567 0
h -290 -3567 0
h 3568 -61 1 0
h 61 -3568 0
h -1 -3568 0
h 3569 -1 61 0
h 1 -3569 0
h -61 -3569 0
h 3570 -62 2 0
h 62 -3570 0
h -2 -3570 0
h 3571 -2 62 0
h 2 -3571 0
h -62 -3571 0
h 3572 -63 3 0
h 63 -3572 0
h -3 -3572 0
h 3573 -3 63 0
h 3 -3573 0
h -63 -3573 0
h 3574 -64 4 0
h 64 -3574 0
h -4 -3574 0
h 3575 -4 64 0
h 4 -3575 0
h -64 -3575 0
h -3576 -237 299 0
h 237 3576 0
h -299 3576 0
h -3577 -236 298 0
h 236 3577 0
h -298 3577 0
h -3578 -235 297 0
h 235 3578 0
h -297 3578 0
h -3579 -234 296 0
h 234 3579 0
h -296 3579 0
h -3580 -233 295 0
h 233 3580 0
h -295 3580 0
h -3581 -232 294 0
h 232 3581 0
h -294 3581 0
h -3582 -231 293 0
h 231 3582 0
h -293 3582 0
h -3583 -230 292 0
h 230 3583 0
h -292 3583 0
h -3584 -229 291 0
h 229 3584 0
h -291 3584 0
h -3585 -228 290 0
h 228 3585 0
h -290 3585 0
h 3586 -300 -3576 -3577 -3578 -3579 -3580 -3581 -3582 -3583 -3584 -3585 227 0
h 300 -3586 0
h 3576 -3586 0
h 3577 -3586 0
h 3578 -3586 0
h 3579 -3586 0
h 3580 -3586 0
h 3581 -3586 0
h 3582 -3586 0
h 3583 -3586 0
h 3584 -3586 0
h 3585 -3586 0
h -227 -3586 0
h -3587 -300 234 0
h 300 3587 0
h -234 3587 0
h -3588 -299 233 0
h 299 3588 0
h -233 3588 0
h -3589 -298 232 0
h 298 3589 0
h -232 3589 0
h -3590 -297 231 0
h 297 3590 0
h -231 3590 0
h -3591 -296 230 0
h 296 3591 0
h -230 3591 0
h -3592 -295 229 0
h 295 3592 0
h -229 3592 0
h -3593 -294 228 0
h 294 3593 0
h -228 3593 0
h -3594 -293 227 0
h 293 3594 0
h -227 3594 0
h 3595 -235 -3587 -3588 -3589 -3590 -3591 -3592 -3593 -3594 292 291 290 0
h 235 -3595 0
h 3587 -3595 0
h 3588 -3595 0
h 3589 -3595 0
h 3590 -3595 0
h 3591 -3595 0
h 3592 -3595 0
h 3593 -3595 0
h 3594 -3595 0
h -292 -3595 0
h -291 -3595 0
h -290 -3595 0
h 3596 -61 357 0
h 61 -3596 0
h -357 -3596 0
h 3597 -357 61 0
h 357 -3597 0
h -61 -3597 0
h 3598 -62 358 0
h 62 -3598 0
h -358 -3598 0
h 3599 -358 62 0
h 358 -3599 0
h -62 -3599 0
h 3600 -63 359 0
h 63 -3600 0
h -359 -3600 0
h 3601 -359 63 0
h 359 -3601 0
h -63 -3601 0
h 3602 -64 360 0
h 64 -3602 0
h -360 -3602 0
h 3603 -360 64 0
h 360 -3603 0
h -64 -3603 0
h -3604 -252 288 0
h 252 3604 0
h -288 3604 0
h -3605 -251 287 0
h 251 3605 0
h -287 3605 0
h -3606 -250 286 0
h 250 3606 0
h -286 3606 0
h -3607 -249 285 0
h 249 3607 0
h -285 3607 0
h -3608 -248 284 0
h 248 3608 0
h -284 3608 0
h -3609 -247 283 0
h 247 3609 0
h -283 3609 0
h -3610 -246 282 0
h 246 3610 0
h -282 3610 0
h -3611 -245 281 0
h 245 3611 0
h -281 3611 0
h -3612 -244 280 0
h 244 3612 0
h -280 3612 0
h -3613 -243 279 0
h 243 3613 0
h -279 3613 0
h 3614 -289 -3604 -3605 -3606 -3607 -3608 -3609 -3610 -3611 -3612 -3613 242 0
h 289 -3614 0
h 3604 -3614 0
h 3605 -3614 0
h 3606 -3614 0
h 3607 -3614 0
h 3608 -3614 0
h 3609 -3614 0
h 3610 -3614 0
h 3611 -3614 0
h 3612 -3614 0
h 3613 -3614 0
h -242 -3614 0
h -3615 -289 249 0
h 289 3615 0
h -249 3615 0
h -3616 -288 248 0
h 288 3616 0
h -248 3616 0
h -3617 -287 247 0
h 287 3617 0
h -247 3617 0
h -3618 -286 246 0
h 286 3618 0
h -246 3618 0
h -3619 -285 245 0
h 285 3619 0
h -245 3619 0
h -3620 -284 244 0
h 284 3620 0
h -244 3620 0
h -3621 -283 243 0
h 283 3621 0
h -243 3621 0
h -3622 -282 242 0
h 282 3622 0
h -242 3622 0
h 3623 -250 -3615 -3616 -3617 -3618 -3619 -3620 -3621 -3622 281 280 279 0
h 250 -3623 0
h 3615 -3623 0
h 3616 -3623 0
h 3617 -3623 0
h 3618 -3623 0
h 3619 -3623 0
h 3620 -3623 0
h 3621 -3623 0
h 3622 -3623 0
h -281 -3623 0
h -280 -3623 0
h -279 -3623 0
h 3624 -57 1 0
h 57 -3624 0
h -1 -3624 0
h 3625 -1 57 0
h 1 -3625 0
h -57 -3625 0
h 3626 -58 2 0
h 58 -3626 0
h -2 -3626 0
h 3627 -2 58 0
h 2 -3627 0
h -58 -3627 0
h 3628 -59 3 0
h 59 -3628 0
h -3 -3628 0
h 3629 -3 59 0
h 3 -3629 0
h -59 -3629 0
h 3630 -60 4 0
h 60 -3630 0
h -4 -3630 0
h 3631 -4 60 0
h 4 -3631 0
h -60 -3631 0
h -3632 -237 288 0
h 237 3632 0
h -288 3632 0
h -3633 -236 287 0
h 236 3633 0
h -287 3633 0
h -3634 -235 286 0
h 235 3634 0
h -286 3634 0
h -3635 -234 285 0
h 234 3635 0
h -285 3635 0
h -3636 -233 284 0
h 233 3636 0
h -284 3636 0
h -3637 -232 283 0
h 232 3637 0
h -283 3637 0
h -3638 -231 282 0
h 231 3638 0
h -282 3638 0
h -3639 -230 281 0
h 230 3639 0
h -281 3639 0
h -3640 -229 280 0
h 229 3640 0
h -280 3640 0
h -3641 -228 279 0
h 228 3641 0
h -279 3641 0
h 3642 -289 -3632 -3633 -3634 -3635 -3636 -3637 -3638 -3639 -3640 -3641 227 0
h 289 -3642 0
h 3632 -3642 0
h 3633 -3642 0
h 3634 -3642 0
h 3635 -3642 0
h 3636 -3642 0
h 3637 -3642 0
h 3638 -3642 0
h 3639 -3642 0
h 3640 -3642 0
h 3641 -3642 0
h -227 -3642 0
h -3643 -289 234 0
h 289 3643 0
h -234 3643 0
h -3644 -288 233 0
h 288 3644 0
h -233 3644 0
h -3645 -287 232 0
h 287 3645 0
h -232 3645 0
h -3646 -286 231 0
h 286 3646 0
h -231 3646 0
h -3647 -285 230 0
h 285 3647 0
h -230 3647 0
h -3648 -284 229 0
h 284 3648 0
h -229 3648 0
h -3649 -283 228 0
h 283 3649 0
h -228 3649 0
h -3650 -282 227 0
h 282 3650 0
h -227 3650 0
h 3651 -235 -3643 -3644 -3645 -3646 -3647 -3648 -3649 -3650 281 280 279 0
h 235 -3651 0
h 3643 -3651 0
h 3644 -3651 0
h 3645 -3651 0
h 3646 -3651 0
h 3647 -3651 0
h 3648 -3651 0
h 3649 -3651 0
h 3650 -3651 0
h -281 -3651 0
h -280 -3651 0
h -279 -3651 0
h 3652 -57 357 0
h 57 -3652 0
h -357 -3652 0
h 3653 -357 57 0
h 357 -3653 0
h -57 -3653 0
h 3654 -58 358 0
h 58 -3654 0
h -358 -3654 0
h 3655 -358 58 0
h 358 -3655 0
h -58 -3655 0
h 3656 -59 359 0
h 59 -3656 0
h -359 -3656 0
h 3657 -359 59 0
h 359 -3657 0
h -59 -3657 0
h 3658 -60 360 0
h 60 -3658 0
h -360 -3658 0
h 3659 -360 60 0
h 360 -3659 0
h -60 -3659 0
h -3660 -130 277 0
h 130 3660 0
h -277 3660 0
h -3661 -129 276 0
h 129 3661 0
h -276 3661 0
h -3662 -128 275 0
h 128 3662 0
h -275 3662 0
h -3663 -127 274 0
h 127 3663 0
h -274 3663 0
h -3664 -126 273 0
h 126 3664 0
h -273 3664 0
h -3665 -125 272 0
h 125 3665 0
h -272 3665 0
h -3666 -124 271 0
h 124 3666 0
h -271 3666 0
h -3667 -123 270 0
h 123 3667 0
h -270 3667 0
h -3668 -122 269 0
h 122 3668 0
h -269 3668 0
h -3669 -121 268 0
h 121 3669 0
h -268 3669 0
h 3670 -278 -3660 -3661 -3662 -3663 -3664 -3665 -3666 -3667 -3668 -3669 120 0
h 278 -3670 0
h 3660 -3670 0
h 3661 -3670 0
h 3662 -3670 0
h 3663 -3670 0
h 3664 -3670 0
h 3665 -3670 0
h 3666 -3670 0
h 3667 -3670 0
h 3668 -3670 0
h 3669 -3670 0
h -120 -3670 0
h -3671 -278 128 0
h 278 3671 0
h -128 3671 0
h -3672 -277 127 0
h 277 3672 0
h -127 3672 0
h -3673 -276 126 0
h 276 3673 0
h -126 3673 0
h -3674 -275 125 0
h 275 3674 0
h -125 3674 0
h -3675 -274 124 0
h 274 3675 0
h -124 3675 0
h -3676 -273 123 0
h 273 3676 0
h -123 3676 0
h -3677 -272 122 0
h 272 3677 0
h -122 3677 0
h -3678 -271 121 0
h 271 3678 0
h -121 3678 0
h -3679 -270 120 0
h 270 3679 0
h -120 3679 0
h 3680 -129 -3671 -3672 -3673 -3674 -3675 -3676 -3677 -3678 -3679 269 268 0
h 129 -3680 0
h 3671 -3680 0
h 3672 -3680 0
h 3673 -3680 0
h 3674 -3680 0
h 3675 -3680 0
h 3676 -3680 0
h 3677 -3680 0
h 3678 -3680 0
h 3679 -3680 0
h -269 -3680 0
h -268 -3680 0
h 3681 -42 219 0
h 42 -3681 0
h -219 -3681 0
h 3682 -219 42 0
h 219 -3682 0
h -42 -3682 0
h 3683 -43 220 0
h 43 -3683 0
h -220 -3683 0
h 3684 -220 43 0
h 220 -3684 0
h -43 -3684 0
h 3685 -44 221 0
h 44 -3685 0
h -221 -3685 0
h 3686 -221 44 0
h 221 -3686 0
h -44 -3686 0
h 3687 -45 222 0
h 45 -3687 0
h -222 -3687 0
h 3688 -222 45 0
h 222 -3688 0
h -45 -3688 0
h -3689 -108 277 0
h 108 3689 0
h -277 3689 0
h -3690 -107 276 0
h 107 3690 0
h -276 3690 0
h -3691 -106 275 0
h 106 3691 0
h -275 3691 0
h -3692 -105 274 0
h 105 3692 0
h -274 3692 0
h -3693 -104 273 0
h 104 3693 0
h -273 3693 0
h -3694 -103 272 0
h 103 3694 0
h -272 3694 0
h -3695 -102 271 0
h 102 3695 0
h -271 3695 0
h -3696 -101 270 0
h 101 3696 0
h -270 3696 0
h -3697 -100 269 0
h 100 3697 0
h -269 3697 0
h -3698 -99 268 0
h 99 3698 0
h -268 3698 0
h 3699 -278 -3689 -3690 -3691 -3692 -3693 -3694 -3695 -3696 -3697 -3698 98 0
h 278 -3699 0
h 3689 -3699 0
h 3690 -3699 0
h 3691 -3699 0
h 3692 -3699 0
h 3693 -3699 0
h 3694 -3699 0
h 3695 -3699 0
h 3696 -3699 0
h 3697 -3699 0
h 3698 -3699 0
h -98 -3699 0
h -3700 -278 106 0
h 278 3700 0
h -106 3700 0
h -3701 -277 105 0
h 277 3701 0
h -105 3701 0
h -3702 -276 104 0
h 276 3702 0
h -104 3702 0
h -3703 -275 103 0
h 275 3703 0
h -103 3703 0
h -3704 -274 102 0
h 274 3704 0
h -102 3704 0
h -3705 -273 101 0
h 273 3705 0
h -101 3705 0
h -3706 -272 100 0
h 272 3706 0
h -100 3706 0
h -3707 -271 99 0
h 271 3707 0
h -99 3707 0
h -3708 -270 98 0
h 270 3708 0
h -98 3708 0
h 3709 -107 -3700 -3701 -3702 -3703 -3704 -3705 -3706 -3707 -3708 269 268 0
h 107 -3709 0
h 3700 -3709 0
h 3701 -3709 0
h 3702 -3709 0
h 3703 -3709 0
h 3704 -3709 0
h 3705 -3709 0
h 3706 -3709 0
h 3707 -3709 0
h 3708 -3709 0
h -269 -3709 0
h -268 -3709 0
h 3710 -42 204 0
h 42 -3710 0
h -204 -3710 0
h 3711 -204 42 0
h 204 -3711 0
h -42 -3711 0
h 3712 -43 205 0
h 43 -3712 0
h -205 -3712 0
h 3713 -205 43 0
h 205 -3713 0
h -43 -3713 0
h 3714 -44 206 0
h 44 -3714 0
h -206 -3714 0
h 3715 -206 44 0
h 206 -3715 0
h -44 -3715 0
h 3716 -45 207 0
h 45 -3716 0
h -207 -3716 0
h 3717 -207 45 0
h 207 -3717 0
h -45 -3717 0
h -3718 -130 299 0
h 130 3718 0
h -299 3718 0
h -3719 -129 298 0
h 129 3719 0
h -298 3719 0
h -3720 -128 297 0
h 128 3720 0
h -297 3720 0
h -3721 -127 296 0
h 127 3721 0
h -296 3721 0
h -3722 -126 295 0
h 126 3722 0
h -295 3722 0
h -3723 -125 294 0
h 125 3723 0
h -294 3723 0
h -3724 -124 293 0
h 124 3724 0
h -293 3724 0
h -3725 -123 292 0
h 123 3725 0
h -292 3725 0
h -3726 -122 291 0
h 122 3726 0
h -291 3726 0
h -3727 -121 290 0
h 121 3727 0
h -290 3727 0
h 3728 -300 -3718 -3719 -3720 -3721 -3722 -3723 -3724 -3725 -3726 -3727 120 0
h 300 -3728 0
h 3718 -3728 0
h 3719 -3728 0
h 3720 -3728 0
h 3721 -3728 0
h 3722 -3728 0
h 3723 -3728 0
h 3724 -3728 0
h 3725 -3728 0
h 3726 -3728 0
h 3727 -3728 0
h -120 -3728 0
h -3729 -300 128 0
h 300 3729 0
h -128 3729 0
h -3730 -299 127 0
h 299 3730 0
h -127 3730 0
h -3731 -298 126 0
h 298 3731 0
h -126 3731 0
h -3732 -297 125 0
h 297 3732 0
h -125 3732 0
h -3733 -296 124 0
h 296 3733 0
h -124 3733 0
h -3734 -295 123 0
h 295 3734 0
h -123 3734 0
h -3735 -294 122 0
h 294 3735 0
h -122 3735 0
h -3736 -293 121 0
h 293 3736 0
h -121 3736 0
h -3737 -292 120 0
h 292 3737 0
h -120 3737 0
h 3738 -129 -3729 -3730 -3731 -3732 -3733 -3734 -3735 -3736 -3737 291 290 0
h 129 -3738 0
h 3729 -3738 0
h 3730 -3738 0
h 3731 -3738 0
h 3732 -3738 0
h 3733 -3738 0
h 3734 -3738 0
h 3735 -3738 0
h 3736 -3738 0
h 3737 -3738 0
h -291 -3738 0
h -290 -3738 0
h 3739 -61 219 0
h 61 -3739 0
h -219 -3739 0
h 3740 -219 61 0
h 219 -3740 0
h -61 -3740 0
h 3741 -62 220 0
h 62 -3741 0
h -220 -3741 0
h 3742 -220 62 0
h 220 -3742 0
h -62 -3742 0
h 3743 -63 221 0
h 63 -3743 0
h -221 -3743 0
h 3744 -221 63 0
h 221 -3744 0
h -63 -3744 0
h 3745 -64 222 0
h 64 -3745 0
h -222 -3745 0
h 3746 -222 64 0
h 222 -3746 0
h -64 -3746 0
h -3747 -108 299 0
h 108 3747 0
h -299 3747 0
h -3748 -107 298 0
h 107 3748 0
h -298 3748 0
h -3749 -106 297 0
h 106 3749 0
h -297 3749 0
h -3750 -105 296 0
h 105 3750 0
h -296 3750 0
h -3751 -104 295 0
h 104 3751 0
h -295 3751 0
h -3752 -103 294 0
h 103 3752 0
h -294 3752 0
h -3753 -102 293 0
h 102 3753 0
h -293 3753 0
h -3754 -101 292 0
h 101 3754 0
h -292 3754 0
h -3755 -100 291 0
h 100 3755 0
h -291 3755 0
h -3756 -99 290 0
h 99 3756 0
h -290 3756 0
h 3757 -300 -3747 -3748 -3749 -3750 -3751 -3752 -3753 -3754 -3755 -3756 98 0
h 300 -3757 0
h 3747 -3757 0
h 3748 -3757 0
h 3749 -3757 0
h 3750 -3757 0
h 3751 -3757 0
h 3752 -3757 0
h 3753 -3757 0
h 3754 -3757 0
h 3755 -3757 0
h 3756 -3757 0
h -98 -3757 0
h -3758 -300 106 0
h 300 3758 0
h -106 3758 0
h -3759 -299 105 0
h 299 3759 0
h -105 3759 0
h -3760 -298 104 0
h 298 3760 0
h -104 3760 0
h -3761 -297 103 0
h 297 3761 0
h -103 3761 0
h -3762 -296 102 0
h 296 3762 0
h -102 3762 0
h -3763 -295 101 0
h 295 3763 0
h -101 3763 0
h -3764 -294 100 0
h 294 3764 0
h -100 3764 0
h -3765 -293 99 0
h 293 3765 0
h -99 3765 0
h -3766 -292 98 0
h 292 3766 0
h -98 3766 0
h 3767 -107 -3758 -3759 -3760 -3761 -3762 -3763 -3764 -3765 -3766 291 290 0
h 107 -3767 0
h 3758 -3767 0
h 3759 -3767 0
h 3760 -3767 0
h 3761 -3767 0
h 3762 -3767 0
h 3763 -3767 0
h 3764 -3767 0
h 3765 -3767 0
h 3766 -3767 0
h -291 -3767 0
h -290 -3767 0
h 3768 -61 204 0
h 61 -3768 0
h -204 -3768 0
h 3769 -204 61 0
h 204 -3769 0
h -61 -3769 0
h 3770 -62 205 0
h 62 -3770 0
h -205 -3770 0
h 3771 -205 62 0
h 205 -3771 0
h -62 -3771 0
h 3772 -63 206 0
h 63 -3772 0
h -206 -3772 0
h 3773 -206 63 0
h 206 -3773 0
h -63 -3773 0
h 3774 -64 207 0
h 64 -3774 0
h -207 -3774 0
h 3775 -207 64 0
h 207 -3775 0
h -64 -3775 0
h -3776 -130 288 0
h 130 3776 0
h -288 3776 0
h -3777 -129 287 0
h 129 3777 0
h -287 3777 0
h -3778 -128 286 0
h 128 3778 0
h -286 3778 0
h -3779 -127 285 0
h 127 3779 0
h -285 3779 0
h -3780 -126 284 0
h 126 3780 0
h -284 3780 0
h -3781 -125 283 0
h 125 3781 0
h -283 3781 0
h -3782 -124 282 0
h 124 3782 0
h -282 3782 0
h -3783 -123 281 0
h 123 3783 0
h -281 3783 0
h -3784 -122 280 0
h 122 3784 0
h -280 3784 0
h -3785 -121 279 0
h 121 3785 0
h -279 3785 0
h 3786 -289 -3776 -3777 -3778 -3779 -3780 -3781 -3782 -3783 -3784 -3785 120 0
h 289 -3786 0
h 3776 -3786 0
h 3777 -3786 0
h 3778 -3786 0
h 3779 -3786 0
h 3780 -3786 0
h 3781 -3786 0
h 3782 -3786 0
h 3783 -3786 0
h 3784 -3786 0
h 3785 -3786 0
h -120 -3786 0
h -3787 -289 128 0
h 289 3787 0
h -128 3787 0
h -3788 -288 127 0
h 288 3788 0
h -127 3788 0
h -3789 -287 126 0
h 287 3789 0
h -126 3789 0
h -3790 -286 125 0
h 286 3790 0
h -125 3790 0
h -3791 -285 124 0
h 285 3791 0
h -124 3791 0
h -3792 -284 123 0
h 284 3792 0
h -123 3792 0
h -3793 -283 122 0
h 283 3793 0
h -122 3793 0
h -3794 -282 121 0
h 282 3794 0
h -121 3794 0
h -3795 -281 120 0
h 281 3795 0
h -120 3795 0
h 3796 -129 -3787 -3788 -3789 -3790 -3791 -3792 -3793 -3794 -3795 280 279 0
h 129 -3796 0
h 3787 -3796 0
h 3788 -3796 0
h 3789 -3796 0
h 3790 -3796 0
h 3791 -3796 0
h 3792 -3796 0
h 3793 -3796 0
h 3794 -3796 0
h 3795 -3796 0
h -280 -3796 0
h -279 -3796 0
h 3797 -57 219 0
h 57 -3797 0
h -219 -3797 0
h 3798 -219 57 0
h 219 -3798 0
h -57 -3798 0
h 3799 -58 220 0
h 58 -3799 0
h -220 -3799 0
h 3800 -220 58 0
h 220 -3800 0
h -58 -3800 0
h 3801 -59 221 0
h 59 -3801 0
h -221 -3801 0
h 3802 -221 59 0
h 221 -3802 0
h -59 -3802 0
h 3803 -60 222 0
h 60 -3803 0
h -222 -3803 0
h 3804 -222 60 0
h 222 -3804 0
h -60 -3804 0
h -3805 -108 288 0
h 108 3805 0
h -288 3805 0
h -3806 -107 287 0
h 107 3806 0
h -287 3806 0
h -3807 -106 286 0
h 106 3807 0
h -286 3807 0
h -3808 -105 285 0
h 105 3808 0
h -285 3808 0
h -3809 -104 284 0
h 104 3809 0
h -284 3809 0
h -3810 -103 283 0
h 103 3810 0
h -283 3810 0
h -3811 -102 282 0
h 102 3811 0
h -282 3811 0
h -3812 -101 281 0
h 101 3812 0
h -281 3812 0
h -3813 -100 280 0
h 100 3813 0
h -280 3813 0
h -3814 -99 279 0
h 99 3814 0
h -279 3814 0
h 3815 -289 -3805 -3806 -3807 -3808 -3809 -3810 -3811 -3812 -3813 -3814 98 0
h 289 -3815 0
h 3805 -3815 0
h 3806 -3815 0
h 3807 -3815 0
h 3808 -3815 0
h 3809 -3815 0
h 3810 -3815 0
h 3811 -3815 0
h 3812 -3815 0
h 3813 -3815 0
h 3814 -3815 0
h -98 -3815 0
h -3816 -289 106 0
h 289 3816 0
h -106 3816 0
h -3817 -288 105 0
h 288 3817 0
h -105 3817 0
h -3818 -287 104 0
h 287 3818 0
h -104 3818 0
h -3819 -286 103 0
h 286 3819 0
h -103 3819 0
h -3820 -285 102 0
h 285 3820 0
h -102 3820 0
h -3821 -284 101 0
h 284 3821 0
h -101 3821 0
h -3822 -283 100 0
h 283 3822 0
h -100 3822 0
h -3823 -282 99 0
h 282 3823 0
h -99 3823 0
h -3824 -281 98 0
h 281 3824 0
h -98 3824 0
h 3825 -107 -3816 -3817 -3818 -3819 -3820 -3821 -3822 -3823 -3824 280 279 0
h 107 -3825 0
h 3816 -3825 0
h 3817 -3825 0
h 3818 -3825 0
h 3819 -3825 0
h 3820 -3825 0
h 3821 -3825 0
h 3822 -3825 0
h 3823 -3825 0
h 3824 -3825 0
h -280 -3825 0
h -279 -3825 0
h 3826 -57 204 0
h 57 -3826 0
h -204 -3826 0
h 3827 -204 57 0
h 204 -3827 0
h -57 -3827 0
h 3828 -58 205 0
h 58 -3828 0
h -205 -3828 0
h 3829 -205 58 0
h 205 -3829 0
h -58 -3829 0
h 3830 -59 206 0
h 59 -3830 0
h -206 -3830 0
h 3831 -206 59 0
h 206 -3831 0
h -59 -3831 0
h 3832 -60 207 0
h 60 -3832 0
h -207 -3832 0
h 3833 -207 60 0
h 207 -3833 0
h -60 -3833 0
h -3834 -356 249 0
h 356 3834 0
h -249 3834 0
h -3835 -355 248 0
h 355 3835 0
h -248 3835 0
h -3836 -354 247 0
h 354 3836 0
h -247 3836 0
h -3837 -353 246 0
h 353 3837 0
h -246 3837 0
h -3838 -352 245 0
h 352 3838 0
h -245 3838 0
h -3839 -351 244 0
h 351 3839 0
h -244 3839 0
h -3840 -350 243 0
h 350 3840 0
h -243 3840 0
h -3841 -349 242 0
h 349 3841 0
h -242 3841 0
h 3842 -250 -3834 -3835 -3836 -3837 -3838 -3839 -3840 -3841 348 347 346 0
h 250 -3842 0
h 3834 -3842 0
h 3835 -3842 0
h 3836 -3842 0
h 3837 -3842 0
h 3838 -3842 0
h 3839 -3842 0
h 3840 -3842 0
h 3841 -3842 0
h -348 -3842 0
h -347 -3842 0
h -346 -3842 0
h -3843 -252 354 0
h 252 3843 0
h -354 3843 0
h -3844 -251 353 0
h 251 3844 0
h -353 3844 0
h -3845 -250 352 0
h 250 3845 0
h -352 3845 0
h -3846 -249 351 0
h 249 3846 0
h -351 3846 0
h -3847 -248 350 0
h 248 3847 0
h -350 3847 0
h -3848 -247 349 0
h 247 3848 0
h -349 3848 0
h -3849 -246 348 0
h 246 3849 0
h -348 3849 0
h -3850 -245 347 0
h 245 3850 0
h -347 3850 0
h -3851 -244 346 0
h 244 3851 0
h -346 3851 0
h 3852 -355 -3843 -3844 -3845 -3846 -3847 -3848 -3849 -3850 -3851 243 242 0
h 355 -3852 0
h 3843 -3852 0
h 3844 -3852 0
h 3845 -3852 0
h 3846 -3852 0
h 3847 -3852 0
h 3848 -3852 0
h 3849 -3852 0
h 3850 -3852 0
h 3851 -3852 0
h -243 -3852 0
h -242 -3852 0
h 3853 -1 154 0
h 1 -3853 0
h -154 -3853 0
h 3854 -154 1 0
h 154 -3854 0
h -1 -3854 0
h 3855 -2 155 0
h 2 -3855 0
h -155 -3855 0
h 3856 -155 2 0
h 155 -3856 0
h -2 -3856 0
h 3857 -3 156 0
h 3 -3857 0
h -156 -3857 0
h 3858 -156 3 0
h 156 -3858 0
h -3 -3858 0
h 3859 -4 157 0
h 4 -3859 0
h -157 -3859 0
h 3860 -157 4 0
h 157 -3860 0
h -4 -3860 0
h -3861 -356 234 0
h 356 3861 0
h -234 3861 0
h -3862 -355 233 0
h 355 3862 0
h -233 3862 0
h -3863 -354 232 0
h 354 3863 0
h -232 3863 0
h -3864 -353 231 0
h 353 3864 0
h -231 3864 0
h -3865 -352 230 0
h 352 3865 0
h -230 3865 0
h -3866 -351 229 0
h 351 3866 0
h -229 3866 0
h -3867 -350 228 0
h 350 3867 0
h -228 3867 0
h -3868 -349 227 0
h 349 3868 0
h -227 3868 0
h 3869 -235 -3861 -3862 -3863 -3864 -3865 -3866 -3867 -3868 348 347 346 0
h 235 -3869 0
h 3861 -3869 0
h 3862 -3869 0
h 3863 -3869 0
h 3864 -3869 0
h 3865 -3869 0
h 3866 -3869 0
h 3867 -3869 0
h 3868 -3869 0
h -348 -3869 0
h -347 -3869 0
h -346 -3869 0
h -3870 -237 354 0
h 237 3870 0
h -354 3870 0
h -3871 -236 353 0
h 236 3871 0
h -353 3871 0
h -3872 -235 352 0
h 235 3872 0
h -352 3872 0
h -3873 -234 351 0
h 234 3873 0
h -351 3873 0
h -3874 -233 350 0
h 233 3874 0
h -350 3874 0
h -3875 -232 349 0
h 232 3875 0
h -349 3875 0
h -3876 -231 348 0
h 231 3876 0
h -348 3876 0
h -3877 -230 347 0
h 230 3877 0
h -347 3877 0
h -3878 -229 346 0
h 229 3878 0
h -346 3878 0
h 3879 -355 -3870 -3871 -3872 -3873 -3874 -3875 -3876 -3877 -3878 228 227 0
h 355 -3879 0
h 3870 -3879 0
h 3871 -3879 0
h 3872 -3879 0
h 3873 -3879 0
h 3874 -3879 0
h 3875 -3879 0
h 3876 -3879 0
h 3877 -3879 0
h 3878 -3879 0
h -228 -3879 0
h -227 -3879 0
h 3880 -357 154 0
h 357 -3880 0
h -154 -3880 0
h 3881 -154 357 0
h 154 -3881 0
h -357 -3881 0
h 3882 -358 155 0
h 358 -3882 0
h -155 -3882 0
h 3883 -155 358 0
h 155 -3883 0
h -358 -3883 0
h 3884 -359 156 0
h 359 -3884 0
h -156 -3884 0
h 3885 -156 359 0
h 156 -3885 0
h -359 -3885 0
h 3886 -360 157 0
h 360 -3886 0
h -157 -3886 0
h 3887 -157 360 0
h 157 -3887 0
h -360 -3887 0
h -3888 -341 249 0
h 341 3888 0
h -249 3888 0
h -3889 -340 248 0
h 340 3889 0
h -248 3889 0
h -3890 -339 247 0
h 339 3890 0
h -247 3890 0
h -3891 -338 246 0
h 338 3891 0
h -246 3891 0
h -3892 -337 245 0
h 337 3892 0
h -245 3892 0
h -3893 -336 244 0
h 336 3893 0
h -244 3893 0
h -3894 -335 243 0
h 335 3894 0
h -243 3894 0
h -3895 -334 242 0
h 334 3895 0
h -242 3895 0
h 3896 -250 -3888 -3889 -3890 -3891 -3892 -3893 -3894 -3895 333 332 331 0
h 250 -3896 0
h 3888 -3896 0
h 3889 -3896 0
h 3890 -3896 0
h 3891 -3896 0
h 3892 -3896 0
h 3893 -3896 0
h 3894 -3896 0
h 3895 -3896 0
h -333 -3896 0
h -332 -3896 0
h -331 -3896 0
h -3897 -252 340 0
h 252 3897 0
h -340 3897 0
h -3898 -251 339 0
h 251 3898 0
h -339 3898 0
h -3899 -250 338 0
h 250 3899 0
h -338 3899 0
h -3900 -249 337 0
h 249 3900 0
h -337 3900 0
h -3901 -248 336 0
h 248 3901 0
h -336 3901 0
h -3902 -247 335 0
h 247 3902 0
h -335 3902 0
h -3903 -246 334 0
h 246 3903 0
h -334 3903 0
h -3904 -245 333 0
h 245 3904 0
h -333 3904 0
h -3905 -244 332 0
h 244 3905 0
h -332 3905 0
h -3906 -243 331 0
h 243 3906 0
h -331 3906 0
h 3907 -341 -3897 -3898 -3899 -3900 -3901 -3902 -3903 -3904 -3905 -3906 242 0
h 341 -3907 0
h 3897 -3907 0
h 3898 -3907 0
h 3899 -3907 0
h 3900 -3907 0
h 3901 -3907 0
h 3902 -3907 0
h 3903 -3907 0
h 3904 -3907 0
h 3905 -3907 0
h 3906 -3907 0
h -242 -3907 0
h 3908 -1 150 0
h 1 -3908 0
h -150 -3908 0
h 3909 -150 1 0
h 150 -3909 0
h -1 -3909 0
h 3910 -2 151 0
h 2 -3910 0
h -151 -3910 0
h 3911 -151 2 0
h 151 -3911 0
h -2 -3911 0
h 3912 -3 152 0
h 3 -3912 0
h -152 -3912 0
h 3913 -152 3 0
h 152 -3913 0
h -3 -3913 0
h 3914 -4 153 0
h 4 -3914 0
h -153 -3914 0
h 3915 -153 4 0
h 153 -3915 0
h -4 -3915 0
h -3916 -326 249 0
h 326 3916 0
h -249 3916 0
h -3917 -325 248 0
h 325 3917 0
h -248 3917 0
h -3918 -324 247 0
h 324 3918 0
h -247 3918 0
h -3919 -323 246 0
h 323 3919 0
h -246 3919 0
h -3920 -322 245 0
h 322 3920 0
h -245 3920 0
h -3921 -321 244 0
h 321 3921 0
h -244 3921 0
h -3922 -320 243 0
h 320 3922 0
h -243 3922 0
h -3923 -319 242 0
h 319 3923 0
h -242 3923 0
h 3924 -250 -3916 -3917 -3918 -3919 -3920 -3921 -3922 -3923 318 317 316 0
h 250 -3924 0
h 3916 -3924 0
h 3917 -3924 0
h 3918 -3924 0
h 3919 -3924 0
h 3920 -3924 0
h 3921 -3924 0
h 3922 -3924 0
h 3923 -3924 0
h -318 -3924 0
h -317 -3924 0
h -316 -3924 0
h -3925 -252 325 0
h 252 3925 0
h -325 3925 0
h -3926 -251 324 0
h 251 3926 0
h -324 3926 0
h -3927 -250 323 0
h 250 3927 0
h -323 3927 0
h -3928 -249 322 0
h 249 3928 0
h -322 3928 0
h -3929 -248 321 0
h 248 3929 0
h -321 3929 0
h -3930 -247 320 0
h 247 3930 0
h -320 3930 0
h -3931 -246 319 0
h 246 3931 0
h -319 3931 0
h -3932 -245 318 0
h 245 3932 0
h -318 3932 0
h -3933 -244 317 0
h 244 3933 0
h -317 3933 0
h -3934 -243 316 0
h 243 3934 0
h -316 3934 0
h 3935 -326 -3925 -3926 -3927 -3928 -3929 -3930 -3931 -3932 -3933 -3934 242 0
h 326 -3935 0
h 3925 -3935 0
h 3926 -3935 0
h 3927 -3935 0
h 3928 -3935 0
h 3929 -3935 0
h 3930 -3935 0
h 3931 -3935 0
h 3932 -3935 0
h 3933 -3935 0
h 3934 -3935 0
h -242 -3935 0
h 3936 -1 142 0
h 1 -3936 0
h -142 -3936 0
h 3937 -142 1 0
h 142 -3937 0
h -1 -3937 0
h 3938 -2 143 0
h 2 -3938 0
h -143 -3938 0
h 3939 -143 2 0
h 143 -3939 0
h -2 -3939 0
h 3940 -3 144 0
h 3 -3940 0
h -144 -3940 0
h 3941 -144 3 0
h 144 -3941 0
h -3 -3941 0
h 3942 -4 145 0
h 4 -3942 0
h -145 -3942 0
h 3943 -145 4 0
h 145 -3943 0
h -4 -3943 0
h -3944 -315 249 0
h 315 3944 0
h -249 3944 0
h -3945 -314 248 0
h 314 3945 0
h -248 3945 0
h -3946 -313 247 0
h 313 3946 0
h -247 3946 0
h -3947 -312 246 0
h 312 3947 0
h -246 3947 0
h -3948 -311 245 0
h 311 3948 0
h -245 3948 0
h -3949 -310 244 0
h 310 3949 0
h -244 3949 0
h -3950 -309 243 0
h 309 3950 0
h -243 3950 0
h -3951 -308 242 0
h 308 3951 0
h -242 3951 0
h 3952 -250 -3944 -3945 -3946 -3947 -3948 -3949 -3950 -3951 307 306 305 0
h 250 -3952 0
h 3944 -3952 0
h 3945 -3952 0
h 3946 -3952 0
h 3947 -3952 0
h 3948 -3952 0
h 3949 -3952 0
h 3950 -3952 0
h 3951 -3952 0
h -307 -3952 0
h -306 -3952 0
h -305 -3952 0
h -3953 -252 314 0
h 252 3953 0
h -314 3953 0
h -3954 -251 313 0
h 251 3954 0
h -313 3954 0
h -3955 -250 312 0
h 250 3955 0
h -312 3955 0
h -3956 -249 311 0
h 249 3956 0
h -311 3956 0
h -3957 -248 310 0
h 248 3957 0
h -310 3957 0
h -3958 -247 309 0
h 247 3958 0
h -309 3958 0
h -3959 -246 308 0
h 246 3959 0
h -308 3959 0
h -3960 -245 307 0
h 245 3960 0
h -307 3960 0
h -3961 -244 306 0
h 244 3961 0
h -306 3961 0
h -3962 -243 305 0
h 243 3962 0
h -305 3962 0
h 3963 -315 -3953 -3954 -3955 -3956 -3957 -3958 -3959 -3960 -3961 -3962 242 0
h 315 -3963 0
h 3953 -3963 0
h 3954 -3963 0
h 3955 -3963 0
h 3956 -3963 0
h 3957 -3963 0
h 3958 -3963 0
h 3959 -3963 0
h 3960 -3963 0
h 3961 -3963 0
h 3962 -3963 0
h -242 -3963 0
h 3964 -1 146 0
h 1 -3964 0
h -146 -3964 0
h 3965 -146 1 0
h 146 -3965 0
h -1 -3965 0
h 3966 -2 147 0
h 2 -3966 0
h -147 -3966 0
h 3967 -147 2 0
h 147 -3967 0
h -2 -3967 0
h 3968 -3 148 0
h 3 -3968 0
h -148 -3968 0
h 3969 -148 3 0
h 148 -3969 0
h -3 -3969 0
h 3970 -4 149 0
h 4 -3970 0
h -149 -3970 0
h 3971 -149 4 0
h 149 -3971 0
h -4 -3971 0
h -3972 -341 234 0
h 341 3972 0
h -234 3972 0
h -3973 -340 233 0
h 340 3973 0
h -233 3973 0
h -3974 -339 232 0
h 339 3974 0
h -232 3974 0
h -3975 -338 231 0
h 338 3975 0
h -231 3975 0
h -3976 -337 230 0
h 337 3976 0
h -230 3976 0
h -3977 -336 229 0
h 336 3977 0
h -229 3977 0
h -3978 -335 228 0
h 335 3978 0
h -228 3978 0
h -3979 -334 227 0
h 334 3979 0
h -227 3979 0
h 3980 -235 -3972 -3973 -3974 -3975 -3976 -3977 -3978 -3979 333 332 331 0
h 235 -3980 0
h 3972 -3980 0
h 3973 -3980 0
h 3974 -3980 0
h 3975 -3980 0
h 3976 -3980 0
h 3977 -3980 0
h 3978 -3980 0
h 3979 -3980 0
h -333 -3980 0
h -332 -3980 0
h -331 -3980 0
h -3981 -237 340 0
h 237 3981 0
h -340 3981 0
h -3982 -236 339 0
h 236 3982 0
h -339 3982 0
h -3983 -235 338 0
h 235 3983 0
h -338 3983 0
h -3984 -234 337 0
h 234 3984 0
h -337 3984 0
h -3985 -233 336 0
h 233 3985 0
h -336 3985 0
h -3986 -232 335 0
h 232 3986 0
h -335 3986 0
h -3987 -231 334 0
h 231 3987 0
h -334 3987 0
h -3988 -230 333 0
h 230 3988 0
h -333 3988 0
h -3989 -229 332 0
h 229 3989 0
h -332 3989 0
h -3990 -228 331 0
h 228 3990 0
h -331 3990 0
h 3991 -341 -3981 -3982 -3983 -3984 -3985 -3986 -3987 -3988 -3989 -3990 227 0
h 341 -3991 0
h 3981 -3991 0
h 3982 -3991 0
h 3983 -3991 0
h 3984 -3991 0
h 3985 -3991 0
h 3986 -3991 0
h 3987 -3991 0
h 3988 -3991 0
h 3989 -3991 0
h 3990 -3991 0
h -227 -3991 0
h 3992 -357 150 0
h 357 -3992 0
h -150 -3992 0
h 3993 -150 357 0
h 150 -3993 0
h -357 -3993 0
h 3994 -358 151 0
h 358 -3994 0
h -151 -3994 0
h 3995 -151 358 0
h 151 -3995 0
h -358 -3995 0
h 3996 -359 152 0
h 359 -3996 0
h -152 -3996 0
h 3997 -152 359 0
h 152 -3997 0
h -359 -3997 0
h 3998 -360 153 0
h 360 -3998 0
h -153 -3998 0
h 3999 -153 360 0
h 153 -3999 0
h -360 -3999 0
h -4000 -326 234 0
h 326 4000 0
h -234 4000 0
h -4001 -325 233 0
h 325 4001 0
h -233 4001 0
h -4002 -324 232 0
h 324 4002 0
h -232 4002 0
h -4003 -323 231 0
h 323 4003 0
h -231 4003 0
h -4004 -322 230 0
h 322 4004 0
h -230 4004 0
h -4005 -321 229 0
h 321 4005 0
h -229 4005 0
h -4006 -320 228 0
h 320 4006 0
h -228 4006 0
h -4007 -319 227 0
h 319 4007 0
h -227 4007 0
h 4008 -235 -4000 -4001 -4002 -4003 -4004 -4005 -4006 -4007 318 317 316 0
h 235 -4008 0
h 4000 -4008 0
h 4001 -4008 0
h 4002 -4008 0
h 4003 -4008 0
h 4004 -4008 0
h 4005 -4008 0
h 4006 -4008 0
h 4007 -4008 0
h -318 -4008 0
h -317 -4008 0
h -316 -4008 0
h -4009 -237 325 0
h 237 4009 0
h -325 4009 0
h -4010 -236 324 0
h 236 4010 0
h -324 4010 0
h -4011 -235 323 0
h 235 4011 0
h -323 4011 0
h -4012 -234 322 0
h 234 4012 0
h -322 4012 0
h -4013 -233 321 0
h 233 4013 0
h -321 4013 0
h -4014 -232 320 0
h 232 4014 0
h -320 4014 0
h -4015 -231 319 0
h 231 4015 0
h -319 4015 0
h -4016 -230 318 0
h 230 4016 0
h -318 4016 0
h -4017 -229 317 0
h 229 4017 0
h -317 4017 0
h -4018 -228 316 0
h 228 4018 0
h -316 4018 0
h 4019 -326 -4009 -4010 -4011 -4012 -4013 -4014 -4015 -4016 -4017 -4018 227 0
h 326 -4019 0
h 4009 -4019 0
h 4010 -4019 0
h 4011 -4019 0
h 4012 -4019 0
h 4013 -4019 0
h 4014 -4019 0
h 4015 -4019 0
h 4016 -4019 0
h 4017 -4019 0
h 4018 -4019 0
h -227 -4019 0
h 4020 -357 142 0
h 357 -4020 0
h -142 -4020 0
h 4021 -142 357 0
h 142 -4021 0
h -357 -4021 0
h 4022 -358 143 0
h 358 -4022 0
h -143 -4022 0
h 4023 -143 358 0
h 143 -4023 0
h -358 -4023 0
h 4024 -359 144 0
h 359 -4024 0
h -144 -4024 0
h 4025 -144 359 0
h 144 -4025 0
h -359 -4025 0
h 4026 -360 145 0
h 360 -4026 0
h -145 -4026 0
h 4027 -145 360 0
h 145 -4027 0
h -360 -4027 0
h -4028 -315 234 0
h 315 4028 0
h -234 4028 0
h -4029 -314 233 0
h 314 4029 0
h -233 4029 0
h -4030 -313 232 0
h 313 4030 0
h -232 4030 0
h -4031 -312 231 0
h 312 4031 0
h -231 4031 0
h -4032 -311 230 0
h 311 4032 0
h -230 4032 0
h -4033 -310 229 0
h 310 4033 0
h -229 4033 0
h -4034 -309 228 0
h 309 4034 0
h -228 4034 0
h -4035 -308 227 0
h 308 4035 0
h -227 4035 0
h 4036 -235 -4028 -4029 -4030 -4031 -4032 -4033 -4034 -4035 307 306 305 0
h 235 -4036 0
h 4028 -4036 0
h 4029 -4036 0
h 4030 -4036 0
h 4031 -4036 0
h 4032 -4036 0
h 4033 -4036 0
h 4034 -4036 0
h 4035 -4036 0
h -307 -4036 0
h -306 -4036 0
h -305 -4036 0
h -4037 -237 314 0
h 237 4037 0
h -314 4037 0
h -4038 -236 313 0
h 236 4038 0
h -313 4038 0
h -4039 -235 312 0
h 235 4039 0
h -312 4039 0
h -4040 -234 311 0
h 234 4040 0
h -311 4040 0
h -4041 -233 310 0
h 233 4041 0
h -310 4041 0
h -4042 -232 309 0
h 232 4042 0
h -309 4042 0
h -4043 -231 308 0
h 231 4043 0
h -308 4043 0
h -4044 -230 307 0
h 230 4044 0
h -307 4044 0
h -4045 -229 306 0
h 229 4045 0
h -306 4045 0
h -4046 -228 305 0
h 228 4046 0
h -305 4046 0
h 4047 -315 -4037 -4038 -4039 -4040 -4041 -4042 -4043 -4044 -4045 -4046 227 0
h 315 -4047 0
h 4037 -4047 0
h 4038 -4047 0
h 4039 -4047 0
h 4040 -4047 0
h 4041 -4047 0
h 4042 -4047 0
h 4043 -4047 0
h 4044 -4047 0
h 4045 -4047 0
h 4046 -4047 0
h -227 -4047 0
h 4048 -357 146 0
h 357 -4048 0
h -146 -4048 0
h 4049 -146 357 0
h 146 -4049 0
h -357 -4049 0
h 4050 -358 147 0
h 358 -4050 0
h -147 -4050 0
h 4051 -147 358 0
h 147 -4051 0
h -358 -4051 0
h 4052 -359 148 0
h 359 -4052 0
h -148 -4052 0
h 4053 -148 359 0
h 148 -4053 0
h -359 -4053 0
h 4054 -360 149 0
h 360 -4054 0
h -149 -4054 0
h 4055 -149 360 0
h 149 -4055 0
h -360 -4055 0
h -4056 -356 128 0
h 356 4056 0
h -128 4056 0
h -4057 -355 127 0
h 355 4057 0
h -127 4057 0
h -4058 -354 126 0
h 354 4058 0
h -126 4058 0
h -4059 -353 125 0
h 353 4059 0
h -125 4059 0
h -4060 -352 124 0
h 352 4060 0
h -124 4060 0
h -4061 -351 123 0
h 351 4061 0
h -123 4061 0
h -4062 -350 122 0
h 350 4062 0
h -122 4062 0
h -4063 -349 121 0
h 349 4063 0
h -121 4063 0
h -4064 -348 120 0
h 348 4064 0
h -120 4064 0
h 4065 -129 -4056 -4057 -4058 -4059 -4060 -4061 -4062 -4063 -4064 347 346 0
h 129 -4065 0
h 4056 -4065 0
h 4057 -4065 0
h 4058 -4065 0
h 4059 -4065 0
h 4060 -4065 0
h 4061 -4065 0
h 4062 -4065 0
h 4063 -4065 0
h 4064 -4065 0
h -347 -4065 0
h -346 -4065 0
h -4066 -130 354 0
h 130 4066 0
h -354 4066 0
h -4067 -129 353 0
h 129 4067 0
h -353 4067 0
h -4068 -128 352 0
h 128 4068 0
h -352 4068 0
h -4069 -127 351 0
h 127 4069 0
h -351 4069 0
h -4070 -126 350 0
h 126 4070 0
h -350 4070 0
h -4071 -125 349 0
h 125 4071 0
h -349 4071 0
h -4072 -124 348 0
h 124 4072 0
h -348 4072 0
h -4073 -123 347 0
h 123 4073 0
h -347 4073 0
h -4074 -122 346 0
h 122 4074 0
h -346 4074 0
h 4075 -355 -4066 -4067 -4068 -4069 -4070 -4071 -4072 -4073 -4074 121 120 0
h 355 -4075 0
h 4066 -4075 0
h 4067 -4075 0
h 4068 -4075 0
h 4069 -4075 0
h 4070 -4075 0
h 4071 -4075 0
h 4072 -4075 0
h 4073 -4075 0
h 4074 -4075 0
h -121 -4075 0
h -120 -4075 0
h 4076 -219 154 0
h 219 -4076 0
h -154 -4076 0
h 4077 -154 219 0
h 154 -4077 0
h -219 -4077 0
h 4078 -220 155 0
h 220 -4078 0
h -155 -4078 0
h 4079 -155 220 0
h 155 -4079 0
h -220 -4079 0
h 4080 -221 156 0
h 221 -4080 0
h -156 -4080 0
h 4081 -156 221 0
h 156 -4081 0
h -221 -4081 0
h 4082 -222 157 0
h 222 -4082 0
h -157 -4082 0
h 4083 -157 222 0
h 157 -4083 0
h -222 -4083 0
h -4084 -356 106 0
h 356 4084 0
h -106 4084 0
h -4085 -355 105 0
h 355 4085 0
h -105 4085 0
h -4086 -354 104 0
h 354 4086 0
h -104 4086 0
h -4087 -353 103 0
h 353 4087 0
h -103 4087 0
h -4088 -352 102 0
h 352 4088 0
h -102 4088 0
h -4089 -351 101 0
h 351 4089 0
h -101 4089 0
h -4090 -350 100 0
h 350 4090 0
h -100 4090 0
h -4091 -349 99 0
h 349 4091 0
h -99 4091 0
h -4092 -348 98 0
h 348 4092 0
h -98 4092 0
h 4093 -107 -4084 -4085 -4086 -4087 -4088 -4089 -4090 -4091 -4092 347 346 0
h 107 -4093 0
h 4084 -4093 0
h 4085 -4093 0
h 4086 -4093 0
h 4087 -4093 0
h 4088 -4093 0
h 4089 -4093 0
h 4090 -4093 0
h 4091 -4093 0
h 4092 -4093 0
h -347 -4093 0
h -346 -4093 0
h -4094 -108 354 0
h 108 4094 0
h -354 4094 0
h -4095 -107 353 0
h 107 4095 0
h -353 4095 0
h -4096 -106 352 0
h 106 4096 0
h -352 4096 0
h -4097 -105 351 0
h 105 4097 0
h -351 4097 0
h -4098 -104 350 0
h 104 4098 0
h -350 4098 0
h -4099 -103 349 0
h 103 4099 0
h -349 4099 0
h -4100 -102 348 0
h 102 4100 0
h -348 4100 0
h -4101 -101 347 0
h 101 4101 0
h -347 4101 0
h -4102 -100 346 0
h 100 4102 0
h -346 4102 0
h 4103 -355 -4094 -4095 -4096 -4097 -4098 -4099 -4100 -4101 -4102 99 98 0
h 355 -4103 0
h 4094 -4103 0
h 4095 -4103 0
h 4096 -4103 0
h 4097 -4103 0
h 4098 -4103 0
h 4099 -4103 0
h 4100 -4103 0
h 4101 -4103 0
h 4102 -4103 0
h -99 -4103 0
h -98 -4103 0
h 4104 -204 154 0
h 204 -4104 0
h -154 -4104 0
h 4105 -154 204 0
h 154 -4105 0
h -204 -4105 0
h 4106 -205 155 0
h 205 -4106 0
h -155 -4106 0
h 4107 -155 205 0
h 155 -4107 0
h -205 -4107 0
h 4108 -206 156 0
h 206 -4108 0
h -156 -4108 0
h 4109 -156 206 0
h 156 -4109 0
h -206 -4109 0
h 4110 -207 157 0
h 207 -4110 0
h -157 -4110 0
h 4111 -157 207 0
h 157 -4111 0
h -207 -4111 0
h -4112 -341 128 0
h 341 4112 0
h -128 4112 0
h -4113 -340 127 0
h 340 4113 0
h -127 4113 0
h -4114 -339 126 0
h 339 4114 0
h -126 4114 0
h -4115 -338 125 0
h 338 4115 0
h -125 4115 0
h -4116 -337 124 0
h 337 4116 0
h -124 4116 0
h -4117 -336 123 0
h 336 4117 0
h -123 4117 0
h -4118 -335 122 0
h 335 4118 0
h -122 4118 0
h -4119 -334 121 0
h 334 4119 0
h -121 4119 0
h -4120 -333 120 0
h 333 4120 0
h -120 4120 0
h 4121 -129 -4112 -4113 -4114 -4115 -4116 -4117 -4118 -4119 -4120 332 331 0
h 129 -4121 0
h 4112 -4121 0
h 4113 -4121 0
h 4114 -4121 0
h 4115 -4121 0
h 4116 -4121 0
h 4117 -4121 0
h 4118 -4121 0
h 4119 -4121 0
h 4120 -4121 0
h -332 -4121 0
h -331 -4121 0
h -4122 -130 340 0
h 130 4122 0
h -340 4122 0
h -4123 -129 339 0
h 129 4123 0
h -339 4123 0
h -4124 -128 338 0
h 128 4124 0
h -338 4124 0
h -4125 -127 337 0
h 127 4125 0
h -337 4125 0
h -4126 -126 336 0
h 126 4126 0
h -336 4126 0
h -4127 -125 335 0
h 125 4127 0
h -335 4127 0
h -4128 -124 334 0
h 124 4128 0
h -334 4128 0
h -4129 -123 333 0
h 123 4129 0
h -333 4129 0
h -4130 -122 332 0
h 122 4130 0
h -332 4130 0
h -4131 -121 331 0
h 121 4131 0
h -331 4131 0
h 4132 -341 -4122 -4123 -4124 -4125 -4126 -4127 -4128 -4129 -4130 -4131 120 0
h 341 -4132 0
h 4122 -4132 0
h 4123 -4132 0
h 4124 -4132 0
h 4125 -4132 0
h 4126 -4132 0
h 4127 -4132 0
h 4128 -4132 0
h 4129 -4132 0
h 4130 -4132 0
h 4131 -4132 0
h -120 -4132 0
h 4133 -219 150 0
h 219 -4133 0
h -150 -4133 0
h 4134 -150 219 0
h 150 -4134 0
h -219 -4134 0
h 4135 -220 151 0
h 220 -4135 0
h -151 -4135 0
h 4136 -151 220 0
h 151 -4136 0
h -220 -4136 0
h 4137 -221 152 0
h 221 -4137 0
h -152 -4137 0
h 4138 -152 221 0
h 152 -4138 0
h -221 -4138 0
h 4139 -222 153 0
h 222 -4139 0
h -153 -4139 0
h 4140 -153 222 0
h 153 -4140 0
h -222 -4140 0
h -4141 -326 128 0
h 326 4141 0
h -128 4141 0
h -4142 -325 127 0
h 325 4142 0
h -127 4142 0
h -4143 -324 126 0
h 324 4143 0
h -126 4143 0
h -4144 -323 125 0
h 323 4144 0
h -125 4144 0
h -4145 -322 124 0
h 322 4145 0
h -124 4145 0
h -4146 -321 123 0
h 321 4146 0
h -123 4146 0
h -4147 -320 122 0
h 320 4147 0
h -122 4147 0
h -4148 -319 121 0
h 319 4148 0
h -121 4148 0
h -4149 -318 120 0
h 318 4149 0
h -120 4149 0
h 4150 -129 -4141 -4142 -4143 -4144 -4145 -4146 -4147 -4148 -4149 317 316 0
h 129 -4150 0
h 4141 -4150 0
h 4142 -4150 0
h 4143 -4150 0
h 4144 -4150 0
h 4145 -4150 0
h 4146 -4150 0
h 4147 -4150 0
h 4148 -4150 0
h 4149 -4150 0
h -317 -4150 0
h -316 -4150 0
h -4151 -130 325 0
h 130 4151 0
h -325 4151 0
h -4152 -129 324 0
h 129 4152 0
h -324 4152 0
h -4153 -128 323 0
h 128 4153 0
h -323 4153 0
h -4154 -127 322 0
h 127 4154 0
h -322 4154 0
h -4155 -126 321 0
h 126 4155 0
h -321 4155 0
h -4156 -125 320 0
h 125 4156 0
h -320 4156 0
h -4157 -124 319 0
h 124 4157 0
h -319 4157 0
h -4158 -123 318 0
h 123 4158 0
h -318 4158 0
h -4159 -122 317 0
h 122 4159 0
h -317 4159 0
h -4160 -121 316 0
h 121 4160 0
h -316 4160 0
h 4161 -326 -4151 -4152 -4153 -4154 -4155 -4156 -4157 -4158 -4159 -4160 120 0
h 326 -4161 0
h 4151 -4161 0
h 4152 -4161 0
h 4153 -4161 0
h 4154 -4161 0
h 4155 -4161 0
h 4156 -4161 0
h 4157 -4161 0
h 4158 -4161 0
h 4159 -4161 0
h 4160 -4161 0
h -120 -4161 0
h 4162 -219 142 0
h 219 -4162 0
h -142 -4162 0
h 4163 -142 219 0
h 142 -4163 0
h -219 -4163 0
h 4164 -220 143 0
h 220 -4164 0
h -143 -4164 0
h 4165 -143 220 0
h 143 -4165 0
h -220 -4165 0
h 4166 -221 144 0
h 221 -4166 0
h -144 -4166 0
h 4167 -144 221 0
h 144 -4167 0
h -221 -4167 0
h 4168 -222 145 0
h 222 -4168 0
h -145 -4168 0
h 4169 -145 222 0
h 145 -4169 0
h -222 -4169 0
h -4170 -315 128 0
h 315 4170 0
h -128 4170 0
h -4171 -314 127 0
h 314 4171 0
h -127 4171 0
h -4172 -313 126 0
h 313 4172 0
h -126 4172 0
h -4173 -312 125 0
h 312 4173 0
h -125 4173 0
h -4174 -311 124 0
h 311 4174 0
h -124 4174 0
h -4175 -310 123 0
h 310 4175 0
h -123 4175 0
h -4176 -309 122 0
h 309 4176 0
h -122 4176 0
h -4177 -308 121 0
h 308 4177 0
h -121 4177 0
h -4178 -307 120 0
h 307 4178 0
h -120 4178 0
h 4179 -129 -4170 -4171 -4172 -4173 -4174 -4175 -4176 -4177 -4178 306 305 0
h 129 -4179 0
h 4170 -4179 0
h 4171 -4179 0
h 4172 -4179 0
h 4173 -4179 0
h 4174 -4179 0
h 4175 -4179 0
h 4176 -4179 0
h 4177 -4179 0
h 4178 -4179 0
h -306 -4179 0
h -305 -4179 0
h -4180 -130 314 0
h 130 4180 0
h -314 4180 0
h -4181 -129 313 0
h 129 4181 0
h -313 4181 0
h -4182 -128 312 0
h 128 4182 0
h -312 4182 0
h -4183 -127 311 0
h 127 4183 0
h -311 4183 0
h -4184 -126 310 0
h 126 4184 0
h -310 4184 0
h -4185 -125 309 0
h 125 4185 0
h -309 4185 0
h -4186 -124 308 0
h 124 4186 0
h -308 4186 0
h -4187 -123 307 0
h 123 4187 0
h -307 4187 0
h -4188 -122 306 0
h 122 4188 0
h -306 4188 0
h -4189 -121 305 0
h 121 4189 0
h -305 4189 0
h 4190 -315 -4180 -4181 -4182 -4183 -4184 -4185 -4186 -4187 -4188 -4189 120 0
h 315 -4190 0
h 4180 -4190 0
h 4181 -4190 0
h 4182 -4190 0
h 4183 -4190 0
h 4184 -4190 0
h 4185 -4190 0
h 4186 -4190 0
h 4187 -4190 0
h 4188 -4190 0
h 4189 -4190 0
h -120 -4190 0
h 4191 -219 146 0
h 219 -4191 0
h -146 -4191 0
h 4192 -146 219 0
h 146 -4192 0
h -219 -4192 0
h 4193 -220 147 0
h 220 -4193 0
h -147 -4193 0
h 4194 -147 220 0
h 147 -4194 0
h -220 -4194 0
h 4195 -221 148 0
h 221 -4195 0
h -148 -4195 0
h 4196 -148 221 0
h 148 -4196 0
h -221 -4196 0
h 4197 -222 149 0
h 222 -4197 0
h -149 -4197 0
h 4198 -149 222 0
h 149 -4198 0
h -222 -4198 0
h -4199 -341 106 0
h 341 4199 0
h -106 4199 0
h -4200 -340 105 0
h 340 4200 0
h -105 4200 0
h -4201 -339 104 0
h 339 4201 0
h -104 4201 0
h -4202 -338 103 0
h 338 4202 0
h -103 4202 0
h -4203 -337 102 0
h 337 4203 0
h -102 4203 0
h -4204 -336 101 0
h 336 4204 0
h -101 4204 0
h -4205 -335 100 0
h 335 4205 0
h -100 4205 0
h -4206 -334 99 0
h 334 4206 0
h -99 4206 0
h -4207 -333 98 0
h 333 4207 0
h -98 4207 0
h 4208 -107 -4199 -4200 -4201 -4202 -4203 -4204 -4205 -4206 -4207 332 331 0
h 107 -4208 0
h 4199 -4208 0
h 4200 -4208 0
h 4201 -4208 0
h 4202 -4208 0
h 4203 -4208 0
h 4204 -4208 0
h 4205 -4208 0
h 4206 -4208 0
h 4207 -4208 0
h -332 -4208 0
h -331 -4208 0
h -4209 -108 340 0
h 108 4209 0
h -340 4209 0
h -4210 -107 339 0
h 107 4210 0
h -339 4210 0
h -4211 -106 338 0
h 106 4211 0
h -338 4211 0
h -4212 -105 337 0
h 105 4212 0
h -337 4212 0
h -4213 -104 336 0
h 104 4213 0
h -336 4213 0
h -4214 -103 335 0
h 103 4214 0
h -335 4214 0
h -4215 -102 334 0
h 102 4215 0
h -334 4215 0
h -4216 -101 333 0
h 101 4216 0
h -333 4216 0
h -4217 -100 332 0
h 100 4217 0
h -332 4217 0
h -4218 -99 331 0
h 99 4218 0
h -331 4218 0
h 4219 -341 -4209 -4210 -4211 -4212 -4213 -4214 -4215 -4216 -4217 -4218 98 0
h 341 -4219 0
h 4209 -4219 0
h 4210 -4219 0
h 4211 -4219 0
h 4212 -4219 0
h 4213 -4219 0
h 4214 -4219 0
h 4215 -4219 0
h 4216 -4219 0
h 4217 -4219 0
h 4218 -4219 0
h -98 -4219 0
h 4220 -204 150 0
h 204 -4220 0
h -150 -4220 0
h 4221 -150 204 0
h 150 -4221 0
h -204 -4221 0
h 4222 -205 151 0
h 205 -4222 0
h -151 -4222 0
h 4223 -151 205 0
h 151 -4223 0
h -205 -4223 0
h 4224 -206 152 0
h 206 -4224 0
h -152 -4224 0
h 4225 -152 206 0
h 152 -4225 0
h -206 -4225 0
h 4226 -207 153 0
h 207 -4226 0
h -153 -4226 0
h 4227 -153 207 0
h 153 -4227 0
h -207 -4227 0
h -4228 -326 106 0
h 326 4228 0
h -106 4228 0
h -4229 -325 105 0
h 325 4229 0
h -105 4229 0
h -4230 -324 104 0
h 324 4230 0
h -104 4230 0
h -4231 -323 103 0
h 323 4231 0
h -103 4231 0
h -4232 -322 102 0
h 322 4232 0
h -102 4232 0
h -4233 -321 101 0
h 321 4233 0
h -101 4233 0
h -4234 -320 100 0
h 320 4234 0
h -100 4234 0
h -4235 -319 99 0
h 319 4235 0
h -99 4235 0
h -4236 -318 98 0
h 318 4236 0
h -98 4236 0
h 4237 -107 -4228 -4229 -4230 -4231 -4232 -4233 -4234 -4235 -4236 317 316 0
h 107 -4237 0
h 4228 -4237 0
h 4229 -4237 0
h 4230 -4237 0
h 4231 -4237 0
h 4232 -4237 0
h 4233 -4237 0
h 4234 -4237 0
h 4235 -4237 0
h 4236 -4237 0
h -317 -4237 0
h -316 -4237 0
h -4238 -108 325 0
h 108 4238 0
h -325 4238 0
h -4239 -107 324 0
h 107 4239 0
h -324 4239 0
h -4240 -106 323 0
h 106 4240 0
h -323 4240 0
h -4241 -105 322 0
h 105 4241 0
h -322 4241 0
h -4242 -104 321 0
h 104 4242 0
h -321 4242 0
h -4243 -103 320 0
h 103 4243 0
h -320 4243 0
h -4244 -102 319 0
h 102 4244 0
h -319 4244 0
h -4245 -101 318 0
h 101 4245 0
h -318 4245 0
h -4246 -100 317 0
h 100 4246 0
h -317 4246 0
h -4247 -99 316 0
h 99 4247 0
h -316 4247 0
h 4248 -326 -4238 -4239 -4240 -4241 -4242 -4243 -4244 -4245 -4246 -4247 98 0
h 326 -4248 0
h 4238 -4248 0
h 4239 -4248 0
h 4240 -4248 0
h 4241 -4248 0
h 4242 -4248 0
h 4243 -4248 0
h 4244 -4248 0
h 4245 -4248 0
h 4246 -4248 0
h 4247 -4248 0
h -98 -4248 0
h 4249 -204 142 0
h 204 -4249 0
h -142 -4249 0
h 4250 -142 204 0
h 142 -4250 0
h -204 -4250 0
h 4251 -205 143 0
h 205 -4251 0
h -143 -4251 0
h 4252 -143 205 0
h 143 -4252 0
h -205 -4252 0
h 4253 -206 144 0
h 206 -4253 0
h -144 -4253 0
h 4254 -144 206 0
h 144 -4254 0
h -206 -4254 0
h 4255 -207 145 0
h 207 -4255 0
h -145 -4255 0
h 4256 -145 207 0
h 145 -4256 0
h -207 -4256 0
h -4257 -315 106 0
h 315 4257 0
h -106 4257 0
h -4258 -314 105 0
h 314 4258 0
h -105 4258 0
h -4259 -313 104 0
h 313 4259 0
h -104 4259 0
h -4260 -312 103 0
h 312 4260 0
h -103 4260 0
h -4261 -311 102 0
h 311 4261 0
h -102 4261 0
h -4262 -310 101 0
h 310 4262 0
h -101 4262 0
h -4263 -309 100 0
h 309 4263 0
h -100 4263 0
h -4264 -308 99 0
h 308 4264 0
h -99 4264 0
h -4265 -307 98 0
h 307 4265 0
h -98 4265 0
h 4266 -107 -4257 -4258 -4259 -4260 -4261 -4262 -4263 -4264 -4265 306 305 0
h 107 -4266 0
h 4257 -4266 0
h 4258 -4266 0
h 4259 -4266 0
h 4260 -4266 0
h 4261 -4266 0
h 4262 -4266 0
h 4263 -4266 0
h 4264 -4266 0
h 4265 -4266 0
h -306 -4266 0
h -305 -4266 0
h -4267 -108 314 0
h 108 4267 0
h -314 4267 0
h -4268 -107 313 0
h 107 4268 0
h -313 4268 0
h -4269 -106 312 0
h 106 4269 0
h -312 4269 0
h -4270 -105 311 0
h 105 4270 0
h -311 4270 0
h -4271 -104 310 0
h 104 4271 0
h -310 4271 0
h -4272 -103 309 0
h 103 4272 0
h -309 4272 0
h -4273 -102 308 0
h 102 4273 0
h -308 4273 0
h -4274 -101 307 0
h 101 4274 0
h -307 4274 0
h -4275 -100 306 0
h 100 4275 0
h -306 4275 0
h -4276 -99 305 0
h 99 4276 0
h -305 4276 0
h 4277 -315 -4267 -4268 -4269 -4270 -4271 -4272 -4273 -4274 -4275 -4276 98 0
h 315 -4277 0
h 4267 -4277 0
h 4268 -4277 0
h 4269 -4277 0
h 4270 -4277 0
h 4271 -4277 0
h 4272 -4277 0
h 4273 -4277 0
h 4274 -4277 0
h 4275 -4277 0
h 4276 -4277 0
h -98 -4277 0
h 4278 -204 146 0
h 204 -4278 0
h -146 -4278 0
h 4279 -146 204 0
h 146 -4279 0
h -204 -4279 0
h 4280 -205 147 0
h 205 -4280 0
h -147 -4280 0
h 4281 -147 205 0
h 147 -4281 0
h -205 -4281 0
h 4282 -206 148 0
h 206 -4282 0
h -148 -4282 0
h 4283 -148 206 0
h 148 -4283 0
h -206 -4283 0
h 4284 -207 149 0
h 207 -4284 0
h -149 -4284 0
h 4285 -149 207 0
h 149 -4285 0
h -207 -4285 0
h -4286 -356 173 0
h 356 4286 0
h -173 4286 0
h -4287 -355 172 0
h 355 4287 0
h -172 4287 0
h -4288 -354 171 0
h 354 4288 0
h -171 4288 0
h -4289 -353 170 0
h 353 4289 0
h -170 4289 0
h -4290 -352 169 0
h 352 4290 0
h -169 4290 0
h -4291 -351 168 0
h 351 4291 0
h -168 4291 0
h -4292 -350 167 0
h 350 4292 0
h -167 4292 0
h -4293 -349 166 0
h 349 4293 0
h -166 4293 0
h 4294 -174 -4286 -4287 -4288 -4289 -4290 -4291 -4292 -4293 348 347 346 0
h 174 -4294 0
h 4286 -4294 0
h 4287 -4294 0
h 4288 -4294 0
h 4289 -4294 0
h 4290 -4294 0
h 4291 -4294 0
h 4292 -4294 0
h 4293 -4294 0
h -348 -4294 0
h -347 -4294 0
h -346 -4294 0
h -4295 -176 354 0
h 176 4295 0
h -354 4295 0
h -4296 -175 353 0
h 175 4296 0
h -353 4296 0
h -4297 -174 352 0
h 174 4297 0
h -352 4297 0
h -4298 -173 351 0
h 173 4298 0
h -351 4298 0
h -4299 -172 350 0
h 172 4299 0
h -350 4299 0
h -4300 -171 349 0
h 171 4300 0
h -349 4300 0
h -4301 -170 348 0
h 170 4301 0
h -348 4301 0
h -4302 -169 347 0
h 169 4302 0
h -347 4302 0
h -4303 -168 346 0
h 168 4303 0
h -346 4303 0
h 4304 -355 -4295 -4296 -4297 -4298 -4299 -4300 -4301 -4302 -4303 167 166 0
h 355 -4304 0
h 4295 -4304 0
h 4296 -4304 0
h 4297 -4304 0
h 4298 -4304 0
h 4299 -4304 0
h 4300 -4304 0
h 4301 -4304 0
h 4302 -4304 0
h 4303 -4304 0
h -167 -4304 0
h -166 -4304 0
h 4305 -301 154 0
h 301 -4305 0
h -154 -4305 0
h 4306 -154 301 0
h 154 -4306 0
h -301 -4306 0
h 4307 -302 155 0
h 302 -4307 0
h -155 -4307 0
h 4308 -155 302 0
h 155 -4308 0
h -302 -4308 0
h 4309 -303 156 0
h 303 -4309 0
h -156 -4309 0
h 4310 -156 303 0
h 156 -4310 0
h -303 -4310 0
h 4311 -304 157 0
h 304 -4311 0
h -157 -4311 0
h 4312 -157 304 0
h 157 -4312 0
h -304 -4312 0
h -4313 -356 266 0
h 356 4313 0
h -266 4313 0
h -4314 -355 265 0
h 355 4314 0
h -265 4314 0
h -4315 -354 264 0
h 354 4315 0
h -264 4315 0
h -4316 -353 263 0
h 353 4316 0
h -263 4316 0
h -4317 -352 262 0
h 352 4317 0
h -262 4317 0
h -4318 -351 261 0
h 351 4318 0
h -261 4318 0
h -4319 -350 260 0
h 350 4319 0
h -260 4319 0
h -4320 -349 259 0
h 349 4320 0
h -259 4320 0
h -4321 -348 258 0
h 348 4321 0
h -258 4321 0
h -4322 -347 257 0
h 347 4322 0
h -257 4322 0
h 4323 -267 -4313 -4314 -4315 -4316 -4317 -4318 -4319 -4320 -4321 -4322 346 0
h 267 -4323 0
h 4313 -4323 0
h 4314 -4323 0
h 4315 -4323 0
h 4316 -4323 0
h 4317 -4323 0
h 4318 -4323 0
h 4319 -4323 0
h 4320 -4323 0
h 4321 -4323 0
h 4322 -4323 0
h -346 -4323 0
h -4324 -267 354 0
h 267 4324 0
h -354 4324 0
h -4325 -266 353 0
h 266 4325 0
h -353 4325 0
h -4326 -265 352 0
h 265 4326 0
h -352 4326 0
h -4327 -264 351 0
h 264 4327 0
h -351 4327 0
h -4328 -263 350 0
h 263 4328 0
h -350 4328 0
h -4329 -262 349 0
h 262 4329 0
h -349 4329 0
h -4330 -261 348 0
h 261 4330 0
h -348 4330 0
h -4331 -260 347 0
h 260 4331 0
h -347 4331 0
h -4332 -259 346 0
h 259 4332 0
h -346 4332 0
h 4333 -355 -4324 -4325 -4326 -4327 -4328 -4329 -4330 -4331 -4332 258 257 0
h 355 -4333 0
h 4324 -4333 0
h 4325 -4333 0
h 4326 -4333 0
h 4327 -4333 0
h 4328 -4333 0
h 4329 -4333 0
h 4330 -4333 0
h 4331 -4333 0
h 4332 -4333 0
h -258 -4333 0
h -257 -4333 0
h 4334 -16 154 0
h 16 -4334 0
h -154 -4334 0
h 4335 -154 16 0
h 154 -4335 0
h -16 -4335 0
h 4336 -17 155 0
h 17 -4336 0
h -155 -4336 0
h 4337 -155 17 0
h 155 -4337 0
h -17 -4337 0
h 4338 -18 156 0
h 18 -4338 0
h -156 -4338 0
h 4339 -156 18 0
h 156 -4339 0
h -18 -4339 0
h 4340 -19 157 0
h 19 -4340 0
h -157 -4340 0
h 4341 -157 19 0
h 157 -4341 0
h -19 -4341 0
h -4342 -341 173 0
h 341 4342 0
h -173 4342 0
h -4343 -340 172 0
h 340 4343 0
h -172 4343 0
h -4344 -339 171 0
h 339 4344 0
h -171 4344 0
h -4345 -338 170 0
h 338 4345 0
h -170 4345 0
h -4346 -337 169 0
h 337 4346 0
h -169 4346 0
h -4347 -336 168 0
h 336 4347 0
h -168 4347 0
h -4348 -335 167 0
h 335 4348 0
h -167 4348 0
h -4349 -334 166 0
h 334 4349 0
h -166 4349 0
h 4350 -174 -4342 -4343 -4344 -4345 -4346 -4347 -4348 -4349 333 332 331 0
h 174 -4350 0
h 4342 -4350 0
h 4343 -4350 0
h 4344 -4350 0
h 4345 -4350 0
h 4346 -4350 0
h 4347 -4350 0
h 4348 -4350 0
h 4349 -4350 0
h -333 -4350 0
h -332 -4350 0
h -331 -4350 0
h -4351 -176 340 0
h 176 4351 0
h -340 4351 0
h -4352 -175 339 0
h 175 4352 0
h -339 4352 0
h -4353 -174 338 0
h 174 4353 0
h -338 4353 0
h -4354 -173 337 0
h 173 4354 0
h -337 4354 0
h -4355 -172 336 0
h 172 4355 0
h -336 4355 0
h -4356 -171 335 0
h 171 4356 0
h -335 4356 0
h -4357 -170 334 0
h 170 4357 0
h -334 4357 0
h -4358 -169 333 0
h 169 4358 0
h -333 4358 0
h -4359 -168 332 0
h 168 4359 0
h -332 4359 0
h -4360 -167 331 0
h 167 4360 0
h -331 4360 0
h 4361 -341 -4351 -4352 -4353 -4354 -4355 -4356 -4357 -4358 -4359 -4360 166 0
h 341 -4361 0
h 4351 -4361 0
h 4352 -4361 0
h 4353 -4361 0
h 4354 -4361 0
h 4355 -4361 0
h 4356 -4361 0
h 4357 -4361 0
h 4358 -4361 0
h 4359 -4361 0
h 4360 -4361 0
h -166 -4361 0
h 4362 -301 150 0
h 301 -4362 0
h -150 -4362 0
h 4363 -150 301 0
h 150 -4363 0
h -301 -4363 0
h 4364 -302 151 0
h 302 -4364 0
h -151 -4364 0
h 4365 -151 302 0
h 151 -4365 0
h -302 -4365 0
h 4366 -303 152 0
h 303 -4366 0
h -152 -4366 0
h 4367 -152 303 0
h 152 -4367 0
h -303 -4367 0
h 4368 -304 153 0
h 304 -4368 0
h -153 -4368 0
h 4369 -153 304 0
h 153 -4369 0
h -304 -4369 0
h -4370 -326 173 0
h 326 4370 0
h -173 4370 0
h -4371 -325 172 0
h 325 4371 0
h -172 4371 0
h -4372 -324 171 0
h 324 4372 0
h -171 4372 0
h -4373 -323 170 0
h 323 4373 0
h -170 4373 0
h -4374 -322 169 0
h 322 4374 0
h -169 4374 0
h -4375 -321 168 0
h 321 4375 0
h -168 4375 0
h -4376 -320 167 0
h 320 4376 0
h -167 4376 0
h -4377 -319 166 0
h 319 4377 0
h -166 4377 0
h 4378 -174 -4370 -4371 -4372 -4373 -4374 -4375 -4376 -4377 318 317 316 0
h 174 -4378 0
h 4370 -4378 0
h 4371 -4378 0
h 4372 -4378 0
h 4373 -4378 0
h 4374 -4378 0
h 4375 -4378 0
h 4376 -4378 0
h 4377 -4378 0
h -318 -4378 0
h -317 -4378 0
h -316 -4378 0
h -4379 -176 325 0
h 176 4379 0
h -325 4379 0
h -4380 -175 324 0
h 175 4380 0
h -324 4380 0
h -4381 -174 323 0
h 174 4381 0
h -323 4381 0
h -4382 -173 322 0
h 173 4382 0
h -322 4382 0
h -4383 -172 321 0
h 172 4383 0
h -321 4383 0
h -4384 -171 320 0
h 171 4384 0
h -320 4384 0
h -4385 -170 319 0
h 170 4385 0
h -319 4385 0
h -4386 -169 318 0
h 169 4386 0
h -318 4386 0
h -4387 -168 317 0
h 168 4387 0
h -317 4387 0
h -4388 -167 316 0
h 167 4388 0
h -316 4388 0
h 4389 -326 -4379 -4380 -4381 -4382 -4383 -4384 -4385 -4386 -4387 -4388 166 0
h 326 -4389 0
h 4379 -4389 0
h 4380 -4389 0
h 4381 -4389 0
h 4382 -4389 0
h 4383 -4389 0
h 4384 -4389 0
h 4385 -4389 0
h 4386 -4389 0
h 4387 -4389 0
h 4388 -4389 0
h -166 -4389 0
h 4390 -301 142 0
h 301 -4390 0
h -142 -4390 0
h 4391 -142 301 0
h 142 -4391 0
h -301 -4391 0
h 4392 -302 143 0
h 302 -4392 0
h -143 -4392 0
h 4393 -143 302 0
h 143 -4393 0
h -302 -4393 0
h 4394 -303 144 0
h 303 -4394 0
h -144 -4394 0
h 4395 -144 303 0
h 144 -4395 0
h -303 -4395 0
h 4396 -304 145 0
h 304 -4396 0
h -145 -4396 0
h 4397 -145 304 0
h 145 -4397 0
h -304 -4397 0
h -4398 -315 173 0
h 315 4398 0
h -173 4398 0
h -4399 -314 172 0
h 314 4399 0
h -172 4399 0
h -4400 -313 171 0
h 313 4400 0
h -171 4400 0
h -4401 -312 170 0
h 312 4401 0
h -170 4401 0
h -4402 -311 169 0
h 311 4402 0
h -169 4402 0
h -4403 -310 168 0
h 310 4403 0
h -168 4403 0
h -4404 -309 167 0
h 309 4404 0
h -167 4404 0
h -4405 -308 166 0
h 308 4405 0
h -166 4405 0
h 4406 -174 -4398 -4399 -4400 -4401 -4402 -4403 -4404 -4405 307 306 305 0
h 174 -4406 0
h 4398 -4406 0
h 4399 -4406 0
h 4400 -4406 0
h 4401 -4406 0
h 4402 -4406 0
h 4403 -4406 0
h 4404 -4406 0
h 4405 -4406 0
h -307 -4406 0
h -306 -4406 0
h -305 -4406 0
h -4407 -176 314 0
h 176 4407 0
h -314 4407 0
h -4408 -175 313 0
h 175 4408 0
h -313 4408 0
h -4409 -174 312 0
h 174 4409 0
h -312 4409 0
h -4410 -173 311 0
h 173 4410 0
h -311 4410 0
h -4411 -172 310 0
h 172 4411 0
h -310 4411 0
h -4412 -171 309 0
h 171 4412 0
h -309 4412 0
h -4413 -170 308 0
h 170 4413 0
h -308 4413 0
h -4414 -169 307 0
h 169 4414 0
h -307 4414 0
h -4415 -168 306 0
h 168 4415 0
h -306 4415 0
h -4416 -167 305 0
h 167 4416 0
h -305 4416 0
h 4417 -315 -4407 -4408 -4409 -4410 -4411 -4412 -4413 -4414 -4415 -4416 166 0
h 315 -4417 0
h 4407 -4417 0
h 4408 -4417 0
h 4409 -4417 0
h 4410 -4417 0
h 4411 -4417 0
h 4412 -4417 0
h 4413 -4417 0
h 4414 -4417 0
h 4415 -4417 0
h 4416 -4417 0
h -166 -4417 0
h 4418 -301 146 0
h 301 -4418 0
h -146 -4418 0
h 4419 -146 301 0
h 146 -4419 0
h -301 -4419 0
h 4420 -302 147 0
h 302 -4420 0
h -147 -4420 0
h 4421 -147 302 0
h 147 -4421 0
h -302 -4421 0
h 4422 -303 148 0
h 303 -4422 0
h -148 -4422 0
h 4423 -148 303 0
h 148 -4423 0
h -303 -4423 0
h 4424 -304 149 0
h 304 -4424 0
h -149 -4424 0
h 4425 -149 304 0
h 149 -4425 0
h -304 -4425 0
h -4426 -341 266 0
h 341 4426 0
h -266 4426 0
h -4427 -340 265 0
h 340 4427 0
h -265 4427 0
h -4428 -339 264 0
h 339 4428 0
h -264 4428 0
h -4429 -338 263 0
h 338 4429 0
h -263 4429 0
h -4430 -337 262 0
h 337 4430 0
h -262 4430 0
h -4431 -336 261 0
h 336 4431 0
h -261 4431 0
h -4432 -335 260 0
h 335 4432 0
h -260 4432 0
h -4433 -334 259 0
h 334 4433 0
h -259 4433 0
h -4434 -333 258 0
h 333 4434 0
h -258 4434 0
h -4435 -332 257 0
h 332 4435 0
h -257 4435 0
h 4436 -267 -4426 -4427 -4428 -4429 -4430 -4431 -4432 -4433 -4434 -4435 331 0
h 267 -4436 0
h 4426 -4436 0
h 4427 -4436 0
h 4428 -4436 0
h 4429 -4436 0
h 4430 -4436 0
h 4431 -4436 0
h 4432 -4436 0
h 4433 -4436 0
h 4434 -4436 0
h 4435 -4436 0
h -331 -4436 0
h -4437 -267 340 0
h 267 4437 0
h -340 4437 0
h -4438 -266 339 0
h 266 4438 0
h -339 4438 0
h -4439 -265 338 0
h 265 4439 0
h -338 4439 0
h -4440 -264 337 0
h 264 4440 0
h -337 4440 0
h -4441 -263 336 0
h 263 4441 0
h -336 4441 0
h -4442 -262 335 0
h 262 4442 0
h -335 4442 0
h -4443 -261 334 0
h 261 4443 0
h -334 4443 0
h -4444 -260 333 0
h 260 4444 0
h -333 4444 0
h -4445 -259 332 0
h 259 4445 0
h -332 4445 0
h -4446 -258 331 0
h 258 4446 0
h -331 4446 0
h 4447 -341 -4437 -4438 -4439 -4440 -4441 -4442 -4443 -4444 -4445 -4446 257 0
h 341 -4447 0
h 4437 -4447 0
h 4438 -4447 0
h 4439 -4447 0
h 4440 -4447 0
h 4441 -4447 0
h 4442 -4447 0
h 4443 -4447 0
h 4444 -4447 0
h 4445 -4447 0
h 4446 -4447 0
h -257 -4447 0
h 4448 -16 150 0
h 16 -4448 0
h -150 -4448 0
h 4449 -150 16 0
h 150 -4449 0
h -16 -4449 0
h 4450 -17 151 0
h 17 -4450 0
h -151 -4450 0
h 4451 -151 17 0
h 151 -4451 0
h -17 -4451 0
h 4452 -18 152 0
h 18 -4452 0
h -152 -4452 0
h 4453 -152 18 0
h 152 -4453 0
h -18 -4453 0
h 4454 -19 153 0
h 19 -4454 0
h -153 -4454 0
h 4455 -153 19 0
h 153 -4455 0
h -19 -4455 0
h -4456 -326 266 0
h 326 4456 0
h -266 4456 0
h -4457 -325 265 0
h 325 4457 0
h -265 4457 0
h -4458 -324 264 0
h 324 4458 0
h -264 4458 0
h -4459 -323 263 0
h 323 4459 0
h -263 4459 0
h -4460 -322 262 0
h 322 4460 0
h -262 4460 0
h -4461 -321 261 0
h 321 4461 0
h -261 4461 0
h -4462 -320 260 0
h 320 4462 0
h -260 4462 0
h -4463 -319 259 0
h 319 4463 0
h -259 4463 0
h -4464 -318 258 0
h 318 4464 0
h -258 4464 0
h -4465 -317 257 0
h 317 4465 0
h -257 4465 0
h 4466 -267 -4456 -4457 -4458 -4459 -4460 -4461 -4462 -4463 -4464 -4465 316 0
h 267 -4466 0
h 4456 -4466 0
h 4457 -4466 0
h 4458 -4466 0
h 4459 -4466 0
h 4460 -4466 0
h 4461 -4466 0
h 4462 -4466 0
h 4463 -4466 0
h 4464 -4466 0
h 4465 -4466 0
h -316 -4466 0
h -4467 -267 325 0
h 267 4467 0
h -325 4467 0
h -4468 -266 324 0
h 266 4468 0
h -324 4468 0
h -4469 -265 323 0
h 265 4469 0
h -323 4469 0
h -4470 -264 322 0
h 264 4470 0
h -322 4470 0
h -4471 -263 321 0
h 263 4471 0
h -321 4471 0
h -4472 -262 320 0
h 262 4472 0
h -320 4472 0
h -4473 -261 319 0
h 261 4473 0
h -319 4473 0
h -4474 -260 318 0
h 260 4474 0
h -318 4474 0
h -4475 -259 317 0
h 259 4475 0
h -317 4475 0
h -4476 -258 316 0
h 258 4476 0
h -316 4476 0
h 4477 -326 -4467 -4468 -4469 -4470 -4471 -4472 -4473 -4474 -4475 -4476 257 0
h 326 -4477 0
h 4467 -4477 0
h 4468 -4477 0
h 4469 -4477 0
h 4470 -4477 0
h 4471 -4477 0
h 4472 -4477 0
h 4473 -4477 0
h 4474 -4477 0
h 4475 -4477 0
h 4476 -4477 0
h -257 -4477 0
h 4478 -16 142 0
h 16 -4478 0
h -142 -4478 0
h 4479 -142 16 0
h 142 -4479 0
h -16 -4479 0
h 4480 -17 143 0
h 17 -4480 0
h -143 -4480 0
h 4481 -143 17 0
h 143 -4481 0
h -17 -4481 0
h 4482 -18 144 0
h 18 -4482 0
h -144 -4482 0
h 4483 -144 18 0
h 144 -4483 0
h -18 -4483 0
h 4484 -19 145 0
h 19 -4484 0
h -145 -4484 0
h 4485 -145 19 0
h 145 -4485 0
h -19 -4485 0
h -4486 -315 266 0
h 315 4486 0
h -266 4486 0
h -4487 -314 265 0
h 314 4487 0
h -265 4487 0
h -4488 -313 264 0
h 313 4488 0
h -264 4488 0
h -4489 -312 263 0
h 312 4489 0
h -263 4489 0
h -4490 -311 262 0
h 311 4490 0
h -262 4490 0
h -4491 -310 261 0
h 310 4491 0
h -261 4491 0
h -4492 -309 260 0
h 309 4492 0
h -260 4492 0
h -4493 -308 259 0
h 308 4493 0
h -259 4493 0
h -4494 -307 258 0
h 307 4494 0
h -258 4494 0
h -4495 -306 257 0
h 306 4495 0
h -257 4495 0
h 4496 -267 -4486 -4487 -4488 -4489 -4490 -4491 -4492 -4493 -4494 -4495 305 0
h 267 -4496 0
h 4486 -4496 0
h 4487 -4496 0
h 4488 -4496 0
h 4489 -4496 0
h 4490 -4496 0
h 4491 -4496 0
h 4492 -4496 0
h 4493 -4496 0
h 4494 -4496 0
h 4495 -4496 0
h -305 -4496 0
h -4497 -267 314 0
h 267 4497 0
h -314 4497 0
h -4498 -266 313 0
h 266 4498 0
h -313 4498 0
h -4499 -265 312 0
h 265 4499 0
h -312 4499 0
h -4500 -264 311 0
h 264 4500 0
h -311 4500 0
h -4501 -263 310 0
h 263 4501 0
h -310 4501 0
h -4502 -262 309 0
h 262 4502 0
h -309 4502 0
h -4503 -261 308 0
h 261 4503 0
h -308 4503 0
h -4504 -260 307 0
h 260 4504 0
h -307 4504 0
h -4505 -259 306 0
h 259 4505 0
h -306 4505 0
h -4506 -258 305 0
h 258 4506 0
h -305 4506 0
h 4507 -315 -4497 -4498 -4499 -4500 -4501 -4502 -4503 -4504 -4505 -4506 257 0
h 315 -4507 0
h 4497 -4507 0
h 4498 -4507 0
h 4499 -4507 0
h 4500 -4507 0
h 4501 -4507 0
h 4502 -4507 0
h 4503 -4507 0
h 4504 -4507 0
h 4505 -4507 0
h 4506 -4507 0
h -257 -4507 0
h 4508 -16 146 0
h 16 -4508 0
h -146 -4508 0
h 4509 -146 16 0
h 146 -4509 0
h -16 -4509 0
h 4510 -17 147 0
h 17 -4510 0
h -147 -4510 0
h 4511 -147 17 0
h 147 -4511 0
h -17 -4511 0
h 4512 -18 148 0
h 18 -4512 0
h -148 -4512 0
h 4513 -148 18 0
h 148 -4513 0
h -18 -4513 0
h 4514 -19 149 0
h 19 -4514 0
h -149 -4514 0
h 4515 -149 19 0
h 149 -4515 0
h -19 -4515 0
h -4516 -141 173 0
h 141 4516 0
h -173 4516 0
h -4517 -140 172 0
h 140 4517 0
h -172 4517 0
h -4518 -139 171 0
h 139 4518 0
h -171 4518 0
h -4519 -138 170 0
h 138 4519 0
h -170 4519 0
h -4520 -137 169 0
h 137 4520 0
h -169 4520 0
h -4521 -136 168 0
h 136 4521 0
h -168 4521 0
h -4522 -135 167 0
h 135 4522 0
h -167 4522 0
h -4523 -134 166 0
h 134 4523 0
h -166 4523 0
h 4524 -174 -4516 -4517 -4518 -4519 -4520 -4521 -4522 -4523 133 132 131 0
h 174 -4524 0
h 4516 -4524 0
h 4517 -4524 0
h 4518 -4524 0
h 4519 -4524 0
h 4520 -4524 0
h 4521 -4524 0
h 4522 -4524 0
h 4523 -4524 0
h -133 -4524 0
h -132 -4524 0
h -131 -4524 0
h -4525 -176 139 0
h 176 4525 0
h -139 4525 0
h -4526 -175 138 0
h 175 4526 0
h -138 4526 0
h -4527 -174 137 0
h 174 4527 0
h -137 4527 0
h -4528 -173 136 0
h 173 4528 0
h -136 4528 0
h -4529 -172 135 0
h 172 4529 0
h -135 4529 0
h -4530 -171 134 0
h 171 4530 0
h -134 4530 0
h -4531 -170 133 0
h 170 4531 0
h -133 4531 0
h -4532 -169 132 0
h 169 4532 0
h -132 4532 0
h -4533 -168 131 0
h 168 4533 0
h -131 4533 0
h 4534 -140 -4525 -4526 -4527 -4528 -4529 -4530 -4531 -4532 -4533 167 166 0
h 140 -4534 0
h 4525 -4534 0
h 4526 -4534 0
h 4527 -4534 0
h 4528 -4534 0
h 4529 -4534 0
h 4530 -4534 0
h 4531 -4534 0
h 4532 -4534 0
h 4533 -4534 0
h -167 -4534 0
h -166 -4534 0
h 4535 -301 223 0
h 301 -4535 0
h -223 -4535 0
h 4536 -223 301 0
h 223 -4536 0
h -301 -4536 0
h 4537 -302 224 0
h 302 -4537 0
h -224 -4537 0
h 4538 -224 302 0
h 224 -4538 0
h -302 -4538 0
h 4539 -303 225 0
h 303 -4539 0
h -225 -4539 0
h 4540 -225 303 0
h 225 -4540 0
h -303 -4540 0
h 4541 -304 226 0
h 304 -4541 0
h -226 -4541 0
h 4542 -226 304 0
h 226 -4542 0
h -304 -4542 0
h -4543 -141 266 0
h 141 4543 0
h -266 4543 0
h -4544 -140 265 0
h 140 4544 0
h -265 4544 0
h -4545 -139 264 0
h 139 4545 0
h -264 4545 0
h -4546 -138 263 0
h 138 4546 0
h -263 4546 0
h -4547 -137 262 0
h 137 4547 0
h -262 4547 0
h -4548 -136 261 0
h 136 4548 0
h -261 4548 0
h -4549 -135 260 0
h 135 4549 0
h -260 4549 0
h -4550 -134 259 0
h 134 4550 0
h -259 4550 0
h -4551 -133 258 0
h 133 4551 0
h -258 4551 0
h -4552 -132 257 0
h 132 4552 0
h -257 4552 0
h 4553 -267 -4543 -4544 -4545 -4546 -4547 -4548 -4549 -4550 -4551 -4552 131 0
h 267 -4553 0
h 4543 -4553 0
h 4544 -4553 0
h 4545 -4553 0
h 4546 -4553 0
h 4547 -4553 0
h 4548 -4553 0
h 4549 -4553 0
h 4550 -4553 0
h 4551 -4553 0
h 4552 -4553 0
h -131 -4553 0
h -4554 -267 139 0
h 267 4554 0
h -139 4554 0
h -4555 -266 138 0
h 266 4555 0
h -138 4555 0
h -4556 -265 137 0
h 265 4556 0
h -137 4556 0
h -4557 -264 136 0
h 264 4557 0
h -136 4557 0
h -4558 -263 135 0
h 263 4558 0
h -135 4558 0
h -4559 -262 134 0
h 262 4559 0
h -134 4559 0
h -4560 -261 133 0
h 261 4560 0
h -133 4560 0
h -4561 -260 132 0
h 260 4561 0
h -132 4561 0
h -4562 -259 131 0
h 259 4562 0
h -131 4562 0
h 4563 -140 -4554 -4555 -4556 -4557 -4558 -4559 -4560 -4561 -4562 258 257 0
h 140 -4563 0
h 4554 -4563 0
h 4555 -4563 0
h 4556 -4563 0
h 4557 -4563 0
h 4558 -4563 0
h 4559 -4563 0
h 4560 -4563 0
h 4561 -4563 0
h 4562 -4563 0
h -258 -4563 0
h -257 -4563 0
h 4564 -16 223 0
h 16 -4564 0
h -223 -4564 0
h 4565 -223 16 0
h 223 -4565 0
h -16 -4565 0
h 4566 -17 224 0
h 17 -4566 0
h -224 -4566 0
h 4567 -224 17 0
h 224 -4567 0
h -17 -4567 0
h 4568 -18 225 0
h 18 -4568 0
h -225 -4568 0
h 4569 -225 18 0
h 225 -4569 0
h -18 -4569 0
h 4570 -19 226 0
h 19 -4570 0
h -226 -4570 0
h 4571 -226 19 0
h 226 -4571 0
h -19 -4571 0
h -4572 -97 173 0
h 97 4572 0
h -173 4572 0
h -4573 -96 172 0
h 96 4573 0
h -172 4573 0
h -4574 -95 171 0
h 95 4574 0
h -171 4574 0
h -4575 -94 170 0
h 94 4575 0
h -170 4575 0
h -4576 -93 169 0
h 93 4576 0
h -169 4576 0
h -4577 -92 168 0
h 92 4577 0
h -168 4577 0
h -4578 -91 167 0
h 91 4578 0
h -167 4578 0
h -4579 -90 166 0
h 90 4579 0
h -166 4579 0
h 4580 -174 -4572 -4573 -4574 -4575 -4576 -4577 -4578 -4579 89 88 87 0
h 174 -4580 0
h 4572 -4580 0
h 4573 -4580 0
h 4574 -4580 0
h 4575 -4580 0
h 4576 -4580 0
h 4577 -4580 0
h 4578 -4580 0
h 4579 -4580 0
h -89 -4580 0
h -88 -4580 0
h -87 -4580 0
h -4581 -176 95 0
h 176 4581 0
h -95 4581 0
h -4582 -175 94 0
h 175 4582 0
h -94 4582 0
h -4583 -174 93 0
h 174 4583 0
h -93 4583 0
h -4584 -173 92 0
h 173 4584 0
h -92 4584 0
h -4585 -172 91 0
h 172 4585 0
h -91 4585 0
h -4586 -171 90 0
h 171 4586 0
h -90 4586 0
h -4587 -170 89 0
h 170 4587 0
h -89 4587 0
h -4588 -169 88 0
h 169 4588 0
h -88 4588 0
h -4589 -168 87 0
h 168 4589 0
h -87 4589 0
h 4590 -96 -4581 -4582 -4583 -4584 -4585 -4586 -4587 -4588 -4589 167 166 0
h 96 -4590 0
h 4581 -4590 0
h 4582 -4590 0
h 4583 -4590 0
h 4584 -4590 0
h 4585 -4590 0
h 4586 -4590 0
h 4587 -4590 0
h 4588 -4590 0
h 4589 -4590 0
h -167 -4590 0
h -166 -4590 0
h 4591 -301 238 0
h 301 -4591 0
h -238 -4591 0
h 4592 -238 301 0
h 238 -4592 0
h -301 -4592 0
h 4593 -302 239 0
h 302 -4593 0
h -239 -4593 0
h 4594 -239 302 0
h 239 -4594 0
h -302 -4594 0
h 4595 -303 240 0
h 303 -4595 0
h -240 -4595 0
h 4596 -240 303 0
h 240 -4596 0
h -303 -4596 0
h 4597 -304 241 0
h 304 -4597 0
h -241 -4597 0
h 4598 -241 304 0
h 241 -4598 0
h -304 -4598 0
h -4599 -119 173 0
h 119 4599 0
h -173 4599 0
h -4600 -118 172 0
h 118 4600 0
h -172 4600 0
h -4601 -117 171 0
h 117 4601 0
h -171 4601 0
h -4602 -116 170 0
h 116 4602 0
h -170 4602 0
h -4603 -115 169 0
h 115 4603 0
h -169 4603 0
h -4604 -114 168 0
h 114 4604 0
h -168 4604 0
h -4605 -113 167 0
h 113 4605 0
h -167 4605 0
h -4606 -112 166 0
h 112 4606 0
h -166 4606 0
h 4607 -174 -4599 -4600 -4601 -4602 -4603 -4604 -4605 -4606 111 110 109 0
h 174 -4607 0
h 4599 -4607 0
h 4600 -4607 0
h 4601 -4607 0
h 4602 -4607 0
h 4603 -4607 0
h 4604 -4607 0
h 4605 -4607 0
h 4606 -4607 0
h -111 -4607 0
h -110 -4607 0
h -109 -4607 0
h -4608 -176 117 0
h 176 4608 0
h -117 4608 0
h -4609 -175 116 0
h 175 4609 0
h -116 4609 0
h -4610 -174 115 0
h 174 4610 0
h -115 4610 0
h -4611 -173 114 0
h 173 4611 0
h -114 4611 0
h -4612 -172 113 0
h 172 4612 0
h -113 4612 0
h -4613 -171 112 0
h 171 4613 0
h -112 4613 0
h -4614 -170 111 0
h 170 4614 0
h -111 4614 0
h -4615 -169 110 0
h 169 4615 0
h -110 4615 0
h -4616 -168 109 0
h 168 4616 0
h -109 4616 0
h 4617 -118 -4608 -4609 -4610 -4611 -4612 -4613 -4614 -4615 -4616 167 166 0
h 118 -4617 0
h 4608 -4617 0
h 4609 -4617 0
h 4610 -4617 0
h 4611 -4617 0
h 4612 -4617 0
h 4613 -4617 0
h 4614 -4617 0
h 4615 -4617 0
h 4616 -4617 0
h -167 -4617 0
h -166 -4617 0
h 4618 -301 253 0
h 301 -4618 0
h -253 -4618 0
h 4619 -253 301 0
h 253 -4619 0
h -301 -4619 0
h 4620 -302 254 0
h 302 -4620 0
h -254 -4620 0
h 4621 -254 302 0
h 254 -4621 0
h -302 -4621 0
h 4622 -303 255 0
h 303 -4622 0
h -255 -4622 0
h 4623 -255 303 0
h 255 -4623 0
h -303 -4623 0
h 4624 -304 256 0
h 304 -4624 0
h -256 -4624 0
h 4625 -256 304 0
h 256 -4625 0
h -304 -4625 0
h -4626 -278 173 0
h 278 4626 0
h -173 4626 0
h -4627 -277 172 0
h 277 4627 0
h -172 4627 0
h -4628 -276 171 0
h 276 4628 0
h -171 4628 0
h -4629 -275 170 0
h 275 4629 0
h -170 4629 0
h -4630 -274 169 0
h 274 4630 0
h -169 4630 0
h -4631 -273 168 0
h 273 4631 0
h -168 4631 0
h -4632 -272 167 0
h 272 4632 0
h -167 4632 0
h -4633 -271 166 0
h 271 4633 0
h -166 4633 0
h 4634 -174 -4626 -4627 -4628 -4629 -4630 -4631 -4632 -4633 270 269 268 0
h 174 -4634 0
h 4626 -4634 0
h 4627 -4634 0
h 4628 -4634 0
h 4629 -4634 0
h 4630 -4634 0
h 4631 -4634 0
h 4632 -4634 0
h 4633 -4634 0
h -270 -4634 0
h -269 -4634 0
h -268 -4634 0
h -4635 -176 277 0
h 176 4635 0
h -277 4635 0
h -4636 -175 276 0
h 175 4636 0
h -276 4636 0
h -4637 -174 275 0
h 174 4637 0
h -275 4637 0
h -4638 -173 274 0
h 173 4638 0
h -274 4638 0
h -4639 -172 273 0
h 172 4639 0
h -273 4639 0
h -4640 -171 272 0
h 171 4640 0
h -272 4640 0
h -4641 -170 271 0
h 170 4641 0
h -271 4641 0
h -4642 -169 270 0
h 169 4642 0
h -270 4642 0
h -4643 -168 269 0
h 168 4643 0
h -269 4643 0
h -4644 -167 268 0
h 167 4644 0
h -268 4644 0
h 4645 -278 -4635 -4636 -4637 -4638 -4639 -4640 -4641 -4642 -4643 -4644 166 0
h 278 -4645 0
h 4635 -4645 0
h 4636 -4645 0
h 4637 -4645 0
h 4638 -4645 0
h 4639 -4645 0
h 4640 -4645 0
h 4641 -4645 0
h 4642 -4645 0
h 4643 -4645 0
h 4644 -4645 0
h -166 -4645 0
h 4646 -301 42 0
h 301 -4646 0
h -42 -4646 0
h 4647 -42 301 0
h 42 -4647 0
h -301 -4647 0
h 4648 -302 43 0
h 302 -4648 0
h -43 -4648 0
h 4649 -43 302 0
h 43 -4649 0
h -302 -4649 0
h 4650 -303 44 0
h 303 -4650 0
h -44 -4650 0
h 4651 -44 303 0
h 44 -4651 0
h -303 -4651 0
h 4652 -304 45 0
h 304 -4652 0
h -45 -4652 0
h 4653 -45 304 0
h 45 -4653 0
h -304 -4653 0
h -4654 -300 173 0
h 300 4654 0
h -173 4654 0
h -4655 -299 172 0
h 299 4655 0
h -172 4655 0
h -4656 -298 171 0
h 298 4656 0
h -171 4656 0
h -4657 -297 170 0
h 297 4657 0
h -170 4657 0
h -4658 -296 169 0
h 296 4658 0
h -169 4658 0
h -4659 -295 168 0
h 295 4659 0
h -168 4659 0
h -4660 -294 167 0
h 294 4660 0
h -167 4660 0
h -4661 -293 166 0
h 293 4661 0
h -166 4661 0
h 4662 -174 -4654 -4655 -4656 -4657 -4658 -4659 -4660 -4661 292 291 290 0
h 174 -4662 0
h 4654 -4662 0
h 4655 -4662 0
h 4656 -4662 0
h 4657 -4662 0
h 4658 -4662 0
h 4659 -4662 0
h 4660 -4662 0
h 4661 -4662 0
h -292 -4662 0
h -291 -4662 0
h -290 -4662 0
h -4663 -176 299 0
h 176 4663 0
h -299 4663 0
h -4664 -175 298 0
h 175 4664 0
h -298 4664 0
h -4665 -174 297 0
h 174 4665 0
h -297 4665 0
h -4666 -173 296 0
h 173 4666 0
h -296 4666 0
h -4667 -172 295 0
h 172 4667 0
h -295 4667 0
h -4668 -171 294 0
h 171 4668 0
h -294 4668 0
h -4669 -170 293 0
h 170 4669 0
h -293 4669 0
h -4670 -169 292 0
h 169 4670 0
h -292 4670 0
h -4671 -168 291 0
h 168 4671 0
h -291 4671 0
h -4672 -167 290 0
h 167 4672 0
h -290 4672 0
h 4673 -300 -4663 -4664 -4665 -4666 -4667 -4668 -4669 -4670 -4671 -4672 166 0
h 300 -4673 0
h 4663 -4673 0
h 4664 -4673 0
h 4665 -4673 0
h 4666 -4673 0
h 4667 -4673 0
h 4668 -4673 0
h 4669 -4673 0
h 4670 -4673 0
h 4671 -4673 0
h 4672 -4673 0
h -166 -4673 0
h 4674 -301 61 0
h 301 -4674 0
h -61 -4674 0
h 4675 -61 301 0
h 61 -4675 0
h -301 -4675 0
h 4676 -302 62 0
h 302 -4676 0
h -62 -4676 0
h 4677 -62 302 0
h 62 -4677 0
h -302 -4677 0
h 4678 -303 63 0
h 303 -4678 0
h -63 -4678 0
h 4679 -63 303 0
h 63 -4679 0
h -303 -4679 0
h 4680 -304 64 0
h 304 -4680 0
h -64 -4680 0
h 4681 -64 304 0
h 64 -4681 0
h -304 -4681 0
h -4682 -289 173 0
h 289 4682 0
h -173 4682 0
h -4683 -288 172 0
h 288 4683 0
h -172 4683 0
h -4684 -287 171 0
h 287 4684 0
h -171 4684 0
h -4685 -286 170 0
h 286 4685 0
h -170 4685 0
h -4686 -285 169 0
h 285 4686 0
h -169 4686 0
h -4687 -284 168 0
h 284 4687 0
h -168 4687 0
h -4688 -283 167 0
h 283 4688 0
h -167 4688 0
h -4689 -282 166 0
h 282 4689 0
h -166 4689 0
h 4690 -174 -4682 -4683 -4684 -4685 -4686 -4687 -4688 -4689 281 280 279 0
h 174 -4690 0
h 4682 -4690 0
h 4683 -4690 0
h 4684 -4690 0
h 4685 -4690 0
h 4686 -4690 0
h 4687 -4690 0
h 4688 -4690 0
h 4689 -4690 0
h -281 -4690 0
h -280 -4690 0
h -279 -4690 0
h -4691 -176 288 0
h 176 4691 0
h -288 4691 0
h -4692 -175 287 0
h 175 4692 0
h -287 4692 0
h -4693 -174 286 0
h 174 4693 0
h -286 4693 0
h -4694 -173 285 0
h 173 4694 0
h -285 4694 0
h -4695 -172 284 0
h 172 4695 0
h -284 4695 0
h -4696 -171 283 0
h 171 4696 0
h -283 4696 0
h -4697 -170 282 0
h 170 4697 0
h -282 4697 0
h -4698 -169 281 0
h 169 4698 0
h -281 4698 0
h -4699 -168 280 0
h 168 4699 0
h -280 4699 0
h -4700 -167 279 0
h 167 4700 0
h -279 4700 0
h 4701 -289 -4691 -4692 -4693 -4694 -4695 -4696 -4697 -4698 -4699 -4700 166 0
h 289 -4701 0
h 4691 -4701 0
h 4692 -4701 0
h 4693 -4701 0
h 4694 -4701 0
h 4695 -4701 0
h 4696 -4701 0
h 4697 -4701 0
h 4698 -4701 0
h 4699 -4701 0
h 4700 -4701 0
h -166 -4701 0
h 4702 -301 57 0
h 301 -4702 0
h -57 -4702 0
h 4703 -57 301 0
h 57 -4703 0
h -301 -4703 0
h 4704 -302 58 0
h 302 -4704 0
h -58 -4704 0
h 4705 -58 302 0
h 58 -4705 0
h -302 -4705 0
h 4706 -303 59 0
h 303 -4706 0
h -59 -4706 0
h 4707 -59 303 0
h 59 -4707 0
h -303 -4707 0
h 4708 -304 60 0
h 304 -4708 0
h -60 -4708 0
h 4709 -60 304 0
h 60 -4709 0
h -304 -4709 0
h -4710 -97 266 0
h 97 4710 0
h -266 4710 0
h -4711 -96 265 0
h 96 4711 0
h -265 4711 0
h -4712 -95 264 0
h 95 4712 0
h -264 4712 0
h -4713 -94 263 0
h 94 4713 0
h -263 4713 0
h -4714 -93 262 0
h 93 4714 0
h -262 4714 0
h -4715 -92 261 0
h 92 4715 0
h -261 4715 0
h -4716 -91 260 0
h 91 4716 0
h -260 4716 0
h -4717 -90 259 0
h 90 4717 0
h -259 4717 0
h -4718 -89 258 0
h 89 4718 0
h -258 4718 0
h -4719 -88 257 0
h 88 4719 0
h -257 4719 0
h 4720 -267 -4710 -4711 -4712 -4713 -4714 -4715 -4716 -4717 -4718 -4719 87 0
h 267 -4720 0
h 4710 -4720 0
h 4711 -4720 0
h 4712 -4720 0
h 4713 -4720 0
h 4714 -4720 0
h 4715 -4720 0
h 4716 -4720 0
h 4717 -4720 0
h 4718 -4720 0
h 4719 -4720 0
h -87 -4720 0
h -4721 -267 95 0
h 267 4721 0
h -95 4721 0
h -4722 -266 94 0
h 266 4722 0
h -94 4722 0
h -4723 -265 93 0
h 265 4723 0
h -93 4723 0
h -4724 -264 92 0
h 264 4724 0
h -92 4724 0
h -4725 -263 91 0
h 263 4725 0
h -91 4725 0
h -4726 -262 90 0
h 262 4726 0
h -90 4726 0
h -4727 -261 89 0
h 261 4727 0
h -89 4727 0
h -4728 -260 88 0
h 260 4728 0
h -88 4728 0
h -4729 -259 87 0
h 259 4729 0
h -87 4729 0
h 4730 -96 -4721 -4722 -4723 -4724 -4725 -4726 -4727 -4728 -4729 258 257 0
h 96 -4730 0
h 4721 -4730 0
h 4722 -4730 0
h 4723 -4730 0
h 4724 -4730 0
h 4725 -4730 0
h 4726 -4730 0
h 4727 -4730 0
h 4728 -4730 0
h 4729 -4730 0
h -258 -4730 0
h -257 -4730 0
h 4731 -16 238 0
h 16 -4731 0
h -238 -4731 0
h 4732 -238 16 0
h 238 -4732 0
h -16 -4732 0
h 4733 -17 239 0
h 17 -4733 0
h -239 -4733 0
h 4734 -239 17 0
h 239 -4734 0
h -17 -4734 0
h 4735 -18 240 0
h 18 -4735 0
h -240 -4735 0
h 4736 -240 18 0
h 240 -4736 0
h -18 -4736 0
h 4737 -19 241 0
h 19 -4737 0
h -241 -4737 0
h 4738 -241 19 0
h 241 -4738 0
h -19 -4738 0
h -4739 -119 266 0
h 119 4739 0
h -266 4739 0
h -4740 -118 265 0
h 118 4740 0
h -265 4740 0
h -4741 -117 264 0
h 117 4741 0
h -264 4741 0
h -4742 -116 263 0
h 116 4742 0
h -263 4742 0
h -4743 -115 262 0
h 115 4743 0
h -262 4743 0
h -4744 -114 261 0
h 114 4744 0
h -261 4744 0
h -4745 -113 260 0
h 113 4745 0
h -260 4745 0
h -4746 -112 259 0
h 112 4746 0
h -259 4746 0
h -4747 -111 258 0
h 111 4747 0
h -258 4747 0
h -4748 -110 257 0
h 110 4748 0
h -257 4748 0
h 4749 -267 -4739 -4740 -4741 -4742 -4743 -4744 -4745 -4746 -4747 -4748 109 0
h 267 -4749 0
h 4739 -4749 0
h 4740 -4749 0
h 4741 -4749 0
h 4742 -4749 0
h 4743 -4749 0
h 4744 -4749 0
h 4745 -4749 0
h 4746 -4749 0
h 4747 -4749 0
h 4748 -4749 0
h -109 -4749 0
h -4750 -267 117 0
h 267 4750 0
h -117 4750 0
h -4751 -266 116 0
h 266 4751 0
h -116 4751 0
h -4752 -265 115 0
h 265 4752 0
h -115 4752 0
h -4753 -264 114 0
h 264 4753 0
h -114 4753 0
h -4754 -263 113 0
h 263 4754 0
h -113 4754 0
h -4755 -262 112 0
h 262 4755 0
h -112 4755 0
h -4756 -261 111 0
h 261 4756 0
h -111 4756 0
h -4757 -260 110 0
h 260 4757 0
h -110 4757 0
h -4758 -259 109 0
h 259 4758 0
h -109 4758 0
h 4759 -118 -4750 -4751 -4752 -4753 -4754 -4755 -4756 -4757 -4758 258 257 0
h 118 -4759 0
h 4750 -4759 0
h 4751 -4759 0
h 4752 -4759 0
h 4753 -4759 0
h 4754 -4759 0
h 4755 -4759 0
h 4756 -4759 0
h 4757 -4759 0
h 4758 -4759 0
h -258 -4759 0
h -257 -4759 0
h 4760 -16 253 0
h 16 -4760 0
h -253 -4760 0
h 4761 -253 16 0
h 253 -4761 0
h -16 -4761 0
h 4762 -17 254 0
h 17 -4762 0
h -254 -4762 0
h 4763 -254 17 0
h 254 -4763 0
h -17 -4763 0
h 4764 -18 255 0
h 18 -4764 0
h -255 -4764 0
h 4765 -255 18 0
h 255 -4765 0
h -18 -4765 0
h 4766 -19 256 0
h 19 -4766 0
h -256 -4766 0
h 4767 -256 19 0
h 256 -4767 0
h -19 -4767 0
h -4768 -278 266 0
h 278 4768 0
h -266 4768 0
h -4769 -277 265 0
h 277 4769 0
h -265 4769 0
h -4770 -276 264 0
h 276 4770 0
h -264 4770 0
h -4771 -275 263 0
h 275 4771 0
h -263 4771 0
h -4772 -274 262 0
h 274 4772 0
h -262 4772 0
h -4773 -273 261 0
h 273 4773 0
h -261 4773 0
h -4774 -272 260 0
h 272 4774 0
h -260 4774 0
h -4775 -271 259 0
h 271 4775 0
h -259 4775 0
h -4776 -270 258 0
h 270 4776 0
h -258 4776 0
h -4777 -269 257 0
h 269 4777 0
h -257 4777 0
h 4778 -267 -4768 -4769 -4770 -4771 -4772 -4773 -4774 -4775 -4776 -4777 268 0
h 267 -4778 0
h 4768 -4778 0
h 4769 -4778 0
h 4770 -4778 0
h 4771 -4778 0
h 4772 -4778 0
h 4773 -4778 0
h 4774 -4778 0
h 4775 -4778 0
h 4776 -4778 0
h 4777 -4778 0
h -268 -4778 0
h -4779 -267 277 0
h 267 4779 0
h -277 4779 0
h -4780 -266 276 0
h 266 4780 0
h -276 4780 0
h -4781 -265 275 0
h 265 4781 0
h -275 4781 0
h -4782 -264 274 0
h 264 4782 0
h -274 4782 0
h -4783 -263 273 0
h 263 4783 0
h -273 4783 0
h -4784 -262 272 0
h 262 4784 0
h -272 4784 0
h -4785 -261 271 0
h 261 4785 0
h -271 4785 0
h -4786 -260 270 0
h 260 4786 0
h -270 4786 0
h -4787 -259 269 0
h 259 4787 0
h -269 4787 0
h -4788 -258 268 0
h 258 4788 0
h -268 4788 0
h 4789 -278 -4779 -4780 -4781 -4782 -4783 -4784 -4785 -4786 -4787 -4788 257 0
h 278 -4789 0
h 4779 -4789 0
h 4780 -4789 0
h 4781 -4789 0
h 4782 -4789 0
h 4783 -4789 0
h 4784 -4789 0
h 4785 -4789 0
h 4786 -4789 0
h 4787 -4789 0
h 4788 -4789 0
h -257 -4789 0
h 4790 -16 42 0
h 16 -4790 0
h -42 -4790 0
h 4791 -42 16 0
h 42 -4791 0
h -16 -4791 0
h 4792 -17 43 0
h 17 -4792 0
h -43 -4792 0
h 4793 -43 17 0
h 43 -4793 0
h -17 -4793 0
h 4794 -18 44 0
h 18 -4794 0
h -44 -4794 0
h 4795 -44 18 0
h 44 -4795 0
h -18 -4795 0
h 4796 -19 45 0
h 19 -4796 0
h -45 -4796 0
h 4797 -45 19 0
h 45 -4797 0
h -19 -4797 0
h -4798 -300 266 0
h 300 4798 0
h -266 4798 0
h -4799 -299 265 0
h 299 4799 0
h -265 4799 0
h -4800 -298 264 0
h 298 4800 0
h -264 4800 0
h -4801 -297 263 0
h 297 4801 0
h -263 4801 0
h -4802 -296 262 0
h 296 4802 0
h -262 4802 0
h -4803 -295 261 0
h 295 4803 0
h -261 4803 0
h -4804 -294 260 0
h 294 4804 0
h -260 4804 0
h -4805 -293 259 0
h 293 4805 0
h -259 4805 0
h -4806 -292 258 0
h 292 4806 0
h -258 4806 0
h -4807 -291 257 0
h 291 4807 0
h -257 4807 0
h 4808 -267 -4798 -4799 -4800 -4801 -4802 -4803 -4804 -4805 -4806 -4807 290 0
h 267 -4808 0
h 4798 -4808 0
h 4799 -4808 0
h 4800 -4808 0
h 4801 -4808 0
h 4802 -4808 0
h 4803 -4808 0
h 4804 -4808 0
h 4805 -4808 0
h 4806 -4808 0
h 4807 -4808 0
h -290 -4808 0
h -4809 -267 299 0
h 267 4809 0
h -299 4809 0
h -4810 -266 298 0
h 266 4810 0
h -298 4810 0
h -4811 -265 297 0
h 265 4811 0
h -297 4811 0
h -4812 -264 296 0
h 264 4812 0
h -296 4812 0
h -4813 -263 295 0
h 263 4813 0
h -295 4813 0
h -4814 -262 294 0
h 262 4814 0
h -294 4814 0
h -4815 -261 293 0
h 261 4815 0
h -293 4815 0
h -4816 -260 292 0
h 260 4816 0
h -292 4816 0
h -4817 -259 291 0
h 259 4817 0
h -291 4817 0
h -4818 -258 290 0
h 258 4818 0
h -290 4818 0
h 4819 -300 -4809 -4810 -4811 -4812 -4813 -4814 -4815 -4816 -4817 -4818 257 0
h 300 -4819 0
h 4809 -4819 0
h 4810 -4819 0
h 4811 -4819 0
h 4812 -4819 0
h 4813 -4819 0
h 4814 -4819 0
h 4815 -4819 0
h 4816 -4819 0
h 4817 -4819 0
h 4818 -4819 0
h -257 -4819 0
h 4820 -16 61 0
h 16 -4820 0
h -61 -4820 0
h 4821 -61 16 0
h 61 -4821 0
h -16 -4821 0
h 4822 -17 62 0
h 17 -4822 0
h -62 -4822 0
h 4823 -62 17 0
h 62 -4823 0
h -17 -4823 0
h 4824 -18 63 0
h 18 -4824 0
h -63 -4824 0
h 4825 -63 18 0
h 63 -4825 0
h -18 -4825 0
h 4826 -19 64 0
h 19 -4826 0
h -64 -4826 0
h 4827 -64 19 0
h 64 -4827 0
h -19 -4827 0
h -4828 -289 266 0
h 289 4828 0
h -266 4828 0
h -4829 -288 265 0
h 288 4829 0
h -265 4829 0
h -4830 -287 264 0
h 287 4830 0
h -264 4830 0
h -4831 -286 263 0
h 286 4831 0
h -263 4831 0
h -4832 -285 262 0
h 285 4832 0
h -262 4832 0
h -4833 -284 261 0
h 284 4833 0
h -261 4833 0
h -4834 -283 260 0
h 283 4834 0
h -260 4834 0
h -4835 -282 259 0
h 282 4835 0
h -259 4835 0
h -4836 -281 258 0
h 281 4836 0
h -258 4836 0
h -4837 -280 257 0
h 280 4837 0
h -257 4837 0
h 4838 -267 -4828 -4829 -4830 -4831 -4832 -4833 -4834 -4835 -4836 -4837 279 0
h 267 -4838 0
h 4828 -4838 0
h 4829 -4838 0
h 4830 -4838 0
h 4831 -4838 0
h 4832 -4838 0
h 4833 -4838 0
h 4834 -4838 0
h 4835 -4838 0
h 4836 -4838 0
h 4837 -4838 0
h -279 -4838 0
h -4839 -267 288 0
h 267 4839 0
h -288 4839 0
h -4840 -266 287 0
h 266 4840 0
h -287 4840 0
h -4841 -265 286 0
h 265 4841 0
h -286 4841 0
h -4842 -264 285 0
h 264 4842 0
h -285 4842 0
h -4843 -263 284 0
h 263 4843 0
h -284 4843 0
h -4844 -262 283 0
h 262 4844 0
h -283 4844 0
h -4845 -261 282 0
h 261 4845 0
h -282 4845 0
h -4846 -260 281 0
h 260 4846 0
h -281 4846 0
h -4847 -259 280 0
h 259 4847 0
h -280 4847 0
h -4848 -258 279 0
h 258 4848 0
h -279 4848 0
h 4849 -289 -4839 -4840 -4841 -4842 -4843 -4844 -4845 -4846 -4847 -4848 257 0
h 289 -4849 0
h 4839 -4849 0
h 4840 -4849 0
h 4841 -4849 0
h 4842 -4849 0
h 4843 -4849 0
h 4844 -4849 0
h 4845 -4849 0
h 4846 -4849 0
h 4847 -4849 0
h 4848 -4849 0
h -257 -4849 0
h 4850 -16 57 0
h 16 -4850 0
h -57 -4850 0
h 4851 -57 16 0
h 57 -4851 0
h -16 -4851 0
h 4852 -17 58 0
h 17 -4852 0
h -58 -4852 0
h 4853 -58 17 0
h 58 -4853 0
h -17 -4853 0
h 4854 -18 59 0
h 18 -4854 0
h -59 -4854 0
h 4855 -59 18 0
h 59 -4855 0
h -18 -4855 0
h 4856 -19 60 0
h 19 -4856 0
h -60 -4856 0
h 4857 -60 19 0
h 60 -4857 0
h -19 -4857 0
h -4858 -203 173 0
h 203 4858 0
h -173 4858 0
h -4859 -202 172 0
h 202 4859 0
h -172 4859 0
h -4860 -201 171 0
h 201 4860 0
h -171 4860 0
h -4861 -200 170 0
h 200 4861 0
h -170 4861 0
h -4862 -199 169 0
h 199 4862 0
h -169 4862 0
h -4863 -198 168 0
h 198 4863 0
h -168 4863 0
h -4864 -197 167 0
h 197 4864 0
h -167 4864 0
h -4865 -196 166 0
h 196 4865 0
h -166 4865 0
h 4866 -174 -4858 -4859 -4860 -4861 -4862 -4863 -4864 -4865 195 194 193 0
h 174 -4866 0
h 4858 -4866 0
h 4859 -4866 0
h 4860 -4866 0
h 4861 -4866 0
h 4862 -4866 0
h 4863 -4866 0
h 4864 -4866 0
h 4865 -4866 0
h -195 -4866 0
h -194 -4866 0
h -193 -4866 0
h -4867 -176 200 0
h 176 4867 0
h -200 4867 0
h -4868 -175 199 0
h 175 4868 0
h -199 4868 0
h -4869 -174 198 0
h 174 4869 0
h -198 4869 0
h -4870 -173 197 0
h 173 4870 0
h -197 4870 0
h -4871 -172 196 0
h 172 4871 0
h -196 4871 0
h -4872 -171 195 0
h 171 4872 0
h -195 4872 0
h -4873 -170 194 0
h 170 4873 0
h -194 4873 0
h -4874 -169 193 0
h 169 4874 0
h -193 4874 0
h 4875 -201 -4867 -4868 -4869 -4870 -4871 -4872 -4873 -4874 168 167 166 0
h 201 -4875 0
h 4867 -4875 0
h 4868 -4875 0
h 4869 -4875 0
h 4870 -4875 0
h 4871 -4875 0
h 4872 -4875 0
h 4873 -4875 0
h 4874 -4875 0
h -168 -4875 0
h -167 -4875 0
h -166 -4875 0
h 4876 -301 342 0
h 301 -4876 0
h -342 -4876 0
h 4877 -342 301 0
h 342 -4877 0
h -301 -4877 0
h 4878 -302 343 0
h 302 -4878 0
h -343 -4878 0
h 4879 -343 302 0
h 343 -4879 0
h -302 -4879 0
h 4880 -303 344 0
h 303 -4880 0
h -344 -4880 0
h 4881 -344 303 0
h 344 -4881 0
h -303 -4881 0
h 4882 -304 345 0
h 304 -4882 0
h -345 -4882 0
h 4883 -345 304 0
h 345 -4883 0
h -304 -4883 0
h -4884 -218 173 0
h 218 4884 0
h -173 4884 0
h -4885 -217 172 0
h 217 4885 0
h -172 4885 0
h -4886 -216 171 0
h 216 4886 0
h -171 4886 0
h -4887 -215 170 0
h 215 4887 0
h -170 4887 0
h -4888 -214 169 0
h 214 4888 0
h -169 4888 0
h -4889 -213 168 0
h 213 4889 0
h -168 4889 0
h -4890 -212 167 0
h 212 4890 0
h -167 4890 0
h -4891 -211 166 0
h 211 4891 0
h -166 4891 0
h 4892 -174 -4884 -4885 -4886 -4887 -4888 -4889 -4890 -4891 210 209 208 0
h 174 -4892 0
h 4884 -4892 0
h 4885 -4892 0
h 4886 -4892 0
h 4887 -4892 0
h 4888 -4892 0
h 4889 -4892 0
h 4890 -4892 0
h 4891 -4892 0
h -210 -4892 0
h -209 -4892 0
h -208 -4892 0
h -4893 -176 215 0
h 176 4893 0
h -215 4893 0
h -4894 -175 214 0
h 175 4894 0
h -214 4894 0
h -4895 -174 213 0
h 174 4895 0
h -213 4895 0
h -4896 -173 212 0
h 173 4896 0
h -212 4896 0
h -4897 -172 211 0
h 172 4897 0
h -211 4897 0
h -4898 -171 210 0
h 171 4898 0
h -210 4898 0
h -4899 -170 209 0
h 170 4899 0
h -209 4899 0
h -4900 -169 208 0
h 169 4900 0
h -208 4900 0
h 4901 -216 -4893 -4894 -4895 -4896 -4897 -4898 -4899 -4900 168 167 166 0
h 216 -4901 0
h 4893 -4901 0
h 4894 -4901 0
h 4895 -4901 0
h 4896 -4901 0
h 4897 -4901 0
h 4898 -4901 0
h 4899 -4901 0
h 4900 -4901 0
h -168 -4901 0
h -167 -4901 0
h -166 -4901 0
h 4902 -301 327 0
h 301 -4902 0
h -327 -4902 0
h 4903 -327 301 0
h 327 -4903 0
h -301 -4903 0
h 4904 -302 328 0
h 302 -4904 0
h -328 -4904 0
h 4905 -328 302 0
h 328 -4905 0
h -302 -4905 0
h 4906 -303 329 0
h 303 -4906 0
h -329 -4906 0
h 4907 -329 303 0
h 329 -4907 0
h -303 -4907 0
h 4908 -304 330 0
h 304 -4908 0
h -330 -4908 0
h 4909 -330 304 0
h 330 -4909 0
h -304 -4909 0
h -4910 -86 173 0
h 86 4910 0
h -173 4910 0
h -4911 -85 172 0
h 85 4911 0
h -172 4911 0
h -4912 -84 171 0
h 84 4912 0
h -171 4912 0
h -4913 -83 170 0
h 83 4913 0
h -170 4913 0
h -4914 -82 169 0
h 82 4914 0
h -169 4914 0
h -4915 -81 168 0
h 81 4915 0
h -168 4915 0
h -4916 -80 167 0
h 80 4916 0
h -167 4916 0
h -4917 -79 166 0
h 79 4917 0
h -166 4917 0
h 4918 -174 -4910 -4911 -4912 -4913 -4914 -4915 -4916 -4917 78 77 76 0
h 174 -4918 0
h 4910 -4918 0
h 4911 -4918 0
h 4912 -4918 0
h 4913 -4918 0
h 4914 -4918 0
h 4915 -4918 0
h 4916 -4918 0
h 4917 -4918 0
h -78 -4918 0
h -77 -4918 0
h -76 -4918 0
h -4919 -176 84 0
h 176 4919 0
h -84 4919 0
h -4920 -175 83 0
h 175 4920 0
h -83 4920 0
h -4921 -174 82 0
h 174 4921 0
h -82 4921 0
h -4922 -173 81 0
h 173 4922 0
h -81 4922 0
h -4923 -172 80 0
h 172 4923 0
h -80 4923 0
h -4924 -171 79 0
h 171 4924 0
h -79 4924 0
h -4925 -170 78 0
h 170 4925 0
h -78 4925 0
h -4926 -169 77 0
h 169 4926 0
h -77 4926 0
h -4927 -168 76 0
h 168 4927 0
h -76 4927 0
h 4928 -85 -4919 -4920 -4921 -4922 -4923 -4924 -4925 -4926 -4927 167 166 0
h 85 -4928 0
h 4919 -4928 0
h 4920 -4928 0
h 4921 -4928 0
h 4922 -4928 0
h 4923 -4928 0
h 4924 -4928 0
h 4925 -4928 0
h 4926 -4928 0
h 4927 -4928 0
h -167 -4928 0
h -166 -4928 0
h 4929 -301 185 0
h 301 -4929 0
h -185 -4929 0
h 4930 -185 301 0
h 185 -4930 0
h -301 -4930 0
h 4931 -302 186 0
h 302 -4931 0
h -186 -4931 0
h 4932 -186 302 0
h 186 -4932 0
h -302 -4932 0
h 4933 -303 187 0
h 303 -4933 0
h -187 -4933 0
h 4934 -187 303 0
h 187 -4934 0
h -303 -4934 0
h 4935 -304 188 0
h 304 -4935 0
h -188 -4935 0
h 4936 -188 304 0
h 188 -4936 0
h -304 -4936 0
h -4937 -75 173 0
h 75 4937 0
h -173 4937 0
h -4938 -74 172 0
h 74 4938 0
h -172 4938 0
h -4939 -73 171 0
h 73 4939 0
h -171 4939 0
h -4940 -72 170 0
h 72 4940 0
h -170 4940 0
h -4941 -71 169 0
h 71 4941 0
h -169 4941 0
h -4942 -70 168 0
h 70 4942 0
h -168 4942 0
h -4943 -69 167 0
h 69 4943 0
h -167 4943 0
h -4944 -68 166 0
h 68 4944 0
h -166 4944 0
h 4945 -174 -4937 -4938 -4939 -4940 -4941 -4942 -4943 -4944 67 66 65 0
h 174 -4945 0
h 4937 -4945 0
h 4938 -4945 0
h 4939 -4945 0
h 4940 -4945 0
h 4941 -4945 0
h 4942 -4945 0
h 4943 -4945 0
h 4944 -4945 0
h -67 -4945 0
h -66 -4945 0
h -65 -4945 0
h -4946 -176 73 0
h 176 4946 0
h -73 4946 0
h -4947 -175 72 0
h 175 4947 0
h -72 4947 0
h -4948 -174 71 0
h 174 4948 0
h -71 4948 0
h -4949 -173 70 0
h 173 4949 0
h -70 4949 0
h -4950 -172 69 0
h 172 4950 0
h -69 4950 0
h -4951 -171 68 0
h 171 4951 0
h -68 4951 0
h -4952 -170 67 0
h 170 4952 0
h -67 4952 0
h -4953 -169 66 0
h 169 4953 0
h -66 4953 0
h -4954 -168 65 0
h 168 4954 0
h -65 4954 0
h 4955 -74 -4946 -4947 -4948 -4949 -4950 -4951 -4952 -4953 -4954 167 166 0
h 74 -4955 0
h 4946 -4955 0
h 4947 -4955 0
h 4948 -4955 0
h 4949 -4955 0
h 4950 -4955 0
h 4951 -4955 0
h 4952 -4955 0
h 4953 -4955 0
h 4954 -4955 0
h -167 -4955 0
h -166 -4955 0
h 4956 -301 177 0
h 301 -4956 0
h -177 -4956 0
h 4957 -177 301 0
h 177 -4957 0
h -301 -4957 0
h 4958 -302 178 0
h 302 -4958 0
h -178 -4958 0
h 4959 -178 302 0
h 178 -4959 0
h -302 -4959 0
h 4960 -303 179 0
h 303 -4960 0
h -179 -4960 0
h 4961 -179 303 0
h 179 -4961 0
h -303 -4961 0
h 4962 -304 180 0
h 304 -4962 0
h -180 -4962 0
h 4963 -180 304 0
h 180 -4963 0
h -304 -4963 0
h -4964 -203 266 0
h 203 4964 0
h -266 4964 0
h -4965 -202 265 0
h 202 4965 0
h -265 4965 0
h -4966 -201 264 0
h 201 4966 0
h -264 4966 0
h -4967 -200 263 0
h 200 4967 0
h -263 4967 0
h -4968 -199 262 0
h 199 4968 0
h -262 4968 0
h -4969 -198 261 0
h 198 4969 0
h -261 4969 0
h -4970 -197 260 0
h 197 4970 0
h -260 4970 0
h -4971 -196 259 0
h 196 4971 0
h -259 4971 0
h -4972 -195 258 0
h 195 4972 0
h -258 4972 0
h -4973 -194 257 0
h 194 4973 0
h -257 4973 0
h 4974 -267 -4964 -4965 -4966 -4967 -4968 -4969 -4970 -4971 -4972 -4973 193 0
h 267 -4974 0
h 4964 -4974 0
h 4965 -4974 0
h 4966 -4974 0
h 4967 -4974 0
h 4968 -4974 0
h 4969 -4974 0
h 4970 -4974 0
h 4971 -4974 0
h 4972 -4974 0
h 4973 -4974 0
h -193 -4974 0
h -4975 -267 200 0
h 267 4975 0
h -200 4975 0
h -4976 -266 199 0
h 266 4976 0
h -199 4976 0
h -4977 -265 198 0
h 265 4977 0
h -198 4977 0
h -4978 -264 197 0
h 264 4978 0
h -197 4978 0
h -4979 -263 196 0
h 263 4979 0
h -196 4979 0
h -4980 -262 195 0
h 262 4980 0
h -195 4980 0
h -4981 -261 194 0
h 261 4981 0
h -194 4981 0
h -4982 -260 193 0
h 260 4982 0
h -193 4982 0
h 4983 -201 -4975 -4976 -4977 -4978 -4979 -4980 -4981 -4982 259 258 257 0
h 201 -4983 0
h 4975 -4983 0
h 4976 -4983 0
h 4977 -4983 0
h 4978 -4983 0
h 4979 -4983 0
h 4980 -4983 0
h 4981 -4983 0
h 4982 -4983 0
h -259 -4983 0
h -258 -4983 0
h -257 -4983 0
h 4984 -16 342 0
h 16 -4984 0
h -342 -4984 0
h 4985 -342 16 0
h 342 -4985 0
h -16 -4985 0
h 4986 -17 343 0
h 17 -4986 0
h -343 -4986 0
h 4987 -343 17 0
h 343 -4987 0
h -17 -4987 0
h 4988 -18 344 0
h 18 -4988 0
h -344 -4988 0
h 4989 -344 18 0
h 344 -4989 0
h -18 -4989 0
h 4990 -19 345 0
h 19 -4990 0
h -345 -4990 0
h 4991 -345 19 0
h 345 -4991 0
h -19 -4991 0
h -4992 -218 266 0
h 218 4992 0
h -266 4992 0
h -4993 -217 265 0
h 217 4993 0
h -265 4993 0
h -4994 -216 264 0
h 216 4994 0
h -264 4994 0
h -4995 -215 263 0
h 215 4995 0
h -263 4995 0
h -4996 -214 262 0
h 214 4996 0
h -262 4996 0
h -4997 -213 261 0
h 213 4997 0
h -261 4997 0
h -4998 -212 260 0
h 212 4998 0
h -260 4998 0
h -4999 -211 259 0
h 211 4999 0
h -259 4999 0
h -5000 -210 258 0
h 210 5000 0
h -258 5000 0
h -5001 -209 257 0
h 209 5001 0
h -257 5001 0
h 5002 -267 -4992 -4993 -4994 -4995 -4996 -4997 -4998 -4999 -5000 -5001 208 0
h 267 -5002 0
h 4992 -5002 0
h 4993 -5002 0
h 4994 -5002 0
h 4995 -5002 0
h 4996 -5002 0
h 4997 -5002 0
h 4998 -5002 0
h 4999 -5002 0
h 5000 -5002 0
h 5001 -5002 0
h -208 -5002 0
h -5003 -267 215 0
h 267 5003 0
h -215 5003 0
h -5004 -266 214 0
h 266 5004 0
h -214 5004 0
h -5005 -265 213 0
h 265 5005 0
h -213 5005 0
h -5006 -264 212 0
h 264 5006 0
h -212 5006 0
h -5007 -263 211 0
h 263 5007 0
h -211 5007 0
h -5008 -262 210 0
h 262 5008 0
h -210 5008 0
h -5009 -261 209 0
h 261 5009 0
h -209 5009 0
h -5010 -260 208 0
h 260 5010 0
h -208 5010 0
h 5011 -216 -5003 -5004 -5005 -5006 -5007 -5008 -5009 -5010 259 258 257 0
h 216 -5011 0
h 5003 -5011 0
h 5004 -5011 0
h 5005 -5011 0
h 5006 -5011 0
h 5007 -5011 0
h 5008 -5011 0
h 5009 -5011 0
h 5010 -5011 0
h -259 -5011 0
h -258 -5011 0
h -257 -5011 0
h 5012 -16 327 0
h 16 -5012 0
h -327 -5012 0
h 5013 -327 16 0
h 327 -5013 0
h -16 -5013 0
h 5014 -17 328 0
h 17 -5014 0
h -328 -5014 0
h 5015 -328 17 0
h 328 -5015 0
h -17 -5015 0
h 5016 -18 329 0
h 18 -5016 0
h -329 -5016 0
h 5017 -329 18 0
h 329 -5017 0
h -18 -5017 0
h 5018 -19 330 0
h 19 -5018 0
h -330 -5018 0
h 5019 -330 19 0
h 330 -5019 0
h -19 -5019 0
h -5020 -86 266 0
h 86 5020 0
h -266 5020 0
h -5021 -85 265 0
h 85 5021 0
h -265 5021 0
h -5022 -84 264 0
h 84 5022 0
h -264 5022 0
h -5023 -83 263 0
h 83 5023 0
h -263 5023 0
h -5024 -82 262 0
h 82 5024 0
h -262 5024 0
h -5025 -81 261 0
h 81 5025 0
h -261 5025 0
h -5026 -80 260 0
h 80 5026 0
h -260 5026 0
h -5027 -79 259 0
h 79 5027 0
h -259 5027 0
h -5028 -78 258 0
h 78 5028 0
h -258 5028 0
h -5029 -77 257 0
h 77 5029 0
h -257 5029 0
h 5030 -267 -5020 -5021 -5022 -5023 -5024 -5025 -5026 -5027 -5028 -5029 76 0
h 267 -5030 0
h 5020 -5030 0
h 5021 -5030 0
h 5022 -5030 0
h 5023 -5030 0
h 5024 -5030 0
h 5025 -5030 0
h 5026 -5030 0
h 5027 -5030 0
h 5028 -5030 0
h 5029 -5030 0
h -76 -5030 0
h -5031 -267 84 0
h 267 5031 0
h -84 5031 0
h -5032 -266 83 0
h 266 5032 0
h -83 5032 0
h -5033 -265 82 0
h 265 5033 0
h -82 5033 0
h -5034 -264 81 0
h 264 5034 0
h -81 5034 0
h -5035 -263 80 0
h 263 5035 0
h -80 5035 0
h -5036 -262 79 0
h 262 5036 0
h -79 5036 0
h -5037 -261 78 0
h 261 5037 0
h -78 5037 0
h -5038 -260 77 0
h 260 5038 0
h -77 5038 0
h -5039 -259 76 0
h 259 5039 0
h -76 5039 0
h 5040 -85 -5031 -5032 -5033 -5034 -5035 -5036 -5037 -5038 -5039 258 257 0
h 85 -5040 0
h 5031 -5040 0
h 5032 -5040 0
h 5033 -5040 0
h 5034 -5040 0
h 5035 -5040 0
h 5036 -5040 0
h 5037 -5040 0
h 5038 -5040 0
h 5039 -5040 0
h -258 -5040 0
h -257 -5040 0
h 5041 -16 185 0
h 16 -5041 0
h -185 -5041 0
h 5042 -185 16 0
h 185 -5042 0
h -16 -5042 0
h 5043 -17 186 0
h 17 -5043 0
h -186 -5043 0
h 5044 -186 17 0
h 186 -5044 0
h -17 -5044 0
h 5045 -18 187 0
h 18 -5045 0
h -187 -5045 0
h 5046 -187 18 0
h 187 -5046 0
h -18 -5046 0
h 5047 -19 188 0
h 19 -5047 0
h -188 -5047 0
h 5048 -188 19 0
h 188 -5048 0
h -19 -5048 0
h -5049 -75 266 0
h 75 5049 0
h -266 5049 0
h -5050 -74 265 0
h 74 5050 0
h -265 5050 0
h -5051 -73 264 0
h 73 5051 0
h -264 5051 0
h -5052 -72 263 0
h 72 5052 0
h -263 5052 0
h -5053 -71 262 0
h 71 5053 0
h -262 5053 0
h -5054 -70 261 0
h 70 5054 0
h -261 5054 0
h -5055 -69 260 0
h 69 5055 0
h -260 5055 0
h -5056 -68 259 0
h 68 5056 0
h -259 5056 0
h -5057 -67 258 0
h 67 5057 0
h -258 5057 0
h -5058 -66 257 0
h 66 5058 0
h -257 5058 0
h 5059 -267 -5049 -5050 -5051 -5052 -5053 -5054 -5055 -5056 -5057 -5058 65 0
h 267 -5059 0
h 5049 -5059 0
h 5050 -5059 0
h 5051 -5059 0
h 5052 -5059 0
h 5053 -5059 0
h 5054 -5059 0
h 5055 -5059 0
h 5056 -5059 0
h 5057 -5059 0
h 5058 -5059 0
h -65 -5059 0
h -5060 -267 73 0
h 267 5060 0
h -73 5060 0
h -5061 -266 72 0
h 266 5061 0
h -72 5061 0
h -5062 -265 71 0
h 265 5062 0
h -71 5062 0
h -5063 -264 70 0
h 264 5063 0
h -70 5063 0
h -5064 -263 69 0
h 263 5064 0
h -69 5064 0
h -5065 -262 68 0
h 262 5065 0
h -68 5065 0
h -5066 -261 67 0
h 261 5066 0
h -67 5066 0
h -5067 -260 66 0
h 260 5067 0
h -66 5067 0
h -5068 -259 65 0
h 259 5068 0
h -65 5068 0
h 5069 -74 -5060 -5061 -5062 -5063 -5064 -5065 -5066 -5067 -5068 258 257 0
h 74 -5069 0
h 5060 -5069 0
h 5061 -5069 0
h 5062 -5069 0
h 5063 -5069 0
h 5064 -5069 0
h 5065 -5069 0
h 5066 -5069 0
h 5067 -5069 0
h 5068 -5069 0
h -258 -5069 0
h -257 -5069 0
h 5070 -16 177 0
h 16 -5070 0
h -177 -5070 0
h 5071 -177 16 0
h 177 -5071 0
h -16 -5071 0
h 5072 -17 178 0
h 17 -5072 0
h -178 -5072 0
h 5073 -178 17 0
h 178 -5073 0
h -17 -5073 0
h 5074 -18 179 0
h 18 -5074 0
h -179 -5074 0
h 5075 -179 18 0
h 179 -5075 0
h -18 -5075 0
h 5076 -19 180 0
h 19 -5076 0
h -180 -5076 0
h 5077 -180 19 0
h 180 -5077 0
h -19 -5077 0
h -5078 -252 173 0
h 252 5078 0
h -173 5078 0
h -5079 -251 172 0
h 251 5079 0
h -172 5079 0
h -5080 -250 171 0
h 250 5080 0
h -171 5080 0
h -5081 -249 170 0
h 249 5081 0
h -170 5081 0
h -5082 -248 169 0
h 248 5082 0
h -169 5082 0
h -5083 -247 168 0
h 247 5083 0
h -168 5083 0
h -5084 -246 167 0
h 246 5084 0
h -167 5084 0
h -5085 -245 166 0
h 245 5085 0
h -166 5085 0
h 5086 -174 -5078 -5079 -5080 -5081 -5082 -5083 -5084 -5085 244 243 242 0
h 174 -5086 0
h 5078 -5086 0
h 5079 -5086 0
h 5080 -5086 0
h 5081 -5086 0
h 5082 -5086 0
h 5083 -5086 0
h 5084 -5086 0
h 5085 -5086 0
h -244 -5086 0
h -243 -5086 0
h -242 -5086 0
h -5087 -176 249 0
h 176 5087 0
h -249 5087 0
h -5088 -175 248 0
h 175 5088 0
h -248 5088 0
h -5089 -174 247 0
h 174 5089 0
h -247 5089 0
h -5090 -173 246 0
h 173 5090 0
h -246 5090 0
h -5091 -172 245 0
h 172 5091 0
h -245 5091 0
h -5092 -171 244 0
h 171 5092 0
h -244 5092 0
h -5093 -170 243 0
h 170 5093 0
h -243 5093 0
h -5094 -169 242 0
h 169 5094 0
h -242 5094 0
h 5095 -250 -5087 -5088 -5089 -5090 -5091 -5092 -5093 -5094 168 167 166 0
h 250 -5095 0
h 5087 -5095 0
h 5088 -5095 0
h 5089 -5095 0
h 5090 -5095 0
h 5091 -5095 0
h 5092 -5095 0
h 5093 -5095 0
h 5094 -5095 0
h -168 -5095 0
h -167 -5095 0
h -166 -5095 0
h 5096 -301 1 0
h 301 -5096 0
h -1 -5096 0
h 5097 -1 301 0
h 1 -5097 0
h -301 -5097 0
h 5098 -302 2 0
h 302 -5098 0
h -2 -5098 0
h 5099 -2 302 0
h 2 -5099 0
h -302 -5099 0
h 5100 -303 3 0
h 303 -5100 0
h -3 -5100 0
h 5101 -3 303 0
h 3 -5101 0
h -303 -5101 0
h 5102 -304 4 0
h 304 -5102 0
h -4 -5102 0
h 5103 -4 304 0
h 4 -5103 0
h -304 -5103 0
h -5104 -237 173 0
h 237 5104 0
h -173 5104 0
h -5105 -236 172 0
h 236 5105 0
h -172 5105 0
h -5106 -235 171 0
h 235 5106 0
h -171 5106 0
h -5107 -234 170 0
h 234 5107 0
h -170 5107 0
h -5108 -233 169 0
h 233 5108 0
h -169 5108 0
h -5109 -232 168 0
h 232 5109 0
h -168 5109 0
h -5110 -231 167 0
h 231 5110 0
h -167 5110 0
h -5111 -230 166 0
h 230 5111 0
h -166 5111 0
h 5112 -174 -5104 -5105 -5106 -5107 -5108 -5109 -5110 -5111 229 228 227 0
h 174 -5112 0
h 5104 -5112 0
h 5105 -5112 0
h 5106 -5112 0
h 5107 -5112 0
h 5108 -5112 0
h 5109 -5112 0
h 5110 -5112 0
h 5111 -5112 0
h -229 -5112 0
h -228 -5112 0
h -227 -5112 0
h -5113 -176 234 0
h 176 5113 0
h -234 5113 0
h -5114 -175 233 0
h 175 5114 0
h -233 5114 0
h -5115 -174 232 0
h 174 5115 0
h -232 5115 0
h -5116 -173 231 0
h 173 5116 0
h -231 5116 0
h -5117 -172 230 0
h 172 5117 0
h -230 5117 0
h -5118 -171 229 0
h 171 5118 0
h -229 5118 0
h -5119 -170 228 0
h 170 5119 0
h -228 5119 0
h -5120 -169 227 0
h 169 5120 0
h -227 5120 0
h 5121 -235 -5113 -5114 -5115 -5116 -5117 -5118 -5119 -5120 168 167 166 0
h 235 -5121 0
h 5113 -5121 0
h 5114 -5121 0
h 5115 -5121 0
h 5116 -5121 0
h 5117 -5121 0
h 5118 -5121 0
h 5119 -5121 0
h 5120 -5121 0
h -168 -5121 0
h -167 -5121 0
h -166 -5121 0
h 5122 -301 357 0
h 301 -5122 0
h -357 -5122 0
h 5123 -357 301 0
h 357 -5123 0
h -301 -5123 0
h 5124 -302 358 0
h 302 -5124 0
h -358 -5124 0
h 5125 -358 302 0
h 358 -5125 0
h -302 -5125 0
h 5126 -303 359 0
h 303 -5126 0
h -359 -5126 0
h 5127 -359 303 0
h 359 -5127 0
h -303 -5127 0
h 5128 -304 360 0
h 304 -5128 0
h -360 -5128 0
h 5129 -360 304 0
h 360 -5129 0
h -304 -5129 0
h -5130 -130 173 0
h 130 5130 0
h -173 5130 0
h -5131 -129 172 0
h 129 5131 0
h -172 5131 0
h -5132 -128 171 0
h 128 5132 0
h -171 5132 0
h -5133 -127 170 0
h 127 5133 0
h -170 5133 0
h -5134 -126 169 0
h 126 5134 0
h -169 5134 0
h -5135 -125 168 0
h 125 5135 0
h -168 5135 0
h -5136 -124 167 0
h 124 5136 0
h -167 5136 0
h -5137 -123 166 0
h 123 5137 0
h -166 5137 0
h 5138 -174 -5130 -5131 -5132 -5133 -5134 -5135 -5136 -5137 122 121 120 0
h 174 -5138 0
h 5130 -5138 0
h 5131 -5138 0
h 5132 -5138 0
h 5133 -5138 0
h 5134 -5138 0
h 5135 -5138 0
h 5136 -5138 0
h 5137 -5138 0
h -122 -5138 0
h -121 -5138 0
h -120 -5138 0
h -5139 -176 128 0
h 176 5139 0
h -128 5139 0
h -5140 -175 127 0
h 175 5140 0
h -127 5140 0
h -5141 -174 126 0
h 174 5141 0
h -126 5141 0
h -5142 -173 125 0
h 173 5142 0
h -125 5142 0
h -5143 -172 124 0
h 172 5143 0
h -124 5143 0
h -5144 -171 123 0
h 171 5144 0
h -123 5144 0
h -5145 -170 122 0
h 170 5145 0
h -122 5145 0
h -5146 -169 121 0
h 169 5146 0
h -121 5146 0
h -5147 -168 120 0
h 168 5147 0
h -120 5147 0
h 5148 -129 -5139 -5140 -5141 -5142 -5143 -5144 -5145 -5146 -5147 167 166 0
h 129 -5148 0
h 5139 -5148 0
h 5140 -5148 0
h 5141 -5148 0
h 5142 -5148 0
h 5143 -5148 0
h 5144 -5148 0
h 5145 -5148 0
h 5146 -5148 0
h 5147 -5148 0
h -167 -5148 0
h -166 -5148 0
h 5149 -301 219 0
h 301 -5149 0
h -219 -5149 0
h 5150 -219 301 0
h 219 -5150 0
h -301 -5150 0
h 5151 -302 220 0
h 302 -5151 0
h -220 -5151 0
h 5152 -220 302 0
h 220 -5152 0
h -302 -5152 0
h 5153 -303 221 0
h 303 -5153 0
h -221 -5153 0
h 5154 -221 303 0
h 221 -5154 0
h -303 -5154 0
h 5155 -304 222 0
h 304 -5155 0
h -222 -5155 0
h 5156 -222 304 0
h 222 -5156 0
h -304 -5156 0
h -5157 -108 173 0
h 108 5157 0
h -173 5157 0
h -5158 -107 172 0
h 107 5158 0
h -172 5158 0
h -5159 -106 171 0
h 106 5159 0
h -171 5159 0
h -5160 -105 170 0
h 105 5160 0
h -170 5160 0
h -5161 -104 169 0
h 104 5161 0
h -169 5161 0
h -5162 -103 168 0
h 103 5162 0
h -168 5162 0
h -5163 -102 167 0
h 102 5163 0
h -167 5163 0
h -5164 -101 166 0
h 101 5164 0
h -166 5164 0
h 5165 -174 -5157 -5158 -5159 -5160 -5161 -5162 -5163 -5164 100 99 98 0
h 174 -5165 0
h 5157 -5165 0
h 5158 -5165 0
h 5159 -5165 0
h 5160 -5165 0
h 5161 -5165 0
h 5162 -5165 0
h 5163 -5165 0
h 5164 -5165 0
h -100 -5165 0
h -99 -5165 0
h -98 -5165 0
h -5166 -176 106 0
h 176 5166 0
h -106 5166 0
h -5167 -175 105 0
h 175 5167 0
h -105 5167 0
h -5168 -174 104 0
h 174 5168 0
h -104 5168 0
h -5169 -173 103 0
h 173 5169 0
h -103 5169 0
h -5170 -172 102 0
h 172 5170 0
h -102 5170 0
h -5171 -171 101 0
h 171 5171 0
h -101 5171 0
h -5172 -170 100 0
h 170 5172 0
h -100 5172 0
h -5173 -169 99 0
h 169 5173 0
h -99 5173 0
h -5174 -168 98 0
h 168 5174 0
h -98 5174 0
h 5175 -107 -5166 -5167 -5168 -5169 -5170 -5171 -5172 -5173 -5174 167 166 0
h 107 -5175 0
h 5166 -5175 0
h 5167 -5175 0
h 5168 -5175 0
h 5169 -5175 0
h 5170 -5175 0
h 5171 -5175 0
h 5172 -5175 0
h 5173 -5175 0
h 5174 -5175 0
h -167 -5175 0
h -166 -5175 0
h 5176 -301 204 0
h 301 -5176 0
h -204 -5176 0
h 5177 -204 301 0
h 204 -5177 0
h -301 -5177 0
h 5178 -302 205 0
h 302 -5178 0
h -205 -5178 0
h 5179 -205 302 0
h 205 -5179 0
h -302 -5179 0
h 5180 -303 206 0
h 303 -5180 0
h -206 -5180 0
h 5181 -206 303 0
h 206 -5181 0
h -303 -5181 0
h 5182 -304 207 0
h 304 -5182 0
h -207 -5182 0
h 5183 -207 304 0
h 207 -5183 0
h -304 -5183 0
h -5184 -252 266 0
h 252 5184 0
h -266 5184 0
h -5185 -251 265 0
h 251 5185 0
h -265 5185 0
h -5186 -250 264 0
h 250 5186 0
h -264 5186 0
h -5187 -249 263 0
h 249 5187 0
h -263 5187 0
h -5188 -248 262 0
h 248 5188 0
h -262 5188 0
h -5189 -247 261 0
h 247 5189 0
h -261 5189 0
h -5190 -246 260 0
h 246 5190 0
h -260 5190 0
h -5191 -245 259 0
h 245 5191 0
h -259 5191 0
h -5192 -244 258 0
h 244 5192 0
h -258 5192 0
h -5193 -243 257 0
h 243 5193 0
h -257 5193 0
h 5194 -267 -5184 -5185 -5186 -5187 -5188 -5189 -5190 -5191 -5192 -5193 242 0
h 267 -5194 0
h 5184 -5194 0
h 5185 -5194 0
h 5186 -5194 0
h 5187 -5194 0
h 5188 -5194 0
h 5189 -5194 0
h 5190 -5194 0
h 5191 -5194 0
h 5192 -5194 0
h 5193 -5194 0
h -242 -5194 0
h -5195 -267 249 0
h 267 5195 0
h -249 5195 0
h -5196 -266 248 0
h 266 5196 0
h -248 5196 0
h -5197 -265 247 0
h 265 5197 0
h -247 5197 0
h -5198 -264 246 0
h 264 5198 0
h -246 5198 0
h -5199 -263 245 0
h 263 5199 0
h -245 5199 0
h -5200 -262 244 0
h 262 5200 0
h -244 5200 0
h -5201 -261 243 0
h 261 5201 0
h -243 5201 0
h -5202 -260 242 0
h 260 5202 0
h -242 5202 0
h 5203 -250 -5195 -5196 -5197 -5198 -5199 -5200 -5201 -5202 259 258 257 0
h 250 -5203 0
h 5195 -5203 0
h 5196 -5203 0
h 5197 -5203 0
h 5198 -5203 0
h 5199 -5203 0
h 5200 -5203 0
h 5201 -5203 0
h 5202 -5203 0
h -259 -5203 0
h -258 -5203 0
h -257 -5203 0
h 5204 -16 1 0
h 16 -5204 0
h -1 -5204 0
h 5205 -1 16 0
h 1 -5205 0
h -16 -5205 0
h 5206 -17 2 0
h 17 -5206 0
h -2 -5206 0
h 5207 -2 17 0
h 2 -5207 0
h -17 -5207 0
h 5208 -18 3 0
h 18 -5208 0
h -3 -5208 0
h 5209 -3 18 0
h 3 -5209 0
h -18 -5209 0
h 5210 -19 4 0
h 19 -5210 0
h -4 -5210 0
h 5211 -4 19 0
h 4 -5211 0
h -19 -5211 0
h -5212 -237 266 0
h 237 5212 0
h -266 5212 0
h -5213 -236 265 0
h 236 5213 0
h -265 5213 0
h -5214 -235 264 0
h 235 5214 0
h -264 5214 0
h -5215 -234 263 0
h 234 5215 0
h -263 5215 0
h -5216 -233 262 0
h 233 5216 0
h -262 5216 0
h -5217 -232 261 0
h 232 5217 0
h -261 5217 0
h -5218 -231 260 0
h 231 5218 0
h -260 5218 0
h -5219 -230 259 0
h 230 5219 0
h -259 5219 0
h -5220 -229 258 0
h 229 5220 0
h -258 5220 0
h -5221 -228 257 0
h 228 5221 0
h -257 5221 0
h 5222 -267 -5212 -5213 -5214 -5215 -5216 -5217 -5218 -5219 -5220 -5221 227 0
h 267 -5222 0
h 5212 -5222 0
h 5213 -5222 0
h 5214 -5222 0
h 5215 -5222 0
h 5216 -5222 0
h 5217 -5222 0
h 5218 -5222 0
h 5219 -5222 0
h 5220 -5222 0
h 5221 -5222 0
h -227 -5222 0
h -5223 -267 234 0
h 267 5223 0
h -234 5223 0
h -5224 -266 233 0
h 266 5224 0
h -233 5224 0
h -5225 -265 232 0
h 265 5225 0
h -232 5225 0
h -5226 -264 231 0
h 264 5226 0
h -231 5226 0
h -5227 -263 230 0
h 263 5227 0
h -230 5227 0
h -5228 -262 229 0
h 262 5228 0
h -229 5228 0
h -5229 -261 228 0
h 261 5229 0
h -228 5229 0
h -5230 -260 227 0
h 260 5230 0
h -227 5230 0
h 5231 -235 -5223 -5224 -5225 -5226 -5227 -5228 -5229 -5230 259 258 257 0
h 235 -5231 0
h 5223 -5231 0
h 5224 -5231 0
h 5225 -5231 0
h 5226 -5231 0
h 5227 -5231 0
h 5228 -5231 0
h 5229 -5231 0
h 5230 -5231 0
h -259 -5231 0
h -258 -5231 0
h -257 -5231 0
h 5232 -16 357 0
h 16 -5232 0
h -357 -5232 0
h 5233 -357 16 0
h 357 -5233 0
h -16 -5233 0
h 5234 -17 358 0
h 17 -5234 0
h -358 -5234 0
h 5235 -358 17 0
h 358 -5235 0
h -17 -5235 0
h 5236 -18 359 0
h 18 -5236 0
h -359 -5236 0
h 5237 -359 18 0
h 359 -5237 0
h -18 -5237 0
h 5238 -19 360 0
h 19 -5238 0
h -360 -5238 0
h 5239 -360 19 0
h 360 -5239 0
h -19 -5239 0
h -5240 -130 266 0
h 130 5240 0
h -266 5240 0
h -5241 -129 265 0
h 129 5241 0
h -265 5241 0
h -5242 -128 264 0
h 128 5242 0
h -264 5242 0
h -5243 -127 263 0
h 127 5243 0
h -263 5243 0
h -5244 -126 262 0
h 126 5244 0
h -262 5244 0
h -5245 -125 261 0
h 125 5245 0
h -261 5245 0
h -5246 -124 260 0
h 124 5246 0
h -260 5246 0
h -5247 -123 259 0
h 123 5247 0
h -259 5247 0
h -5248 -122 258 0
h 122 5248 0
h -258 5248 0
h -5249 -121 257 0
h 121 5249 0
h -257 5249 0
h 5250 -267 -5240 -5241 -5242 -5243 -5244 -5245 -5246 -5247 -5248 -5249 120 0
h 267 -5250 0
h 5240 -5250 0
h 5241 -5250 0
h 5242 -5250 0
h 5243 -5250 0
h 5244 -5250 0
h 5245 -5250 0
h 5246 -5250 0
h 5247 -5250 0
h 5248 -5250 0
h 5249 -5250 0
h -120 -5250 0
h -5251 -267 128 0
h 267 5251 0
h -128 5251 0
h -5252 -266 127 0
h 266 5252 0
h -127 5252 0
h -5253 -265 126 0
h 265 5253 0
h -126 5253 0
h -5254 -264 125 0
h 264 5254 0
h -125 5254 0
h -5255 -263 124 0
h 263 5255 0
h -124 5255 0
h -5256 -262 123 0
h 262 5256 0
h -123 5256 0
h -5257 -261 122 0
h 261 5257 0
h -122 5257 0
h -5258 -260 121 0
h 260 5258 0
h -121 5258 0
h -5259 -259 120 0
h 259 5259 0
h -120 5259 0
h 5260 -129 -5251 -5252 -5253 -5254 -5255 -5256 -5257 -5258 -5259 258 257 0
h 129 -5260 0
h 5251 -5260 0
h 5252 -5260 0
h 5253 -5260 0
h 5254 -5260 0
h 5255 -5260 0
h 5256 -5260 0
h 5257 -5260 0
h 5258 -5260 0
h 5259 -5260 0
h -258 -5260 0
h -257 -5260 0
h 5261 -16 219 0
h 16 -5261 0
h -219 -5261 0
h 5262 -219 16 0
h 219 -5262 0
h -16 -5262 0
h 5263 -17 220 0
h 17 -5263 0
h -220 -5263 0
h 5264 -220 17 0
h 220 -5264 0
h -17 -5264 0
h 5265 -18 221 0
h 18 -5265 0
h -221 -5265 0
h 5266 -221 18 0
h 221 -5266 0
h -18 -5266 0
h 5267 -19 222 0
h 19 -5267 0
h -222 -5267 0
h 5268 -222 19 0
h 222 -5268 0
h -19 -5268 0
h -5269 -108 266 0
h 108 5269 0
h -266 5269 0
h -5270 -107 265 0
h 107 5270 0
h -265 5270 0
h -5271 -106 264 0
h 106 5271 0
h -264 5271 0
h -5272 -105 263 0
h 105 5272 0
h -263 5272 0
h -5273 -104 262 0
h 104 5273 0
h -262 5273 0
h -5274 -103 261 0
h 103 5274 0
h -261 5274 0
h -5275 -102 260 0
h 102 5275 0
h -260 5275 0
h -5276 -101 259 0
h 101 5276 0
h -259 5276 0
h -5277 -100 258 0
h 100 5277 0
h -258 5277 0
h -5278 -99 257 0
h 99 5278 0
h -257 5278 0
h 5279 -267 -5269 -5270 -5271 -5272 -5273 -5274 -5275 -5276 -5277 -5278 98 0
h 267 -5279 0
h 5269 -5279 0
h 5270 -5279 0
h 5271 -5279 0
h 5272 -5279 0
h 5273 -5279 0
h 5274 -5279 0
h 5275 -5279 0
h 5276 -5279 0
h 5277 -5279 0
h 5278 -5279 0
h -98 -5279 0
h -5280 -267 106 0
h 267 5280 0
h -106 5280 0
h -5281 -266 105 0
h 266 5281 0
h -105 5281 0
h -5282 -265 104 0
h 265 5282 0
h -104 5282 0
h -5283 -264 103 0
h 264 5283 0
h -103 5283 0
h -5284 -263 102 0
h 263 5284 0
h -102 5284 0
h -5285 -262 101 0
h 262 5285 0
h -101 5285 0
h -5286 -261 100 0
h 261 5286 0
h -100 5286 0
h -5287 -260 99 0
h 260 5287 0
h -99 5287 0
h -5288 -259 98 0
h 259 5288 0
h -98 5288 0
h 5289 -107 -5280 -5281 -5282 -5283 -5284 -5285 -5286 -5287 -5288 258 257 0
h 107 -5289 0
h 5280 -5289 0
h 5281 -5289 0
h 5282 -5289 0
h 5283 -5289 0
h 5284 -5289 0
h 5285 -5289 0
h 5286 -5289 0
h 5287 -5289 0
h 5288 -5289 0
h -258 -5289 0
h -257 -5289 0
h 5290 -16 204 0
h 16 -5290 0
h -204 -5290 0
h 5291 -204 16 0
h 204 -5291 0
h -16 -5291 0
h 5292 -17 205 0
h 17 -5292 0
h -205 -5292 0
h 5293 -205 17 0
h 205 -5293 0
h -17 -5293 0
h 5294 -18 206 0
h 18 -5294 0
h -206 -5294 0
h 5295 -206 18 0
h 206 -5295 0
h -18 -5295 0
h 5296 -19 207 0
h 19 -5296 0
h -207 -5296 0
h 5297 -207 19 0
h 207 -5297 0
h -19 -5297 0
h -5298 -56 173 0
h 56 5298 0
h -173 5298 0
h -5299 -55 172 0
h 55 5299 0
h -172 5299 0
h -5300 -54 171 0
h 54 5300 0
h -171 5300 0
h -5301 -53 170 0
h 53 5301 0
h -170 5301 0
h -5302 -52 169 0
h 52 5302 0
h -169 5302 0
h -5303 -51 168 0
h 51 5303 0
h -168 5303 0
h -5304 -50 167 0
h 50 5304 0
h -167 5304 0
h -5305 -49 166 0
h 49 5305 0
h -166 5305 0
h 5306 -174 -5298 -5299 -5300 -5301 -5302 -5303 -5304 -5305 48 47 46 0
h 174 -5306 0
h 5298 -5306 0
h 5299 -5306 0
h 5300 -5306 0
h 5301 -5306 0
h 5302 -5306 0
h 5303 -5306 0
h 5304 -5306 0
h 5305 -5306 0
h -48 -5306 0
h -47 -5306 0
h -46 -5306 0
h -5307 -176 53 0
h 176 5307 0
h -53 5307 0
h -5308 -175 52 0
h 175 5308 0
h -52 5308 0
h -5309 -174 51 0
h 174 5309 0
h -51 5309 0
h -5310 -173 50 0
h 173 5310 0
h -50 5310 0
h -5311 -172 49 0
h 172 5311 0
h -49 5311 0
h -5312 -171 48 0
h 171 5312 0
h -48 5312 0
h -5313 -170 47 0
h 170 5313 0
h -47 5313 0
h -5314 -169 46 0
h 169 5314 0
h -46 5314 0
h 5315 -54 -5307 -5308 -5309 -5310 -5311 -5312 -5313 -5314 168 167 166 0
h 54 -5315 0
h 5307 -5315 0
h 5308 -5315 0
h 5309 -5315 0
h 5310 -5315 0
h 5311 -5315 0
h 5312 -5315 0
h 5313 -5315 0
h 5314 -5315 0
h -168 -5315 0
h -167 -5315 0
h -166 -5315 0
h 5316 -301 189 0
h 301 -5316 0
h -189 -5316 0
h 5317 -189 301 0
h 189 -5317 0
h -301 -5317 0
h 5318 -302 190 0
h 302 -5318 0
h -190 -5318 0
h 5319 -190 302 0
h 190 -5319 0
h -302 -5319 0
h 5320 -303 191 0
h 303 -5320 0
h -191 -5320 0
h 5321 -191 303 0
h 191 -5321 0
h -303 -5321 0
h 5322 -304 192 0
h 304 -5322 0
h -192 -5322 0
h 5323 -192 304 0
h 192 -5323 0
h -304 -5323 0
h -5324 -41 173 0
h 41 5324 0
h -173 5324 0
h -5325 -40 172 0
h 40 5325 0
h -172 5325 0
h -5326 -39 171 0
h 39 5326 0
h -171 5326 0
h -5327 -38 170 0
h 38 5327 0
h -170 5327 0
h -5328 -37 169 0
h 37 5328 0
h -169 5328 0
h -5329 -36 168 0
h 36 5329 0
h -168 5329 0
h -5330 -35 167 0
h 35 5330 0
h -167 5330 0
h -5331 -34 166 0
h 34 5331 0
h -166 5331 0
h 5332 -174 -5324 -5325 -5326 -5327 -5328 -5329 -5330 -5331 33 32 31 0
h 174 -5332 0
h 5324 -5332 0
h 5325 -5332 0
h 5326 -5332 0
h 5327 -5332 0
h 5328 -5332 0
h 5329 -5332 0
h 5330 -5332 0
h 5331 -5332 0
h -33 -5332 0
h -32 -5332 0
h -31 -5332 0
h -5333 -176 40 0
h 176 5333 0
h -40 5333 0
h -5334 -175 39 0
h 175 5334 0
h -39 5334 0
h -5335 -174 38 0
h 174 5335 0
h -38 5335 0
h -5336 -173 37 0
h 173 5336 0
h -37 5336 0
h -5337 -172 36 0
h 172 5337 0
h -36 5337 0
h -5338 -171 35 0
h 171 5338 0
h -35 5338 0
h -5339 -170 34 0
h 170 5339 0
h -34 5339 0
h -5340 -169 33 0
h 169 5340 0
h -33 5340 0
h -5341 -168 32 0
h 168 5341 0
h -32 5341 0
h -5342 -167 31 0
h 167 5342 0
h -31 5342 0
h 5343 -41 -5333 -5334 -5335 -5336 -5337 -5338 -5339 -5340 -5341 -5342 166 0
h 41 -5343 0
h 5333 -5343 0
h 5334 -5343 0
h 5335 -5343 0
h 5336 -5343 0
h 5337 -5343 0
h 5338 -5343 0
h 5339 -5343 0
h 5340 -5343 0
h 5341 -5343 0
h 5342 -5343 0
h -166 -5343 0
h 5344 -301 181 0
h 301 -5344 0
h -181 -5344 0
h 5345 -181 301 0
h 181 -5345 0
h -301 -5345 0
h 5346 -302 182 0
h 302 -5346 0
h -182 -5346 0
h 5347 -182 302 0
h 182 -5347 0
h -302 -5347 0
h 5348 -303 183 0
h 303 -5348 0
h -183 -5348 0
h 5349 -183 303 0
h 183 -5349 0
h -303 -5349 0
h 5350 -304 184 0
h 304 -5350 0
h -184 -5350 0
h 5351 -184 304 0
h 184 -5351 0
h -304 -5351 0
h -5352 -56 266 0
h 56 5352 0
h -266 5352 0
h -5353 -55 265 0
h 55 5353 0
h -265 5353 0
h -5354 -54 264 0
h 54 5354 0
h -264 5354 0
h -5355 -53 263 0
h 53 5355 0
h -263 5355 0
h -5356 -52 262 0
h 52 5356 0
h -262 5356 0
h -5357 -51 261 0
h 51 5357 0
h -261 5357 0
h -5358 -50 260 0
h 50 5358 0
h -260 5358 0
h -5359 -49 259 0
h 49 5359 0
h -259 5359 0
h -5360 -48 258 0
h 48 5360 0
h -258 5360 0
h -5361 -47 257 0
h 47 5361 0
h -257 5361 0
h 5362 -267 -5352 -5353 -5354 -5355 -5356 -5357 -5358 -5359 -5360 -5361 46 0
h 267 -5362 0
h 5352 -5362 0
h 5353 -5362 0
h 5354 -5362 0
h 5355 -5362 0
h 5356 -5362 0
h 5357 -5362 0
h 5358 -5362 0
h 5359 -5362 0
h 5360 -5362 0
h 5361 -5362 0
h -46 -5362 0
h -5363 -267 53 0
h 267 5363 0
h -53 5363 0
h -5364 -266 52 0
h 266 5364 0
h -52 5364 0
h -5365 -265 51 0
h 265 5365 0
h -51 5365 0
h -5366 -264 50 0
h 264 5366 0
h -50 5366 0
h -5367 -263 49 0
h 263 5367 0
h -49 5367 0
h -5368 -262 48 0
h 262 5368 0
h -48 5368 0
h -5369 -261 47 0
h 261 5369 0
h -47 5369 0
h -5370 -260 46 0
h 260 5370 0
h -46 5370 0
h 5371 -54 -5363 -5364 -5365 -5366 -5367 -5368 -5369 -5370 259 258 257 0
h 54 -5371 0
h 5363 -5371 0
h 5364 -5371 0
h 5365 -5371 0
h 5366 -5371 0
h 5367 -5371 0
h 5368 -5371 0
h 5369 -5371 0
h 5370 -5371 0
h -259 -5371 0
h -258 -5371 0
h -257 -5371 0
h 5372 -16 189 0
h 16 -5372 0
h -189 -5372 0
h 5373 -189 16 0
h 189 -5373 0
h -16 -5373 0
h 5374 -17 190 0
h 17 -5374 0
h -190 -5374 0
h 5375 -190 17 0
h 190 -5375 0
h -17 -5375 0
h 5376 -18 191 0
h 18 -5376 0
h -191 -5376 0
h 5377 -191 18 0
h 191 -5377 0
h -18 -5377 0
h 5378 -19 192 0
h 19 -5378 0
h -192 -5378 0
h 5379 -192 19 0
h 192 -5379 0
h -19 -5379 0
h -5380 -41 266 0
h 41 5380 0
h -266 5380 0
h -5381 -40 265 0
h 40 5381 0
h -265 5381 0
h -5382 -39 264 0
h 39 5382 0
h -264 5382 0
h -5383 -38 263 0
h 38 5383 0
h -263 5383 0
h -5384 -37 262 0
h 37 5384 0
h -262 5384 0
h -5385 -36 261 0
h 36 5385 0
h -261 5385 0
h -5386 -35 260 0
h 35 5386 0
h -260 5386 0
h -5387 -34 259 0
h 34 5387 0
h -259 5387 0
h -5388 -33 258 0
h 33 5388 0
h -258 5388 0
h -5389 -32 257 0
h 32 5389 0
h -257 5389 0
h 5390 -267 -5380 -5381 -5382 -5383 -5384 -5385 -5386 -5387 -5388 -5389 31 0
h 267 -5390 0
h 5380 -5390 0
h 5381 -5390 0
h 5382 -5390 0
h 5383 -5390 0
h 5384 -5390 0
h 5385 -5390 0
h 5386 -5390 0
h 5387 -5390 0
h 5388 -5390 0
h 5389 -5390 0
h -31 -5390 0
h -5391 -267 40 0
h 267 5391 0
h -40 5391 0
h -5392 -266 39 0
h 266 5392 0
h -39 5392 0
h -5393 -265 38 0
h 265 5393 0
h -38 5393 0
h -5394 -264 37 0
h 264 5394 0
h -37 5394 0
h -5395 -263 36 0
h 263 5395 0
h -36 5395 0
h -5396 -262 35 0
h 262 5396 0
h -35 5396 0
h -5397 -261 34 0
h 261 5397 0
h -34 5397 0
h -5398 -260 33 0
h 260 5398 0
h -33 5398 0
h -5399 -259 32 0
h 259 5399 0
h -32 5399 0
h -5400 -258 31 0
h 258 5400 0
h -31 5400 0
h 5401 -41 -5391 -5392 -5393 -5394 -5395 -5396 -5397 -5398 -5399 -5400 257 0
h 41 -5401 0
h 5391 -5401 0
h 5392 -5401 0
h 5393 -5401 0
h 5394 -5401 0
h 5395 -5401 0
h 5396 -5401 0
h 5397 -5401 0
h 5398 -5401 0
h 5399 -5401 0
h 5400 -5401 0
h -257 -5401 0
h 5402 -16 181 0
h 16 -5402 0
h -181 -5402 0
h 5403 -181 16 0
h 181 -5403 0
h -16 -5403 0
h 5404 -17 182 0
h 17 -5404 0
h -182 -5404 0
h 5405 -182 17 0
h 182 -5405 0
h -17 -5405 0
h 5406 -18 183 0
h 18 -5406 0
h -183 -5406 0
h 5407 -183 18 0
h 183 -5407 0
h -18 -5407 0
h 5408 -19 184 0
h 19 -5408 0
h -184 -5408 0
h 5409 -184 19 0
h 184 -5409 0
h -19 -5409 0
h -5410 -30 173 0
h 30 5410 0
h -173 5410 0
h -5411 -29 172 0
h 29 5411 0
h -172 5411 0
h -5412 -28 171 0
h 28 5412 0
h -171 5412 0
h -5413 -27 170 0
h 27 5413 0
h -170 5413 0
h -5414 -26 169 0
h 26 5414 0
h -169 5414 0
h -5415 -25 168 0
h 25 5415 0
h -168 5415 0
h -5416 -24 167 0
h 24 5416 0
h -167 5416 0
h -5417 -23 166 0
h 23 5417 0
h -166 5417 0
h 5418 -174 -5410 -5411 -5412 -5413 -5414 -5415 -5416 -5417 22 21 20 0
h 174 -5418 0
h 5410 -5418 0
h 5411 -5418 0
h 5412 -5418 0
h 5413 -5418 0
h 5414 -5418 0
h 5415 -5418 0
h 5416 -5418 0
h 5417 -5418 0
h -22 -5418 0
h -21 -5418 0
h -20 -5418 0
h -5419 -176 28 0
h 176 5419 0
h -28 5419 0
h -5420 -175 27 0
h 175 5420 0
h -27 5420 0
h -5421 -174 26 0
h 174 5421 0
h -26 5421 0
h -5422 -173 25 0
h 173 5422 0
h -25 5422 0
h -5423 -172 24 0
h 172 5423 0
h -24 5423 0
h -5424 -171 23 0
h 171 5424 0
h -23 5424 0
h -5425 -170 22 0
h 170 5425 0
h -22 5425 0
h -5426 -169 21 0
h 169 5426 0
h -21 5426 0
h -5427 -168 20 0
h 168 5427 0
h -20 5427 0
h 5428 -29 -5419 -5420 -5421 -5422 -5423 -5424 -5425 -5426 -5427 167 166 0
h 29 -5428 0
h 5419 -5428 0
h 5420 -5428 0
h 5421 -5428 0
h 5422 -5428 0
h 5423 -5428 0
h 5424 -5428 0
h 5425 -5428 0
h 5426 -5428 0
h 5427 -5428 0
h -167 -5428 0
h -166 -5428 0
h 5429 -301 162 0
h 301 -5429 0
h -162 -5429 0
h 5430 -162 301 0
h 162 -5430 0
h -301 -5430 0
h 5431 -302 163 0
h 302 -5431 0
h -163 -5431 0
h 5432 -163 302 0
h 163 -5432 0
h -302 -5432 0
h 5433 -303 164 0
h 303 -5433 0
h -164 -5433 0
h 5434 -164 303 0
h 164 -5434 0
h -303 -5434 0
h 5435 -304 165 0
h 304 -5435 0
h -165 -5435 0
h 5436 -165 304 0
h 165 -5436 0
h -304 -5436 0
h -5437 5418 5428 5429 5430 5431 5432 5433 5434 5435 5436 0
h -5418 5437 0
h -5428 5437 0
h -5429 5437 0
h -5430 5437 0
h -5431 5437 0
h -5432 5437 0
h -5433 5437 0
h -5434 5437 0
h -5435 5437 0
h -5436 5437 0
h -5438 -15 173 0
h 15 5438 0
h -173 5438 0
h -5439 -14 172 0
h 14 5439 0
h -172 5439 0
h -5440 -13 171 0
h 13 5440 0
h -171 5440 0
h -5441 -12 170 0
h 12 5441 0
h -170 5441 0
h -5442 -11 169 0
h 11 5442 0
h -169 5442 0
h -5443 -10 168 0
h 10 5443 0
h -168 5443 0
h -5444 -9 167 0
h 9 5444 0
h -167 5444 0
h -5445 -8 166 0
h 8 5445 0
h -166 5445 0
h 5446 -174 -5438 -5439 -5440 -5441 -5442 -5443 -5444 -5445 7 6 5 0
h 174 -5446 0
h 5438 -5446 0
h 5439 -5446 0
h 5440 -5446 0
h 5441 -5446 0
h 5442 -5446 0
h 5443 -5446 0
h 5444 -5446 0
h 5445 -5446 0
h -7 -5446 0
h -6 -5446 0
h -5 -5446 0
h -5447 -176 13 0
h 176 5447 0
h -13 5447 0
h -5448 -175 12 0
h 175 5448 0
h -12 5448 0
h -5449 -174 11 0
h 174 5449 0
h -11 5449 0
h -5450 -173 10 0
h 173 5450 0
h -10 5450 0
h -5451 -172 9 0
h 172 5451 0
h -9 5451 0
h -5452 -171 8 0
h 171 5452 0
h -8 5452 0
h -5453 -170 7 0
h 170 5453 0
h -7 5453 0
h -5454 -169 6 0
h 169 5454 0
h -6 5454 0
h -5455 -168 5 0
h 168 5455 0
h -5 5455 0
h 5456 -14 -5447 -5448 -5449 -5450 -5451 -5452 -5453 -5454 -5455 167 166 0
h 14 -5456 0
h 5447 -5456 0
h 5448 -5456 0
h 5449 -5456 0
h 5450 -5456 0
h 5451 -5456 0
h 5452 -5456 0
h 5453 -5456 0
h 5454 -5456 0
h 5455 -5456 0
h -167 -5456 0
h -166 -5456 0
h 5457 -301 158 0
h 301 -5457 0
h -158 -5457 0
h 5458 -158 301 0
h 158 -5458 0
h -301 -5458 0
h 5459 -302 159 0
h 302 -5459 0
h -159 -5459 0
h 5460 -159 302 0
h 159 -5460 0
h -302 -5460 0
h 5461 -303 160 0
h 303 -5461 0
h -160 -5461 0
h 5462 -160 303 0
h 160 -5462 0
h -303 -5462 0
h 5463 -304 161 0
h 304 -5463 0
h -161 -5463 0
h 5464 -161 304 0
h 161 -5464 0
h -304 -5464 0
h -5465 5446 5456 5457 5458 5459 5460 5461 5462 5463 5464 0
h -5446 5465 0
h -5456 5465 0
h -5457 5465 0
h -5458 5465 0
h -5459 5465 0
h -5460 5465 0
h -5461 5465 0
h -5462 5465 0
h -5463 5465 0
h -5464 5465 0
h -5466 -30 266 0
h 30 5466 0
h -266 5466 0
h -5467 -29 265 0
h 29 5467 0
h -265 5467 0
h -5468 -28 264 0
h 28 5468 0
h -264 5468 0
h -5469 -27 263 0
h 27 5469 0
h -263 5469 0
h -5470 -26 262 0
h 26 5470 0
h -262 5470 0
h -5471 -25 261 0
h 25 5471 0
h -261 5471 0
h -5472 -24 260 0
h 24 5472 0
h -260 5472 0
h -5473 -23 259 0
h 23 5473 0
h -259 5473 0
h -5474 -22 258 0
h 22 5474 0
h -258 5474 0
h -5475 -21 257 0
h 21 5475 0
h -257 5475 0
h 5476 -267 -5466 -5467 -5468 -5469 -5470 -5471 -5472 -5473 -5474 -5475 20 0
h 267 -5476 0
h 5466 -5476 0
h 5467 -5476 0
h 5468 -5476 0
h 5469 -5476 0
h 5470 -5476 0
h 5471 -5476 0
h 5472 -5476 0
h 5473 -5476 0
h 5474 -5476 0
h 5475 -5476 0
h -20 -5476 0
h -5477 -267 28 0
h 267 5477 0
h -28 5477 0
h -5478 -266 27 0
h 266 5478 0
h -27 5478 0
h -5479 -265 26 0
h 265 5479 0
h -26 5479 0
h -5480 -264 25 0
h 264 5480 0
h -25 5480 0
h -5481 -263 24 0
h 263 5481 0
h -24 5481 0
h -5482 -262 23 0
h 262 5482 0
h -23 5482 0
h -5483 -261 22 0
h 261 5483 0
h -22 5483 0
h -5484 -260 21 0
h 260 5484 0
h -21 5484 0
h -5485 -259 20 0
h 259 5485 0
h -20 5485 0
h 5486 -29 -5477 -5478 -5479 -5480 -5481 -5482 -5483 -5484 -5485 258 257 0
h 29 -5486 0
h 5477 -5486 0
h 5478 -5486 0
h 5479 -5486 0
h 5480 -5486 0
h 5481 -5486 0
h 5482 -5486 0
h 5483 -5486 0
h 5484 -5486 0
h 5485 -5486 0
h -258 -5486 0
h -257 -5486 0
h 5487 -16 162 0
h 16 -5487 0
h -162 -5487 0
h 5488 -162 16 0
h 162 -5488 0
h -16 -5488 0
h 5489 -17 163 0
h 17 -5489 0
h -163 -5489 0
h 5490 -163 17 0
h 163 -5490 0
h -17 -5490 0
h 5491 -18 164 0
h 18 -5491 0
h -164 -5491 0
h 5492 -164 18 0
h 164 -5492 0
h -18 -5492 0
h 5493 -19 165 0
h 19 -5493 0
h -165 -5493 0
h 5494 -165 19 0
h 165 -5494 0
h -19 -5494 0
h -5495 5476 5486 5487 5488 5489 5490 5491 5492 5493 5494 0
h -5476 5495 0
h -5486 5495 0
h -5487 5495 0
h -5488 5495 0
h -5489 5495 0
h -5490 5495 0
h -5491 5495 0
h -5492 5495 0
h -5493 5495 0
h -5494 5495 0
h -5496 -15 266 0
h 15 5496 0
h -266 5496 0
h -5497 -14 265 0
h 14 5497 0
h -265 5497 0
h -5498 -13 264 0
h 13 5498 0
h -264 5498 0
h -5499 -12 263 0
h 12 5499 0
h -263 5499 0
h -5500 -11 262 0
h 11 5500 0
h -262 5500 0
h -5501 -10 261 0
h 10 5501 0
h -261 5501 0
h -5502 -9 260 0
h 9 5502 0
h -260 5502 0
h -5503 -8 259 0
h 8 5503 0
h -259 5503 0
h -5504 -7 258 0
h 7 5504 0
h -258 5504 0
h -5505 -6 257 0
h 6 5505 0
h -257 5505 0
h 5506 -267 -5496 -5497 -5498 -5499 -5500 -5501 -5502 -5503 -5504 -5505 5 0
h 267 -5506 0
h 5496 -5506 0
h 5497 -5506 0
h 5498 -5506 0
h 5499 -5506 0
h 5500 -5506 0
h 5501 -5506 0
h 5502 -5506 0
h 5503 -5506 0
h 5504 -5506 0
h 5505 -5506 0
h -5 -5506 0
h -5507 -267 13 0
h 267 5507 0
h -13 5507 0
h -5508 -266 12 0
h 266 5508 0
h -12 5508 0
h -5509 -265 11 0
h 265 5509 0
h -11 5509 0
h -5510 -264 10 0
h 264 5510 0
h -10 5510 0
h -5511 -263 9 0
h 263 5511 0
h -9 5511 0
h -5512 -262 8 0
h 262 5512 0
h -8 5512 0
h -5513 -261 7 0
h 261 5513 0
h -7 5513 0
h -5514 -260 6 0
h 260 5514 0
h -6 5514 0
h -5515 -259 5 0
h 259 5515 0
h -5 5515 0
h 5516 -14 -5507 -5508 -5509 -5510 -5511 -5512 -5513 -5514 -5515 258 257 0
h 14 -5516 0
h 5507 -5516 0
h 5508 -5516 0
h 5509 -5516 0
h 5510 -5516 0
h 5511 -5516 0
h 5512 -5516 0
h 5513 -5516 0
h 5514 -5516 0
h 5515 -5516 0
h -258 -5516 0
h -257 -5516 0
h 5517 -16 158 0
h 16 -5517 0
h -158 -5517 0
h 5518 -158 16 0
h 158 -5518 0
h -16 -5518 0
h 5519 -17 159 0
h 17 -5519 0
h -159 -5519 0
h 5520 -159 17 0
h 159 -5520 0
h -17 -5520 0
h 5521 -18 160 0
h 18 -5521 0
h -160 -5521 0
h 5522 -160 18 0
h 160 -5522 0
h -18 -5522 0
h 5523 -19 161 0
h 19 -5523 0
h -161 -5523 0
h 5524 -161 19 0
h 161 -5524 0
h -19 -5524 0
h -5525 5506 5516 5517 5518 5519 5520 5521 5522 5523 5524 0
h -5506 5525 0
h -5516 5525 0
h -5517 5525 0
h -5518 5525 0
h -5519 5525 0
h -5520 5525 0
h -5521 5525 0
h -5522 5525 0
h -5523 5525 0
h -5524 5525 0
h 5526 -5437 -5465 -5495 -5525 0
h 5437 -5526 0
h 5465 -5526 0
h 5495 -5526 0
h 5525 -5526 0
h 5527 -30 173 0
h 30 -5527 0
h -173 -5527 0
h 5528 -29 172 0
h 29 -5528 0
h -172 -5528 0
h 5529 -28 171 0
h 28 -5529 0
h -171 -5529 0
h 5530 -27 170 0
h 27 -5530 0
h -170 -5530 0
h 5531 -26 169 0
h 26 -5531 0
h -169 -5531 0
h 5532 -25 168 0
h 25 -5532 0
h -168 -5532 0
h 5533 -24 167 0
h 24 -5533 0
h -167 -5533 0
h 5534 -23 166 0
h 23 -5534 0
h -166 -5534 0
h -5535 -174 5527 5528 5529 5530 5531 5532 5533 5534 22 21 20 0
h 174 5535 0
h -5527 5535 0
h -5528 5535 0
h -5529 5535 0
h -5530 5535 0
h -5531 5535 0
h -5532 5535 0
h -5533 5535 0
h -5534 5535 0
h -22 5535 0
h -21 5535 0
h -20 5535 0
h 5536 -176 28 0
h 176 -5536 0
h -28 -5536 0
h 5537 -175 27 0
h 175 -5537 0
h -27 -5537 0
h 5538 -174 26 0
h 174 -5538 0
h -26 -5538 0
h 5539 -173 25 0
h 173 -5539 0
h -25 -5539 0
h 5540 -172 24 0
h 172 -5540 0
h -24 -5540 0
h 5541 -171 23 0
h 171 -5541 0
h -23 -5541 0
h 5542 -170 22 0
h 170 -5542 0
h -22 -5542 0
h 5543 -169 21 0
h 169 -5543 0
h -21 -5543 0
h 5544 -168 20 0
h 168 -5544 0
h -20 -5544 0
h -5545 -29 5536 5537 5538 5539 5540 5541 5542 5543 5544 167 166 0
h 29 5545 0
h -5536 5545 0
h -5537 5545 0
h -5538 5545 0
h -5539 5545 0
h -5540 5545 0
h -5541 5545 0
h -5542 5545 0
h -5543 5545 0
h -5544 5545 0
h -167 5545 0
h -166 5545 0
h -5546 -301 162 0
h 301 5546 0
h -162 5546 0
h -5547 -162 301 0
h 162 5547 0
h -301 5547 0
h -5548 -302 163 0
h 302 5548 0
h -163 5548 0
h -5549 -163 302 0
h 163 5549 0
h -302 5549 0
h -5550 -303 164 0
h 303 5550 0
h -164 5550 0
h -5551 -164 303 0
h 164 5551 0
h -303 5551 0
h -5552 -304 165 0
h 304 5552 0
h -165 5552 0
h -5553 -165 304 0
h 165 5553 0
h -304 5553 0
h 5554 -5535 -5545 -5546 -5547 -5548 -5549 -5550 -5551 -5552 -5553 0
h 5535 -5554 0
h 5545 -5554 0
h 5546 -5554 0
h 5547 -5554 0
h 5548 -5554 0
h 5549 -5554 0
h 5550 -5554 0
h 5551 -5554 0
h 5552 -5554 0
h 5553 -5554 0
h 5555 -15 173 0
h 15 -5555 0
h -173 -5555 0
h 5556 -14 172 0
h 14 -5556 0
h -172 -5556 0
h 5557 -13 171 0
h 13 -5557 0
h -171 -5557 0
h 5558 -12 170 0
h 12 -5558 0
h -170 -5558 0
h 5559 -11 169 0
h 11 -5559 0
h -169 -5559 0
h 5560 -10 168 0
h 10 -5560 0
h -168 -5560 0
h 5561 -9 167 0
h 9 -5561 0
h -167 -5561 0
h 5562 -8 166 0
h 8 -5562 0
h -166 -5562 0
h -5563 -174 5555 5556 5557 5558 5559 5560 5561 5562 7 6 5 0
h 174 5563 0
h -5555 5563 0
h -5556 5563 0
h -5557 5563 0
h -5558 5563 0
h -5559 5563 0
h -5560 5563 0
h -5561 5563 0
h -5562 5563 0
h -7 5563 0
h -6 5563 0
h -5 5563 0
h 5564 -176 13 0
h 176 -5564 0
h -13 -5564 0
h 5565 -175 12 0
h 175 -5565 0
h -12 -5565 0
h 5566 -174 11 0
h 174 -5566 0
h -11 -5566 0
h 5567 -173 10 0
h 173 -5567 0
h -10 -5567 0
h 5568 -172 9 0
h 172 -5568 0
h -9 -5568 0
h 5569 -171 8 0
h 171 -5569 0
h -8 -5569 0
h 5570 -170 7 0
h 170 -5570 0
h -7 -5570 0
h 5571 -169 6 0
h 169 -5571 0
h -6 -5571 0
h 5572 -168 5 0
h 168 -5572 0
h -5 -5572 0
h -5573 -14 5564 5565 5566 5567 5568 5569 5570 5571 5572 167 166 0
h 14 5573 0
h -5564 5573 0
h -5565 5573 0
h -5566 5573 0
h -5567 5573 0
h -5568 5573 0
h -5569 5573 0
h -5570 5573 0
h -5571 5573 0
h -5572 5573 0
h -167 5573 0
h -166 5573 0
h -5574 -301 158 0
h 301 5574 0
h -158 5574 0
h -5575 -158 301 0
h 158 5575 0
h -301 5575 0
h -5576 -302 159 0
h 302 5576 0
h -159 5576 0
h -5577 -159 302 0
h 159 5577 0
h -302 5577 0
h -5578 -303 160 0
h 303 5578 0
h -160 5578 0
h -5579 -160 303 0
h 160 5579 0
h -303 5579 0
h -5580 -304 161 0
h 304 5580 0
h -161 5580 0
h -5581 -161 304 0
h 161 5581 0
h -304 5581 0
h 5582 -5563 -5573 -5574 -5575 -5576 -5577 -5578 -5579 -5580 -5581 0
h 5563 -5582 0
h 5573 -5582 0
h 5574 -5582 0
h 5575 -5582 0
h 5576 -5582 0
h 5577 -5582 0
h 5578 -5582 0
h 5579 -5582 0
h 5580 -5582 0
h 5581 -5582 0
h 5583 -30 266 0
h 30 -5583 0
h -266 -5583 0
h 5584 -29 265 0
h 29 -5584 0
h -265 -5584 0
h 5585 -28 264 0
h 28 -5585 0
h -264 -5585 0
h 5586 -27 263 0
h 27 -5586 0
h -263 -5586 0
h 5587 -26 262 0
h 26 -5587 0
h -262 -5587 0
h 5588 -25 261 0
h 25 -5588 0
h -261 -5588 0
h 5589 -24 260 0
h 24 -5589 0
h -260 -5589 0
h 5590 -23 259 0
h 23 -5590 0
h -259 -5590 0
h 5591 -22 258 0
h 22 -5591 0
h -258 -5591 0
h 5592 -21 257 0
h 21 -5592 0
h -257 -5592 0
h -5593 -267 5583 5584 5585 5586 5587 5588 5589 5590 5591 5592 20 0
h 267 5593 0
h -5583 5593 0
h -5584 5593 0
h -5585 5593 0
h -5586 5593 0
h -5587 5593 0
h -5588 5593 0
h -5589 5593 0
h -5590 5593 0
h -5591 5593 0
h -5592 5593 0
h -20 5593 0
h 5594 -267 28 0
h 267 -5594 0
h -28 -5594 0
h 5595 -266 27 0
h 266 -5595 0
h -27 -5595 0
h 5596 -265 26 0
h 265 -5596 0
h -26 -5596 0
h 5597 -264 25 0
h 264 -5597 0
h -25 -5597 0
h 5598 -263 24 0
h 263 -5598 0
h -24 -5598 0
h 5599 -262 23 0
h 262 -5599 0
h -23 -5599 0
h 5600 -261 22 0
h 261 -5600 0
h -22 -5600 0
h 5601 -260 21 0
h 260 -5601 0
h -21 -5601 0
h 5602 -259 20 0
h 259 -5602 0
h -20 -5602 0
h -5603 -29 5594 5595 5596 5597 5598 5599 5600 5601 5602 258 257 0
h 29 5603 0
h -5594 5603 0
h -5595 5603 0
h -5596 5603 0
h -5597 5603 0
h -5598 5603 0
h -5599 5603 0
h -5600 5603 0
h -5601 5603 0
h -5602 5603 0
h -258 5603 0
h -257 5603 0
h -5604 -16 162 0
h 16 5604 0
h -162 5604 0
h -5605 -162 16 0
h 162 5605 0
h -16 5605 0
h -5606 -17 163 0
h 17 5606 0
h -163 5606 0
h -5607 -163 17 0
h 163 5607 0
h -17 5607 0
h -5608 -18 164 0
h 18 5608 0
h -164 5608 0
h -5609 -164 18 0
h 164 5609 0
h -18 5609 0
h -5610 -19 165 0
h 19 5610 0
h -165 5610 0
h -5611 -165 19 0
h 165 5611 0
h -19 5611 0
h 5612 -5593 -5603 -5604 -5605 -5606 -5607 -5608 -5609 -5610 -5611 0
h 5593 -5612 0
h 5603 -5612 0
h 5604 -5612 0
h 5605 -5612 0
h 5606 -5612 0
h 5607 -5612 0
h 5608 -5612 0
h 5609 -5612 0
h 5610 -5612 0
h 5611 -5612 0
h 5613 -15 266 0
h 15 -5613 0
h -266 -5613 0
h 5614 -14 265 0
h 14 -5614 0
h -265 -5614 0
h 5615 -13 264 0
h 13 -5615 0
h -264 -5615 0
h 5616 -12 263 0
h 12 -5616 0
h -263 -5616 0
h 5617 -11 262 0
h 11 -5617 0
h -262 -5617 0
h 5618 -10 261 0
h 10 -5618 0
h -261 -5618 0
h 5619 -9 260 0
h 9 -5619 0
h -260 -5619 0
h 5620 -8 259 0
h 8 -5620 0
h -259 -5620 0
h 5621 -7 258 0
h 7 -5621 0
h -258 -5621 0
h 5622 -6 257 0
h 6 -5622 0
h -257 -5622 0
h -5623 -267 5613 5614 5615 5616 5617 5618 5619 5620 5621 5622 5 0
h 267 5623 0
h -5613 5623 0
h -5614 5623 0
h -5615 5623 0
h -5616 5623 0
h -5617 5623 0
h -5618 5623 0
h -5619 5623 0
h -5620 5623 0
h -5621 5623 0
h -5622 5623 0
h -5 5623 0
h 5624 -267 13 0
h 267 -5624 0
h -13 -5624 0
h 5625 -266 12 0
h 266 -5625 0
h -12 -5625 0
h 5626 -265 11 0
h 265 -5626 0
h -11 -5626 0
h 5627 -264 10 0
h 264 -5627 0
h -10 -5627 0
h 5628 -263 9 0
h 263 -5628 0
h -9 -5628 0
h 5629 -262 8 0
h 262 -5629 0
h -8 -5629 0
h 5630 -261 7 0
h 261 -5630 0
h -7 -5630 0
h 5631 -260 6 0
h 260 -5631 0
h -6 -5631 0
h 5632 -259 5 0
h 259 -5632 0
h -5 -5632 0
h -5633 -14 5624 5625 5626 5627 5628 5629 5630 5631 5632 258 257 0
h 14 5633 0
h -5624 5633 0
h -5625 5633 0
h -5626 5633 0
h -5627 5633 0
h -5628 5633 0
h -5629 5633 0
h -5630 5633 0
h -5631 5633 0
h -5632 5633 0
h -258 5633 0
h -257 5633 0
h -5634 -16 158 0
h 16 5634 0
h -158 5634 0
h -5635 -158 16 0
h 158 5635 0
h -16 5635 0
h -5636 -17 159 0
h 17 5636 0
h -159 5636 0
h -5637 -159 17 0
h 159 5637 0
h -17 5637 0
h -5638 -18 160 0
h 18 5638 0
h -160 5638 0
h -5639 -160 18 0
h 160 5639 0
h -18 5639 0
h -5640 -19 161 0
h 19 5640 0
h -161 5640 0
h -5641 -161 19 0
h 161 5641 0
h -19 5641 0
h 5642 -5623 -5633 -5634 -5635 -5636 -5637 -5638 -5639 -5640 -5641 0
h 5623 -5642 0
h 5633 -5642 0
h 5634 -5642 0
h 5635 -5642 0
h 5636 -5642 0
h 5637 -5642 0
h 5638 -5642 0
h 5639 -5642 0
h 5640 -5642 0
h 5641 -5642 0
h -5643 -141 354 0
h 141 5643 0
h -354 5643 0
h -5644 -140 353 0
h 140 5644 0
h -353 5644 0
h -5645 -139 352 0
h 139 5645 0
h -352 5645 0
h -5646 -138 351 0
h 138 5646 0
h -351 5646 0
h -5647 -137 350 0
h 137 5647 0
h -350 5647 0
h -5648 -136 349 0
h 136 5648 0
h -349 5648 0
h -5649 -135 348 0
h 135 5649 0
h -348 5649 0
h -5650 -134 347 0
h 134 5650 0
h -347 5650 0
h -5651 -133 346 0
h 133 5651 0
h -346 5651 0
h 5652 -355 -5643 -5644 -5645 -5646 -5647 -5648 -5649 -5650 -5651 132 131 0
h 355 -5652 0
h 5643 -5652 0
h 5644 -5652 0
h 5645 -5652 0
h 5646 -5652 0
h 5647 -5652 0
h 5648 -5652 0
h 5649 -5652 0
h 5650 -5652 0
h 5651 -5652 0
h -132 -5652 0
h -131 -5652 0
h -5653 -356 139 0
h 356 5653 0
h -139 5653 0
h -5654 -355 138 0
h 355 5654 0
h -138 5654 0
h -5655 -354 137 0
h 354 5655 0
h -137 5655 0
h -5656 -353 136 0
h 353 5656 0
h -136 5656 0
h -5657 -352 135 0
h 352 5657 0
h -135 5657 0
h -5658 -351 134 0
h 351 5658 0
h -134 5658 0
h -5659 -350 133 0
h 350 5659 0
h -133 5659 0
h -5660 -349 132 0
h 349 5660 0
h -132 5660 0
h -5661 -348 131 0
h 348 5661 0
h -131 5661 0
h 5662 -140 -5653 -5654 -5655 -5656 -5657 -5658 -5659 -5660 -5661 347 346 0
h 140 -5662 0
h 5653 -5662 0
h 5654 -5662 0
h 5655 -5662 0
h 5656 -5662 0
h 5657 -5662 0
h 5658 -5662 0
h 5659 -5662 0
h 5660 -5662 0
h 5661 -5662 0
h -347 -5662 0
h -346 -5662 0
h 5663 -154 223 0
h 154 -5663 0
h -223 -5663 0
h 5664 -223 154 0
h 223 -5664 0
h -154 -5664 0
h 5665 -155 224 0
h 155 -5665 0
h -224 -5665 0
h 5666 -224 155 0
h 224 -5666 0
h -155 -5666 0
h 5667 -156 225 0
h 156 -5667 0
h -225 -5667 0
h 5668 -225 156 0
h 225 -5668 0
h -156 -5668 0
h 5669 -157 226 0
h 157 -5669 0
h -226 -5669 0
h 5670 -226 157 0
h 226 -5670 0
h -157 -5670 0
h -5671 -97 354 0
h 97 5671 0
h -354 5671 0
h -5672 -96 353 0
h 96 5672 0
h -353 5672 0
h -5673 -95 352 0
h 95 5673 0
h -352 5673 0
h -5674 -94 351 0
h 94 5674 0
h -351 5674 0
h -5675 -93 350 0
h 93 5675 0
h -350 5675 0
h -5676 -92 349 0
h 92 5676 0
h -349 5676 0
h -5677 -91 348 0
h 91 5677 0
h -348 5677 0
h -5678 -90 347 0
h 90 5678 0
h -347 5678 0
h -5679 -89 346 0
h 89 5679 0
h -346 5679 0
h 5680 -355 -5671 -5672 -5673 -5674 -5675 -5676 -5677 -5678 -5679 88 87 0
h 355 -5680 0
h 5671 -5680 0
h 5672 -5680 0
h 5673 -5680 0
h 5674 -5680 0
h 5675 -5680 0
h 5676 -5680 0
h 5677 -5680 0
h 5678 -5680 0
h 5679 -5680 0
h -88 -5680 0
h -87 -5680 0
h -5681 -356 95 0
h 356 5681 0
h -95 5681 0
h -5682 -355 94 0
h 355 5682 0
h -94 5682 0
h -5683 -354 93 0
h 354 5683 0
h -93 5683 0
h -5684 -353 92 0
h 353 5684 0
h -92 5684 0
h -5685 -352 91 0
h 352 5685 0
h -91 5685 0
h -5686 -351 90 0
h 351 5686 0
h -90 5686 0
h -5687 -350 89 0
h 350 5687 0
h -89 5687 0
h -5688 -349 88 0
h 349 5688 0
h -88 5688 0
h -5689 -348 87 0
h 348 5689 0
h -87 5689 0
h 5690 -96 -5681 -5682 -5683 -5684 -5685 -5686 -5687 -5688 -5689 347 346 0
h 96 -5690 0
h 5681 -5690 0
h 5682 -5690 0
h 5683 -5690 0
h 5684 -5690 0
h 5685 -5690 0
h 5686 -5690 0
h 5687 -5690 0
h 5688 -5690 0
h 5689 -5690 0
h -347 -5690 0
h -346 -5690 0
h 5691 -154 238 0
h 154 -5691 0
h -238 -5691 0
h 5692 -238 154 0
h 238 -5692 0
h -154 -5692 0
h 5693 -155 239 0
h 155 -5693 0
h -239 -5693 0
h 5694 -239 155 0
h 239 -5694 0
h -155 -5694 0
h 5695 -156 240 0
h 156 -5695 0
h -240 -5695 0
h 5696 -240 156 0
h 240 -5696 0
h -156 -5696 0
h 5697 -157 241 0
h 157 -5697 0
h -241 -5697 0
h 5698 -241 157 0
h 241 -5698 0
h -157 -5698 0
h -5699 -119 354 0
h 119 5699 0
h -354 5699 0
h -5700 -118 353 0
h 118 5700 0
h -353 5700 0
h -5701 -117 352 0
h 117 5701 0
h -352 5701 0
h -5702 -116 351 0
h 116 5702 0
h -351 5702 0
h -5703 -115 350 0
h 115 5703 0
h -350 5703 0
h -5704 -114 349 0
h 114 5704 0
h -349 5704 0
h -5705 -113 348 0
h 113 5705 0
h -348 5705 0
h -5706 -112 347 0
h 112 5706 0
h -347 5706 0
h -5707 -111 346 0
h 111 5707 0
h -346 5707 0
h 5708 -355 -5699 -5700 -5701 -5702 -5703 -5704 -5705 -5706 -5707 110 109 0
h 355 -5708 0
h 5699 -5708 0
h 5700 -5708 0
h 5701 -5708 0
h 5702 -5708 0
h 5703 -5708 0
h 5704 -5708 0
h 5705 -5708 0
h 5706 -5708 0
h 5707 -5708 0
h -110 -5708 0
h -109 -5708 0
h -5709 -356 117 0
h 356 5709 0
h -117 5709 0
h -5710 -355 116 0
h 355 5710 0
h -116 5710 0
h -5711 -354 115 0
h 354 5711 0
h -115 5711 0
h -5712 -353 114 0
h 353 5712 0
h -114 5712 0
h -5713 -352 113 0
h 352 5713 0
h -113 5713 0
h -5714 -351 112 0
h 351 5714 0
h -112 5714 0
h -5715 -350 111 0
h 350 5715 0
h -111 5715 0
h -5716 -349 110 0
h 349 5716 0
h -110 5716 0
h -5717 -348 109 0
h 348 5717 0
h -109 5717 0
h 5718 -118 -5709 -5710 -5711 -5712 -5713 -5714 -5715 -5716 -5717 347 346 0
h 118 -5718 0
h 5709 -5718 0
h 5710 -5718 0
h 5711 -5718 0
h 5712 -5718 0
h 5713 -5718 0
h 5714 -5718 0
h 5715 -5718 0
h 5716 -5718 0
h 5717 -5718 0
h -347 -5718 0
h -346 -5718 0
h 5719 -154 253 0
h 154 -5719 0
h -253 -5719 0
h 5720 -253 154 0
h 253 -5720 0
h -154 -5720 0
h 5721 -155 254 0
h 155 -5721 0
h -254 -5721 0
h 5722 -254 155 0
h 254 -5722 0
h -155 -5722 0
h 5723 -156 255 0
h 156 -5723 0
h -255 -5723 0
h 5724 -255 156 0
h 255 -5724 0
h -156 -5724 0
h 5725 -157 256 0
h 157 -5725 0
h -256 -5725 0
h 5726 -256 157 0
h 256 -5726 0
h -157 -5726 0
h -5727 -278 354 0
h 278 5727 0
h -354 5727 0
h -5728 -277 353 0
h 277 5728 0
h -353 5728 0
h -5729 -276 352 0
h 276 5729 0
h -352 5729 0
h -5730 -275 351 0
h 275 5730 0
h -351 5730 0
h -5731 -274 350 0
h 274 5731 0
h -350 5731 0
h -5732 -273 349 0
h 273 5732 0
h -349 5732 0
h -5733 -272 348 0
h 272 5733 0
h -348 5733 0
h -5734 -271 347 0
h 271 5734 0
h -347 5734 0
h -5735 -270 346 0
h 270 5735 0
h -346 5735 0
h 5736 -355 -5727 -5728 -5729 -5730 -5731 -5732 -5733 -5734 -5735 269 268 0
h 355 -5736 0
h 5727 -5736 0
h 5728 -5736 0
h 5729 -5736 0
h 5730 -5736 0
h 5731 -5736 0
h 5732 -5736 0
h 5733 -5736 0
h 5734 -5736 0
h 5735 -5736 0
h -269 -5736 0
h -268 -5736 0
h -5737 -356 277 0
h 356 5737 0
h -277 5737 0
h -5738 -355 276 0
h 355 5738 0
h -276 5738 0
h -5739 -354 275 0
h 354 5739 0
h -275 5739 0
h -5740 -353 274 0
h 353 5740 0
h -274 5740 0
h -5741 -352 273 0
h 352 5741 0
h -273 5741 0
h -5742 -351 272 0
h 351 5742 0
h -272 5742 0
h -5743 -350 271 0
h 350 5743 0
h -271 5743 0
h -5744 -349 270 0
h 349 5744 0
h -270 5744 0
h -5745 -348 269 0
h 348 5745 0
h -269 5745 0
h -5746 -347 268 0
h 347 5746 0
h -268 5746 0
h 5747 -278 -5737 -5738 -5739 -5740 -5741 -5742 -5743 -5744 -5745 -5746 346 0
h 278 -5747 0
h 5737 -5747 0
h 5738 -5747 0
h 5739 -5747 0
h 5740 -5747 0
h 5741 -5747 0
h 5742 -5747 0
h 5743 -5747 0
h 5744 -5747 0
h 5745 -5747 0
h 5746 -5747 0
h -346 -5747 0
h 5748 -154 42 0
h 154 -5748 0
h -42 -5748 0
h 5749 -42 154 0
h 42 -5749 0
h -154 -5749 0
h 5750 -155 43 0
h 155 -5750 0
h -43 -5750 0
h 5751 -43 155 0
h 43 -5751 0
h -155 -5751 0
h 5752 -156 44 0
h 156 -5752 0
h -44 -5752 0
h 5753 -44 156 0
h 44 -5753 0
h -156 -5753 0
h 5754 -157 45 0
h 157 -5754 0
h -45 -5754 0
h 5755 -45 157 0
h 45 -5755 0
h -157 -5755 0
h -5756 -300 354 0
h 300 5756 0
h -354 5756 0
h -5757 -299 353 0
h 299 5757 0
h -353 5757 0
h -5758 -298 352 0
h 298 5758 0
h -352 5758 0
h -5759 -297 351 0
h 297 5759 0
h -351 5759 0
h -5760 -296 350 0
h 296 5760 0
h -350 5760 0
h -5761 -295 349 0
h 295 5761 0
h -349 5761 0
h -5762 -294 348 0
h 294 5762 0
h -348 5762 0
h -5763 -293 347 0
h 293 5763 0
h -347 5763 0
h -5764 -292 346 0
h 292 5764 0
h -346 5764 0
h 5765 -355 -5756 -5757 -5758 -5759 -5760 -5761 -5762 -5763 -5764 291 290 0
h 355 -5765 0
h 5756 -5765 0
h 5757 -5765 0
h 5758 -5765 0
h 5759 -5765 0
h 5760 -5765 0
h 5761 -5765 0
h 5762 -5765 0
h 5763 -5765 0
h 5764 -5765 0
h -291 -5765 0
h -290 -5765 0
h -5766 -356 299 0
h 356 5766 0
h -299 5766 0
h -5767 -355 298 0
h 355 5767 0
h -298 5767 0
h -5768 -354 297 0
h 354 5768 0
h -297 5768 0
h -5769 -353 296 0
h 353 5769 0
h -296 5769 0
h -5770 -352 295 0
h 352 5770 0
h -295 5770 0
h -5771 -351 294 0
h 351 5771 0
h -294 5771 0
h -5772 -350 293 0
h 350 5772 0
h -293 5772 0
h -5773 -349 292 0
h 349 5773 0
h -292 5773 0
h -5774 -348 291 0
h 348 5774 0
h -291 5774 0
h -5775 -347 290 0
h 347 5775 0
h -290 5775 0
h 5776 -300 -5766 -5767 -5768 -5769 -5770 -5771 -5772 -5773 -5774 -5775 346 0
h 300 -5776 0
h 5766 -5776 0
h 5767 -5776 0
h 5768 -5776 0
h 5769 -5776 0
h 5770 -5776 0
h 5771 -5776 0
h 5772 -5776 0
h 5773 -5776 0
h 5774 -5776 0
h 5775 -5776 0
h -346 -5776 0
h 5777 -154 61 0
h 154 -5777 0
h -61 -5777 0
h 5778 -61 154 0
h 61 -5778 0
h -154 -5778 0
h 5779 -155 62 0
h 155 -5779 0
h -62 -5779 0
h 5780 -62 155 0
h 62 -5780 0
h -155 -5780 0
h 5781 -156 63 0
h 156 -5781 0
h -63 -5781 0
h 5782 -63 156 0
h 63 -5782 0
h -156 -5782 0
h 5783 -157 64 0
h 157 -5783 0
h -64 -5783 0
h 5784 -64 157 0
h 64 -5784 0
h -157 -5784 0
h -5785 -289 354 0
h 289 5785 0
h -354 5785 0
h -5786 -288 353 0
h 288 5786 0
h -353 5786 0
h -5787 -287 352 0
h 287 5787 0
h -352 5787 0
h -5788 -286 351 0
h 286 5788 0
h -351 5788 0
h -5789 -285 350 0
h 285 5789 0
h -350 5789 0
h -5790 -284 349 0
h 284 5790 0
h -349 5790 0
h -5791 -283 348 0
h 283 5791 0
h -348 5791 0
h -5792 -282 347 0
h 282 5792 0
h -347 5792 0
h -5793 -281 346 0
h 281 5793 0
h -346 5793 0
h 5794 -355 -5785 -5786 -5787 -5788 -5789 -5790 -5791 -5792 -5793 280 279 0
h 355 -5794 0
h 5785 -5794 0
h 5786 -5794 0
h 5787 -5794 0
h 5788 -5794 0
h 5789 -5794 0
h 5790 -5794 0
h 5791 -5794 0
h 5792 -5794 0
h 5793 -5794 0
h -280 -5794 0
h -279 -5794 0
h -5795 -356 288 0
h 356 5795 0
h -288 5795 0
h -5796 -355 287 0
h 355 5796 0
h -287 5796 0
h -5797 -354 286 0
h 354 5797 0
h -286 5797 0
h -5798 -353 285 0
h 353 5798 0
h -285 5798 0
h -5799 -352 284 0
h 352 5799 0
h -284 5799 0
h -5800 -351 283 0
h 351 5800 0
h -283 5800 0
h -5801 -350 282 0
h 350 5801 0
h -282 5801 0
h -5802 -349 281 0
h 349 5802 0
h -281 5802 0
h -5803 -348 280 0
h 348 5803 0
h -280 5803 0
h -5804 -347 279 0
h 347 5804 0
h -279 5804 0
h 5805 -289 -5795 -5796 -5797 -5798 -5799 -5800 -5801 -5802 -5803 -5804 346 0
h 289 -5805 0
h 5795 -5805 0
h 5796 -5805 0
h 5797 -5805 0
h 5798 -5805 0
h 5799 -5805 0
h 5800 -5805 0
h 5801 -5805 0
h 5802 -5805 0
h 5803 -5805 0
h 5804 -5805 0
h -346 -5805 0
h 5806 -154 57 0
h 154 -5806 0
h -57 -5806 0
h 5807 -57 154 0
h 57 -5807 0
h -154 -5807 0
h 5808 -155 58 0
h 155 -5808 0
h -58 -5808 0
h 5809 -58 155 0
h 58 -5809 0
h -155 -5809 0
h 5810 -156 59 0
h 156 -5810 0
h -59 -5810 0
h 5811 -59 156 0
h 59 -5811 0
h -156 -5811 0
h 5812 -157 60 0
h 157 -5812 0
h -60 -5812 0
h 5813 -60 157 0
h 60 -5813 0
h -157 -5813 0
h -5814 -97 340 0
h 97 5814 0
h -340 5814 0
h -5815 -96 339 0
h 96 5815 0
h -339 5815 0
h -5816 -95 338 0
h 95 5816 0
h -338 5816 0
h -5817 -94 337 0
h 94 5817 0
h -337 5817 0
h -5818 -93 336 0
h 93 5818 0
h -336 5818 0
h -5819 -92 335 0
h 92 5819 0
h -335 5819 0
h -5820 -91 334 0
h 91 5820 0
h -334 5820 0
h -5821 -90 333 0
h 90 5821 0
h -333 5821 0
h -5822 -89 332 0
h 89 5822 0
h -332 5822 0
h -5823 -88 331 0
h 88 5823 0
h -331 5823 0
h 5824 -341 -5814 -5815 -5816 -5817 -5818 -5819 -5820 -5821 -5822 -5823 87 0
h 341 -5824 0
h 5814 -5824 0
h 5815 -5824 0
h 5816 -5824 0
h 5817 -5824 0
h 5818 -5824 0
h 5819 -5824 0
h 5820 -5824 0
h 5821 -5824 0
h 5822 -5824 0
h 5823 -5824 0
h -87 -5824 0
h -5825 -341 95 0
h 341 5825 0
h -95 5825 0
h -5826 -340 94 0
h 340 5826 0
h -94 5826 0
h -5827 -339 93 0
h 339 5827 0
h -93 5827 0
h -5828 -338 92 0
h 338 5828 0
h -92 5828 0
h -5829 -337 91 0
h 337 5829 0
h -91 5829 0
h -5830 -336 90 0
h 336 5830 0
h -90 5830 0
h -5831 -335 89 0
h 335 5831 0
h -89 5831 0
h -5832 -334 88 0
h 334 5832 0
h -88 5832 0
h -5833 -333 87 0
h 333 5833 0
h -87 5833 0
h 5834 -96 -5825 -5826 -5827 -5828 -5829 -5830 -5831 -5832 -5833 332 331 0
h 96 -5834 0
h 5825 -5834 0
h 5826 -5834 0
h 5827 -5834 0
h 5828 -5834 0
h 5829 -5834 0
h 5830 -5834 0
h 5831 -5834 0
h 5832 -5834 0
h 5833 -5834 0
h -332 -5834 0
h -331 -5834 0
h 5835 -150 238 0
h 150 -5835 0
h -238 -5835 0
h 5836 -238 150 0
h 238 -5836 0
h -150 -5836 0
h 5837 -151 239 0
h 151 -5837 0
h -239 -5837 0
h 5838 -239 151 0
h 239 -5838 0
h -151 -5838 0
h 5839 -152 240 0
h 152 -5839 0
h -240 -5839 0
h 5840 -240 152 0
h 240 -5840 0
h -152 -5840 0
h 5841 -153 241 0
h 153 -5841 0
h -241 -5841 0
h 5842 -241 153 0
h 241 -5842 0
h -153 -5842 0
h -5843 -119 340 0
h 119 5843 0
h -340 5843 0
h -5844 -118 339 0
h 118 5844 0
h -339 5844 0
h -5845 -117 338 0
h 117 5845 0
h -338 5845 0
h -5846 -116 337 0
h 116 5846 0
h -337 5846 0
h -5847 -115 336 0
h 115 5847 0
h -336 5847 0
h -5848 -114 335 0
h 114 5848 0
h -335 5848 0
h -5849 -113 334 0
h 113 5849 0
h -334 5849 0
h -5850 -112 333 0
h 112 5850 0
h -333 5850 0
h -5851 -111 332 0
h 111 5851 0
h -332 5851 0
h -5852 -110 331 0
h 110 5852 0
h -331 5852 0
h 5853 -341 -5843 -5844 -5845 -5846 -5847 -5848 -5849 -5850 -5851 -5852 109 0
h 341 -5853 0
h 5843 -5853 0
h 5844 -5853 0
h 5845 -5853 0
h 5846 -5853 0
h 5847 -5853 0
h 5848 -5853 0
h 5849 -5853 0
h 5850 -5853 0
h 5851 -5853 0
h 5852 -5853 0
h -109 -5853 0
h -5854 -341 117 0
h 341 5854 0
h -117 5854 0
h -5855 -340 116 0
h 340 5855 0
h -116 5855 0
h -5856 -339 115 0
h 339 5856 0
h -115 5856 0
h -5857 -338 114 0
h 338 5857 0
h -114 5857 0
h -5858 -337 113 0
h 337 5858 0
h -113 5858 0
h -5859 -336 112 0
h 336 5859 0
h -112 5859 0
h -5860 -335 111 0
h 335 5860 0
h -111 5860 0
h -5861 -334 110 0
h 334 5861 0
h -110 5861 0
h -5862 -333 109 0
h 333 5862 0
h -109 5862 0
h 5863 -118 -5854 -5855 -5856 -5857 -5858 -5859 -5860 -5861 -5862 332 331 0
h 118 -5863 0
h 5854 -5863 0
h 5855 -5863 0
h 5856 -5863 0
h 5857 -5863 0
h 5858 -5863 0
h 5859 -5863 0
h 5860 -5863 0
h 5861 -5863 0
h 5862 -5863 0
h -332 -5863 0
h -331 -5863 0
h 5864 -150 253 0
h 150 -5864 0
h -253 -5864 0
h 5865 -253 150 0
h 253 -5865 0
h -150 -5865 0
h 5866 -151 254 0
h 151 -5866 0
h -254 -5866 0
h 5867 -254 151 0
h 254 -5867 0
h -151 -5867 0
h 5868 -152 255 0
h 152 -5868 0
h -255 -5868 0
h 5869 -255 152 0
h 255 -5869 0
h -152 -5869 0
h 5870 -153 256 0
h 153 -5870 0
h -256 -5870 0
h 5871 -256 153 0
h 256 -5871 0
h -153 -5871 0
h -5872 -97 325 0
h 97 5872 0
h -325 5872 0
h -5873 -96 324 0
h 96 5873 0
h -324 5873 0
h -5874 -95 323 0
h 95 5874 0
h -323 5874 0
h -5875 -94 322 0
h 94 5875 0
h -322 5875 0
h -5876 -93 321 0
h 93 5876 0
h -321 5876 0
h -5877 -92 320 0
h 92 5877 0
h -320 5877 0
h -5878 -91 319 0
h 91 5878 0
h -319 5878 0
h -5879 -90 318 0
h 90 5879 0
h -318 5879 0
h -5880 -89 317 0
h 89 5880 0
h -317 5880 0
h -5881 -88 316 0
h 88 5881 0
h -316 5881 0
h 5882 -326 -5872 -5873 -5874 -5875 -5876 -5877 -5878 -5879 -5880 -5881 87 0
h 326 -5882 0
h 5872 -5882 0
h 5873 -5882 0
h 5874 -5882 0
h 5875 -5882 0
h 5876 -5882 0
h 5877 -5882 0
h 5878 -5882 0
h 5879 -5882 0
h 5880 -5882 0
h 5881 -5882 0
h -87 -5882 0
h -5883 -326 95 0
h 326 5883 0
h -95 5883 0
h -5884 -325 94 0
h 325 5884 0
h -94 5884 0
h -5885 -324 93 0
h 324 5885 0
h -93 5885 0
h -5886 -323 92 0
h 323 5886 0
h -92 5886 0
h -5887 -322 91 0
h 322 5887 0
h -91 5887 0
h -5888 -321 90 0
h 321 5888 0
h -90 5888 0
h -5889 -320 89 0
h 320 5889 0
h -89 5889 0
h -5890 -319 88 0
h 319 5890 0
h -88 5890 0
h -5891 -318 87 0
h 318 5891 0
h -87 5891 0
h 5892 -96 -5883 -5884 -5885 -5886 -5887 -5888 -5889 -5890 -5891 317 316 0
h 96 -5892 0
h 5883 -5892 0
h 5884 -5892 0
h 5885 -5892 0
h 5886 -5892 0
h 5887 -5892 0
h 5888 -5892 0
h 5889 -5892 0
h 5890 -5892 0
h 5891 -5892 0
h -317 -5892 0
h -316 -5892 0
h 5893 -142 238 0
h 142 -5893 0
h -238 -5893 0
h 5894 -238 142 0
h 238 -5894 0
h -142 -5894 0
h 5895 -143 239 0
h 143 -5895 0
h -239 -5895 0
h 5896 -239 143 0
h 239 -5896 0
h -143 -5896 0
h 5897 -144 240 0
h 144 -5897 0
h -240 -5897 0
h 5898 -240 144 0
h 240 -5898 0
h -144 -5898 0
h 5899 -145 241 0
h 145 -5899 0
h -241 -5899 0
h 5900 -241 145 0
h 241 -5900 0
h -145 -5900 0
h -5901 -119 325 0
h 119 5901 0
h -325 5901 0
h -5902 -118 324 0
h 118 5902 0
h -324 5902 0
h -5903 -117 323 0
h 117 5903 0
h -323 5903 0
h -5904 -116 322 0
h 116 5904 0
h -322 5904 0
h -5905 -115 321 0
h 115 5905 0
h -321 5905 0
h -5906 -114 320 0
h 114 5906 0
h -320 5906 0
h -5907 -113 319 0
h 113 5907 0
h -319 5907 0
h -5908 -112 318 0
h 112 5908 0
h -318 5908 0
h -5909 -111 317 0
h 111 5909 0
h -317 5909 0
h -5910 -110 316 0
h 110 5910 0
h -316 5910 0
h 5911 -326 -5901 -5902 -5903 -5904 -5905 -5906 -5907 -5908 -5909 -5910 109 0
h 326 -5911 0
h 5901 -5911 0
h 5902 -5911 0
h 5903 -5911 0
h 5904 -5911 0
h 5905 -5911 0
h 5906 -5911 0
h 5907 -5911 0
h 5908 -5911 0
h 5909 -5911 0
h 5910 -5911 0
h -109 -5911 0
h -5912 -326 117 0
h 326 5912 0
h -117 5912 0
h -5913 -325 116 0
h 325 5913 0
h -116 5913 0
h -5914 -324 115 0
h 324 5914 0
h -115 5914 0
h -5915 -323 114 0
h 323 5915 0
h -114 5915 0
h -5916 -322 113 0
h 322 5916 0
h -113 5916 0
h -5917 -321 112 0
h 321 5917 0
h -112 5917 0
h -5918 -320 111 0
h 320 5918 0
h -111 5918 0
h -5919 -319 110 0
h 319 5919 0
h -110 5919 0
h -5920 -318 109 0
h 318 5920 0
h -109 5920 0
h 5921 -118 -5912 -5913 -5914 -5915 -5916 -5917 -5918 -5919 -5920 317 316 0
h 118 -5921 0
h 5912 -5921 0
h 5913 -5921 0
h 5914 -5921 0
h 5915 -5921 0
h 5916 -5921 0
h 5917 -5921 0
h 5918 -5921 0
h 5919 -5921 0
h 5920 -5921 0
h -317 -5921 0
h -316 -5921 0
h 5922 -142 253 0
h 142 -5922 0
h -253 -5922 0
h 5923 -253 142 0
h 253 -5923 0
h -142 -5923 0
h 5924 -143 254 0
h 143 -5924 0
h -254 -5924 0
h 5925 -254 143 0
h 254 -5925 0
h -143 -5925 0
h 5926 -144 255 0
h 144 -5926 0
h -255 -5926 0
h 5927 -255 144 0
h 255 -5927 0
h -144 -5927 0
h 5928 -145 256 0
h 145 -5928 0
h -256 -5928 0
h 5929 -256 145 0
h 256 -5929 0
h -145 -5929 0
h -5930 -97 314 0
h 97 5930 0
h -314 5930 0
h -5931 -96 313 0
h 96 5931 0
h -313 5931 0
h -5932 -95 312 0
h 95 5932 0
h -312 5932 0
h -5933 -94 311 0
h 94 5933 0
h -311 5933 0
h -5934 -93 310 0
h 93 5934 0
h -310 5934 0
h -5935 -92 309 0
h 92 5935 0
h -309 5935 0
h -5936 -91 308 0
h 91 5936 0
h -308 5936 0
h -5937 -90 307 0
h 90 5937 0
h -307 5937 0
h -5938 -89 306 0
h 89 5938 0
h -306 5938 0
h -5939 -88 305 0
h 88 5939 0
h -305 5939 0
h 5940 -315 -5930 -5931 -5932 -5933 -5934 -5935 -5936 -5937 -5938 -5939 87 0
h 315 -5940 0
h 5930 -5940 0
h 5931 -5940 0
h 5932 -5940 0
h 5933 -5940 0
h 5934 -5940 0
h 5935 -5940 0
h 5936 -5940 0
h 5937 -5940 0
h 5938 -5940 0
h 5939 -5940 0
h -87 -5940 0
h -5941 -315 95 0
h 315 5941 0
h -95 5941 0
h -5942 -314 94 0
h 314 5942 0
h -94 5942 0
h -5943 -313 93 0
h 313 5943 0
h -93 5943 0
h -5944 -312 92 0
h 312 5944 0
h -92 5944 0
h -5945 -311 91 0
h 311 5945 0
h -91 5945 0
h -5946 -310 90 0
h 310 5946 0
h -90 5946 0
h -5947 -309 89 0
h 309 5947 0
h -89 5947 0
h -5948 -308 88 0
h 308 5948 0
h -88 5948 0
h -5949 -307 87 0
h 307 5949 0
h -87 5949 0
h 5950 -96 -5941 -5942 -5943 -5944 -5945 -5946 -5947 -5948 -5949 306 305 0
h 96 -5950 0
h 5941 -5950 0
h 5942 -5950 0
h 5943 -5950 0
h 5944 -5950 0
h 5945 -5950 0
h 5946 -5950 0
h 5947 -5950 0
h 5948 -5950 0
h 5949 -5950 0
h -306 -5950 0
h -305 -5950 0
h 5951 -146 238 0
h 146 -5951 0
h -238 -5951 0
h 5952 -238 146 0
h 238 -5952 0
h -146 -5952 0
h 5953 -147 239 0
h 147 -5953 0
h -239 -5953 0
h 5954 -239 147 0
h 239 -5954 0
h -147 -5954 0
h 5955 -148 240 0
h 148 -5955 0
h -240 -5955 0
h 5956 -240 148 0
h 240 -5956 0
h -148 -5956 0
h 5957 -149 241 0
h 149 -5957 0
h -241 -5957 0
h 5958 -241 149 0
h 241 -5958 0
h -149 -5958 0
h -5959 -119 314 0
h 119 5959 0
h -314 5959 0
h -5960 -118 313 0
h 118 5960 0
h -313 5960 0
h -5961 -117 312 0
h 117 5961 0
h -312 5961 0
h -5962 -116 311 0
h 116 5962 0
h -311 5962 0
h -5963 -115 310 0
h 115 5963 0
h -310 5963 0
h -5964 -114 309 0
h 114 5964 0
h -309 5964 0
h -5965 -113 308 0
h 113 5965 0
h -308 5965 0
h -5966 -112 307 0
h 112 5966 0
h -307 5966 0
h -5967 -111 306 0
h 111 5967 0
h -306 5967 0
h -5968 -110 305 0
h 110 5968 0
h -305 5968 0
h 5969 -315 -5959 -5960 -5961 -5962 -5963 -5964 -5965 -5966 -5967 -5968 109 0
h 315 -5969 0
h 5959 -5969 0
h 5960 -5969 0
h 5961 -5969 0
h 5962 -5969 0
h 5963 -5969 0
h 5964 -5969 0
h 5965 -5969 0
h 5966 -5969 0
h 5967 -5969 0
h 5968 -5969 0
h -109 -5969 0
h -5970 -315 117 0
h 315 5970 0
h -117 5970 0
h -5971 -314 116 0
h 314 5971 0
h -116 5971 0
h -5972 -313 115 0
h 313 5972 0
h -115 5972 0
h -5973 -312 114 0
h 312 5973 0
h -114 5973 0
h -5974 -311 113 0
h 311 5974 0
h -113 5974 0
h -5975 -310 112 0
h 310 5975 0
h -112 5975 0
h -5976 -309 111 0
h 309 5976 0
h -111 5976 0
h -5977 -308 110 0
h 308 5977 0
h -110 5977 0
h -5978 -307 109 0
h 307 5978 0
h -109 5978 0
h 5979 -118 -5970 -5971 -5972 -5973 -5974 -5975 -5976 -5977 -5978 306 305 0
h 118 -5979 0
h 5970 -5979 0
h 5971 -5979 0
h 5972 -5979 0
h 5973 -5979 0
h 5974 -5979 0
h 5975 -5979 0
h 5976 -5979 0
h 5977 -5979 0
h 5978 -5979 0
h -306 -5979 0
h -305 -5979 0
h 5980 -146 253 0
h 146 -5980 0
h -253 -5980 0
h 5981 -253 146 0
h 253 -5981 0
h -146 -5981 0
h 5982 -147 254 0
h 147 -5982 0
h -254 -5982 0
h 5983 -254 147 0
h 254 -5983 0
h -147 -5983 0
h 5984 -148 255 0
h 148 -5984 0
h -255 -5984 0
h 5985 -255 148 0
h 255 -5985 0
h -148 -5985 0
h 5986 -149 256 0
h 149 -5986 0
h -256 -5986 0
h 5987 -256 149 0
h 256 -5987 0
h -149 -5987 0
h -5988 -141 340 0
h 141 5988 0
h -340 5988 0
h -5989 -140 339 0
h 140 5989 0
h -339 5989 0
h -5990 -139 338 0
h 139 5990 0
h -338 5990 0
h -5991 -138 337 0
h 138 5991 0
h -337 5991 0
h -5992 -137 336 0
h 137 5992 0
h -336 5992 0
h -5993 -136 335 0
h 136 5993 0
h -335 5993 0
h -5994 -135 334 0
h 135 5994 0
h -334 5994 0
h -5995 -134 333 0
h 134 5995 0
h -333 5995 0
h -5996 -133 332 0
h 133 5996 0
h -332 5996 0
h -5997 -132 331 0
h 132 5997 0
h -331 5997 0
h 5998 -341 -5988 -5989 -5990 -5991 -5992 -5993 -5994 -5995 -5996 -5997 131 0
h 341 -5998 0
h 5988 -5998 0
h 5989 -5998 0
h 5990 -5998 0
h 5991 -5998 0
h 5992 -5998 0
h 5993 -5998 0
h 5994 -5998 0
h 5995 -5998 0
h 5996 -5998 0
h 5997 -5998 0
h -131 -5998 0
h -5999 -341 139 0
h 341 5999 0
h -139 5999 0
h -6000 -340 138 0
h 340 6000 0
h -138 6000 0
h -6001 -339 137 0
h 339 6001 0
h -137 6001 0
h -6002 -338 136 0
h 338 6002 0
h -136 6002 0
h -6003 -337 135 0
h 337 6003 0
h -135 6003 0
h -6004 -336 134 0
h 336 6004 0
h -134 6004 0
h -6005 -335 133 0
h 335 6005 0
h -133 6005 0
h -6006 -334 132 0
h 334 6006 0
h -132 6006 0
h -6007 -333 131 0
h 333 6007 0
h -131 6007 0
h 6008 -140 -5999 -6000 -6001 -6002 -6003 -6004 -6005 -6006 -6007 332 331 0
h 140 -6008 0
h 5999 -6008 0
h 6000 -6008 0
h 6001 -6008 0
h 6002 -6008 0
h 6003 -6008 0
h 6004 -6008 0
h 6005 -6008 0
h 6006 -6008 0
h 6007 -6008 0
h -332 -6008 0
h -331 -6008 0
h 6009 -150 223 0
h 150 -6009 0
h -223 -6009 0
h 6010 -223 150 0
h 223 -6010 0
h -150 -6010 0
h 6011 -151 224 0
h 151 -6011 0
h -224 -6011 0
h 6012 -224 151 0
h 224 -6012 0
h -151 -6012 0
h 6013 -152 225 0
h 152 -6013 0
h -225 -6013 0
h 6014 -225 152 0
h 225 -6014 0
h -152 -6014 0
h 6015 -153 226 0
h 153 -6015 0
h -226 -6015 0
h 6016 -226 153 0
h 226 -6016 0
h -153 -6016 0
h -6017 -141 325 0
h 141 6017 0
h -325 6017 0
h -6018 -140 324 0
h 140 6018 0
h -324 6018 0
h -6019 -139 323 0
h 139 6019 0
h -323 6019 0
h -6020 -138 322 0
h 138 6020 0
h -322 6020 0
h -6021 -137 321 0
h 137 6021 0
h -321 6021 0
h -6022 -136 320 0
h 136 6022 0
h -320 6022 0
h -6023 -135 319 0
h 135 6023 0
h -319 6023 0
h -6024 -134 318 0
h 134 6024 0
h -318 6024 0
h -6025 -133 317 0
h 133 6025 0
h -317 6025 0
h -6026 -132 316 0
h 132 6026 0
h -316 6026 0
h 6027 -326 -6017 -6018 -6019 -6020 -6021 -6022 -6023 -6024 -6025 -6026 131 0
h 326 -6027 0
h 6017 -6027 0
h 6018 -6027 0
h 6019 -6027 0
h 6020 -6027 0
h 6021 -6027 0
h 6022 -6027 0
h 6023 -6027 0
h 6024 -6027 0
h 6025 -6027 0
h 6026 -6027 0
h -131 -6027 0
h -6028 -326 139 0
h 326 6028 0
h -139 6028 0
h -6029 -325 138 0
h 325 6029 0
h -138 6029 0
h -6030 -324 137 0
h 324 6030 0
h -137 6030 0
h -6031 -323 136 0
h 323 6031 0
h -136 6031 0
h -6032 -322 135 0
h 322 6032 0
h -135 6032 0
h -6033 -321 134 0
h 321 6033 0
h -134 6033 0
h -6034 -320 133 0
h 320 6034 0
h -133 6034 0
h -6035 -319 132 0
h 319 6035 0
h -132 6035 0
h -6036 -318 131 0
h 318 6036 0
h -131 6036 0
h 6037 -140 -6028 -6029 -6030 -6031 -6032 -6033 -6034 -6035 -6036 317 316 0
h 140 -6037 0
h 6028 -6037 0
h 6029 -6037 0
h 6030 -6037 0
h 6031 -6037 0
h 6032 -6037 0
h 6033 -6037 0
h 6034 -6037 0
h 6035 -6037 0
h 6036 -6037 0
h -317 -6037 0
h -316 -6037 0
h 6038 -142 223 0
h 142 -6038 0
h -223 -6038 0
h 6039 -223 142 0
h 223 -6039 0
h -142 -6039 0
h 6040 -143 224 0
h 143 -6040 0
h -224 -6040 0
h 6041 -224 143 0
h 224 -6041 0
h -143 -6041 0
h 6042 -144 225 0
h 144 -6042 0
h -225 -6042 0
h 6043 -225 144 0
h 225 -6043 0
h -144 -6043 0
h 6044 -145 226 0
h 145 -6044 0
h -226 -6044 0
h 6045 -226 145 0
h 226 -6045 0
h -145 -6045 0
h -6046 -141 314 0
h 141 6046 0
h -314 6046 0
h -6047 -140 313 0
h 140 6047 0
h -313 6047 0
h -6048 -139 312 0
h 139 6048 0
h -312 6048 0
h -6049 -138 311 0
h 138 6049 0
h -311 6049 0
h -6050 -137 310 0
h 137 6050 0
h -310 6050 0
h -6051 -136 309 0
h 136 6051 0
h -309 6051 0
h -6052 -135 308 0
h 135 6052 0
h -308 6052 0
h -6053 -134 307 0
h 134 6053 0
h -307 6053 0
h -6054 -133 306 0
h 133 6054 0
h -306 6054 0
h -6055 -132 305 0
h 132 6055 0
h -305 6055 0
h 6056 -315 -6046 -6047 -6048 -6049 -6050 -6051 -6052 -6053 -6054 -6055 131 0
h 315 -6056 0
h 6046 -6056 0
h 6047 -6056 0
h 6048 -6056 0
h 6049 -6056 0
h 6050 -6056 0
h 6051 -6056 0
h 6052 -6056 0
h 6053 -6056 0
h 6054 -6056 0
h 6055 -6056 0
h -131 -6056 0
h -6057 -315 139 0
h 315 6057 0
h -139 6057 0
h -6058 -314 138 0
h 314 6058 0
h -138 6058 0
h -6059 -313 137 0
h 313 6059 0
h -137 6059 0
h -6060 -312 136 0
h 312 6060 0
h -136 6060 0
h -6061 -311 135 0
h 311 6061 0
h -135 6061 0
h -6062 -310 134 0
h 310 6062 0
h -134 6062 0
h -6063 -309 133 0
h 309 6063 0
h -133 6063 0
h -6064 -308 132 0
h 308 6064 0
h -132 6064 0
h -6065 -307 131 0
h 307 6065 0
h -131 6065 0
h 6066 -140 -6057 -6058 -6059 -6060 -6061 -6062 -6063 -6064 -6065 306 305 0
h 140 -6066 0
h 6057 -6066 0
h 6058 -6066 0
h 6059 -6066 0
h 6060 -6066 0
h 6061 -6066 0
h 6062 -6066 0
h 6063 -6066 0
h 6064 -6066 0
h 6065 -6066 0
h -306 -6066 0
h -305 -6066 0
h 6067 -146 223 0
h 146 -6067 0
h -223 -6067 0
h 6068 -223 146 0
h 223 -6068 0
h -146 -6068 0
h 6069 -147 224 0
h 147 -6069 0
h -224 -6069 0
h 6070 -224 147 0
h 224 -6070 0
h -147 -6070 0
h 6071 -148 225 0
h 148 -6071 0
h -225 -6071 0
h 6072 -225 148 0
h 225 -6072 0
h -148 -6072 0
h 6073 -149 226 0
h 149 -6073 0
h -226 -6073 0
h 6074 -226 149 0
h 226 -6074 0
h -149 -6074 0
h -6075 -278 340 0
h 278 6075 0
h -340 6075 0
h -6076 -277 339 0
h 277 6076 0
h -339 6076 0
h -6077 -276 338 0
h 276 6077 0
h -338 6077 0
h -6078 -275 337 0
h 275 6078 0
h -337 6078 0
h -6079 -274 336 0
h 274 6079 0
h -336 6079 0
h -6080 -273 335 0
h 273 6080 0
h -335 6080 0
h -6081 -272 334 0
h 272 6081 0
h -334 6081 0
h -6082 -271 333 0
h 271 6082 0
h -333 6082 0
h -6083 -270 332 0
h 270 6083 0
h -332 6083 0
h -6084 -269 331 0
h 269 6084 0
h -331 6084 0
h 6085 -341 -6075 -6076 -6077 -6078 -6079 -6080 -6081 -6082 -6083 -6084 268 0
h 341 -6085 0
h 6075 -6085 0
h 6076 -6085 0
h 6077 -6085 0
h 6078 -6085 0
h 6079 -6085 0
h 6080 -6085 0
h 6081 -6085 0
h 6082 -6085 0
h 6083 -6085 0
h 6084 -6085 0
h -268 -6085 0
h -6086 -341 277 0
h 341 6086 0
h -277 6086 0
h -6087 -340 276 0
h 340 6087 0
h -276 6087 0
h -6088 -339 275 0
h 339 6088 0
h -275 6088 0
h -6089 -338 274 0
h 338 6089 0
h -274 6089 0
h -6090 -337 273 0
h 337 6090 0
h -273 6090 0
h -6091 -336 272 0
h 336 6091 0
h -272 6091 0
h -6092 -335 271 0
h 335 6092 0
h -271 6092 0
h -6093 -334 270 0
h 334 6093 0
h -270 6093 0
h -6094 -333 269 0
h 333 6094 0
h -269 6094 0
h -6095 -332 268 0
h 332 6095 0
h -268 6095 0
h 6096 -278 -6086 -6087 -6088 -6089 -6090 -6091 -6092 -6093 -6094 -6095 331 0
h 278 -6096 0
h 6086 -6096 0
h 6087 -6096 0
h 6088 -6096 0
h 6089 -6096 0
h 6090 -6096 0
h 6091 -6096 0
h 6092 -6096 0
h 6093 -6096 0
h 6094 -6096 0
h 6095 -6096 0
h -331 -6096 0
h 6097 -150 42 0
h 150 -6097 0
h -42 -6097 0
h 6098 -42 150 0
h 42 -6098 0
h -150 -6098 0
h 6099 -151 43 0
h 151 -6099 0
h -43 -6099 0
h 6100 -43 151 0
h 43 -6100 0
h -151 -6100 0
h 6101 -152 44 0
h 152 -6101 0
h -44 -6101 0
h 6102 -44 152 0
h 44 -6102 0
h -152 -6102 0
h 6103 -153 45 0
h 153 -6103 0
h -45 -6103 0
h 6104 -45 153 0
h 45 -6104 0
h -153 -6104 0
h -6105 -300 340 0
h 300 6105 0
h -340 6105 0
h -6106 -299 339 0
h 299 6106 0
h -339 6106 0
h -6107 -298 338 0
h 298 6107 0
h -338 6107 0
h -6108 -297 337 0
h 297 6108 0
h -337 6108 0
h -6109 -296 336 0
h 296 6109 0
h -336 6109 0
h -6110 -295 335 0
h 295 6110 0
h -335 6110 0
h -6111 -294 334 0
h 294 6111 0
h -334 6111 0
h -6112 -293 333 0
h 293 6112 0
h -333 6112 0
h -6113 -292 332 0
h 292 6113 0
h -332 6113 0
h -6114 -291 331 0
h 291 6114 0
h -331 6114 0
h 6115 -341 -6105 -6106 -6107 -6108 -6109 -6110 -6111 -6112 -6113 -6114 290 0
h 341 -6115 0
h 6105 -6115 0
h 6106 -6115 0
h 6107 -6115 0
h 6108 -6115 0
h 6109 -6115 0
h 6110 -6115 0
h 6111 -6115 0
h 6112 -6115 0
h 6113 -6115 0
h 6114 -6115 0
h -290 -6115 0
h -6116 -341 299 0
h 341 6116 0
h -299 6116 0
h -6117 -340 298 0
h 340 6117 0
h -298 6117 0
h -6118 -339 297 0
h 339 6118 0
h -297 6118 0
h -6119 -338 296 0
h 338 6119 0
h -296 6119 0
h -6120 -337 295 0
h 337 6120 0
h -295 6120 0
h -6121 -336 294 0
h 336 6121 0
h -294 6121 0
h -6122 -335 293 0
h 335 6122 0
h -293 6122 0
h -6123 -334 292 0
h 334 6123 0
h -292 6123 0
h -6124 -333 291 0
h 333 6124 0
h -291 6124 0
h -6125 -332 290 0
h 332 6125 0
h -290 6125 0
h 6126 -300 -6116 -6117 -6118 -6119 -6120 -6121 -6122 -6123 -6124 -6125 331 0
h 300 -6126 0
h 6116 -6126 0
h 6117 -6126 0
h 6118 -6126 0
h 6119 -6126 0
h 6120 -6126 0
h 6121 -6126 0
h 6122 -6126 0
h 6123 -6126 0
h 6124 -6126 0
h 6125 -6126 0
h -331 -6126 0
h 6127 -150 61 0
h 150 -6127 0
h -61 -6127 0
h 6128 -61 150 0
h 61 -6128 0
h -150 -6128 0
h 6129 -151 62 0
h 151 -6129 0
h -62 -6129 0
h 6130 -62 151 0
h 62 -6130 0
h -151 -6130 0
h 6131 -152 63 0
h 152 -6131 0
h -63 -6131 0
h 6132 -63 152 0
h 63 -6132 0
h -152 -6132 0
h 6133 -153 64 0
h 153 -6133 0
h -64 -6133 0
h 6134 -64 153 0
h 64 -6134 0
h -153 -6134 0
h -6135 -289 340 0
h 289 6135 0
h -340 6135 0
h -6136 -288 339 0
h 288 6136 0
h -339 6136 0
h -6137 -287 338 0
h 287 6137 0
h -338 6137 0
h -6138 -286 337 0
h 286 6138 0
h -337 6138 0
h -6139 -285 336 0
h 285 6139 0
h -336 6139 0
h -6140 -284 335 0
h 284 6140 0
h -335 6140 0
h -6141 -283 334 0
h 283 6141 0
h -334 6141 0
h -6142 -282 333 0
h 282 6142 0
h -333 6142 0
h -6143 -281 332 0
h 281 6143 0
h -332 6143 0
h -6144 -280 331 0
h 280 6144 0
h -331 6144 0
h 6145 -341 -6135 -6136 -6137 -6138 -6139 -6140 -6141 -6142 -6143 -6144 279 0
h 341 -6145 0
h 6135 -6145 0
h 6136 -6145 0
h 6137 -6145 0
h 6138 -6145 0
h 6139 -6145 0
h 6140 -6145 0
h 6141 -6145 0
h 6142 -6145 0
h 6143 -6145 0
h 6144 -6145 0
h -279 -6145 0
h -6146 -341 288 0
h 341 6146 0
h -288 6146 0
h -6147 -340 287 0
h 340 6147 0
h -287 6147 0
h -6148 -339 286 0
h 339 6148 0
h -286 6148 0
h -6149 -338 285 0
h 338 6149 0
h -285 6149 0
h -6150 -337 284 0
h 337 6150 0
h -284 6150 0
h -6151 -336 283 0
h 336 6151 0
h -283 6151 0
h -6152 -335 282 0
h 335 6152 0
h -282 6152 0
h -6153 -334 281 0
h 334 6153 0
h -281 6153 0
h -6154 -333 280 0
h 333 6154 0
h -280 6154 0
h -6155 -332 279 0
h 332 6155 0
h -279 6155 0
h 6156 -289 -6146 -6147 -6148 -6149 -6150 -6151 -6152 -6153 -6154 -6155 331 0
h 289 -6156 0
h 6146 -6156 0
h 6147 -6156 0
h 6148 -6156 0
h 6149 -6156 0
h 6150 -6156 0
h 6151 -6156 0
h 6152 -6156 0
h 6153 -6156 0
h 6154 -6156 0
h 6155 -6156 0
h -331 -6156 0
h 6157 -150 57 0
h 150 -6157 0
h -57 -6157 0
h 6158 -57 150 0
h 57 -6158 0
h -150 -6158 0
h 6159 -151 58 0
h 151 -6159 0
h -58 -6159 0
h 6160 -58 151 0
h 58 -6160 0
h -151 -6160 0
h 6161 -152 59 0
h 152 -6161 0
h -59 -6161 0
h 6162 -59 152 0
h 59 -6162 0
h -152 -6162 0
h 6163 -153 60 0
h 153 -6163 0
h -60 -6163 0
h 6164 -60 153 0
h 60 -6164 0
h -153 -6164 0
h -6165 -278 325 0
h 278 6165 0
h -325 6165 0
h -6166 -277 324 0
h 277 6166 0
h -324 6166 0
h -6167 -276 323 0
h 276 6167 0
h -323 6167 0
h -6168 -275 322 0
h 275 6168 0
h -322 6168 0
h -6169 -274 321 0
h 274 6169 0
h -321 6169 0
h -6170 -273 320 0
h 273 6170 0
h -320 6170 0
h -6171 -272 319 0
h 272 6171 0
h -319 6171 0
h -6172 -271 318 0
h 271 6172 0
h -318 6172 0
h -6173 -270 317 0
h 270 6173 0
h -317 6173 0
h -6174 -269 316 0
h 269 6174 0
h -316 6174 0
h 6175 -326 -6165 -6166 -6167 -6168 -6169 -6170 -6171 -6172 -6173 -6174 268 0
h 326 -6175 0
h 6165 -6175 0
h 6166 -6175 0
h 6167 -6175 0
h 6168 -6175 0
h 6169 -6175 0
h 6170 -6175 0
h 6171 -6175 0
h 6172 -6175 0
h 6173 -6175 0
h 6174 -6175 0
h -268 -6175 0
h -6176 -326 277 0
h 326 6176 0
h -277 6176 0
h -6177 -325 276 0
h 325 6177 0
h -276 6177 0
h -6178 -324 275 0
h 324 6178 0
h -275 6178 0
h -6179 -323 274 0
h 323 6179 0
h -274 6179 0
h -6180 -322 273 0
h 322 6180 0
h -273 6180 0
h -6181 -321 272 0
h 321 6181 0
h -272 6181 0
h -6182 -320 271 0
h 320 6182 0
h -271 6182 0
h -6183 -319 270 0
h 319 6183 0
h -270 6183 0
h -6184 -318 269 0
h 318 6184 0
h -269 6184 0
h -6185 -317 268 0
h 317 6185 0
h -268 6185 0
h 6186 -278 -6176 -6177 -6178 -6179 -6180 -6181 -6182 -6183 -6184 -6185 316 0
h 278 -6186 0
h 6176 -6186 0
h 6177 -6186 0
h 6178 -6186 0
h 6179 -6186 0
h 6180 -6186 0
h 6181 -6186 0
h 6182 -6186 0
h 6183 -6186 0
h 6184 -6186 0
h 6185 -6186 0
h -316 -6186 0
h 6187 -142 42 0
h 142 -6187 0
h -42 -6187 0
h 6188 -42 142 0
h 42 -6188 0
h -142 -6188 0
h 6189 -143 43 0
h 143 -6189 0
h -43 -6189 0
h 6190 -43 143 0
h 43 -6190 0
h -143 -6190 0
h 6191 -144 44 0
h 144 -6191 0
h -44 -6191 0
h 6192 -44 144 0
h 44 -6192 0
h -144 -6192 0
h 6193 -145 45 0
h 145 -6193 0
h -45 -6193 0
h 6194 -45 145 0
h 45 -6194 0
h -145 -6194 0
h -6195 -300 325 0
h 300 6195 0
h -325 6195 0
h -6196 -299 324 0
h 299 6196 0
h -324 6196 0
h -6197 -298 323 0
h 298 6197 0
h -323 6197 0
h -6198 -297 322 0
h 297 6198 0
h -322 6198 0
h -6199 -296 321 0
h 296 6199 0
h -321 6199 0
h -6200 -295 320 0
h 295 6200 0
h -320 6200 0
h -6201 -294 319 0
h 294 6201 0
h -319 6201 0
h -6202 -293 318 0
h 293 6202 0
h -318 6202 0
h -6203 -292 317 0
h 292 6203 0
h -317 6203 0
h -6204 -291 316 0
h 291 6204 0
h -316 6204 0
h 6205 -326 -6195 -6196 -6197 -6198 -6199 -6200 -6201 -6202 -6203 -6204 290 0
h 326 -6205 0
h 6195 -6205 0
h 6196 -6205 0
h 6197 -6205 0
h 6198 -6205 0
h 6199 -6205 0
h 6200 -6205 0
h 6201 -6205 0
h 6202 -6205 0
h 6203 -6205 0
h 6204 -6205 0
h -290 -6205 0
h -6206 -326 299 0
h 326 6206 0
h -299 6206 0
h -6207 -325 298 0
h 325 6207 0
h -298 6207 0
h -6208 -324 297 0
h 324 6208 0
h -297 6208 0
h -6209 -323 296 0
h 323 6209 0
h -296 6209 0
h -6210 -322 295 0
h 322 6210 0
h -295 6210 0
h -6211 -321 294 0
h 321 6211 0
h -294 6211 0
h -6212 -320 293 0
h 320 6212 0
h -293 6212 0
h -6213 -319 292 0
h 319 6213 0
h -292 6213 0
h -6214 -318 291 0
h 318 6214 0
h -291 6214 0
h -6215 -317 290 0
h 317 6215 0
h -290 6215 0
h 6216 -300 -6206 -6207 -6208 -6209 -6210 -6211 -6212 -6213 -6214 -6215 316 0
h 300 -6216 0
h 6206 -6216 0
h 6207 -6216 0
h 6208 -6216 0
h 6209 -6216 0
h 6210 -6216 0
h 6211 -6216 0
h 6212 -6216 0
h 6213 -6216 0
h 6214 -6216 0
h 6215 -6216 0
h -316 -6216 0
h 6217 -142 61 0
h 142 -6217 0
h -61 -6217 0
h 6218 -61 142 0
h 61 -6218 0
h -142 -6218 0
h 6219 -143 62 0
h 143 -6219 0
h -62 -6219 0
h 6220 -62 143 0
h 62 -6220 0
h -143 -6220 0
h 6221 -144 63 0
h 144 -6221 0
h -63 -6221 0
h 6222 -63 144 0
h 63 -6222 0
h -144 -6222 0
h 6223 -145 64 0
h 145 -6223 0
h -64 -6223 0
h 6224 -64 145 0
h 64 -6224 0
h -145 -6224 0
h -6225 -289 325 0
h 289 6225 0
h -325 6225 0
h -6226 -288 324 0
h 288 6226 0
h -324 6226 0
h -6227 -287 323 0
h 287 6227 0
h -323 6227 0
h -6228 -286 322 0
h 286 6228 0
h -322 6228 0
h -6229 -285 321 0
h 285 6229 0
h -321 6229 0
h -6230 -284 320 0
h 284 6230 0
h -320 6230 0
h -6231 -283 319 0
h 283 6231 0
h -319 6231 0
h -6232 -282 318 0
h 282 6232 0
h -318 6232 0
h -6233 -281 317 0
h 281 6233 0
h -317 6233 0
h -6234 -280 316 0
h 280 6234 0
h -316 6234 0
h 6235 -326 -6225 -6226 -6227 -6228 -6229 -6230 -6231 -6232 -6233 -6234 279 0
h 326 -6235 0
h 6225 -6235 0
h 6226 -6235 0
h 6227 -6235 0
h 6228 -6235 0
h 6229 -6235 0
h 6230 -6235 0
h 6231 -6235 0
h 6232 -6235 0
h 6233 -6235 0
h 6234 -6235 0
h -279 -6235 0
h -6236 -326 288 0
h 326 6236 0
h -288 6236 0
h -6237 -325 287 0
h 325 6237 0
h -287 6237 0
h -6238 -324 286 0
h 324 6238 0
h -286 6238 0
h -6239 -323 285 0
h 323 6239 0
h -285 6239 0
h -6240 -322 284 0
h 322 6240 0
h -284 6240 0
h -6241 -321 283 0
h 321 6241 0
h -283 6241 0
h -6242 -320 282 0
h 320 6242 0
h -282 6242 0
h -6243 -319 281 0
h 319 6243 0
h -281 6243 0
h -6244 -318 280 0
h 318 6244 0
h -280 6244 0
h -6245 -317 279 0
h 317 6245 0
h -279 6245 0
h 6246 -289 -6236 -6237 -6238 -6239 -6240 -6241 -6242 -6243 -6244 -6245 316 0
h 289 -6246 0
h 6236 -6246 0
h 6237 -6246 0
h 6238 -6246 0
h 6239 -6246 0
h 6240 -6246 0
h 6241 -6246 0
h 6242 -6246 0
h 6243 -6246 0
h 6244 -6246 0
h 6245 -6246 0
h -316 -6246 0
h 6247 -142 57 0
h 142 -6247 0
h -57 -6247 0
h 6248 -57 142 0
h 57 -6248 0
h -142 -6248 0
h 6249 -143 58 0
h 143 -6249 0
h -58 -6249 0
h 6250 -58 143 0
h 58 -6250 0
h -143 -6250 0
h 6251 -144 59 0
h 144 -6251 0
h -59 -6251 0
h 6252 -59 144 0
h 59 -6252 0
h -144 -6252 0
h 6253 -145 60 0
h 145 -6253 0
h -60 -6253 0
h 6254 -60 145 0
h 60 -6254 0
h -145 -6254 0
h -6255 -278 314 0
h 278 6255 0
h -314 6255 0
h -6256 -277 313 0
h 277 6256 0
h -313 6256 0
h -6257 -276 312 0
h 276 6257 0
h -312 6257 0
h -6258 -275 311 0
h 275 6258 0
h -311 6258 0
h -6259 -274 310 0
h 274 6259 0
h -310 6259 0
h -6260 -273 309 0
h 273 6260 0
h -309 6260 0
h -6261 -272 308 0
h 272 6261 0
h -308 6261 0
h -6262 -271 307 0
h 271 6262 0
h -307 6262 0
h -6263 -270 306 0
h 270 6263 0
h -306 6263 0
h -6264 -269 305 0
h 269 6264 0
h -305 6264 0
h 6265 -315 -6255 -6256 -6257 -6258 -6259 -6260 -6261 -6262 -6263 -6264 268 0
h 315 -6265 0
h 6255 -6265 0
h 6256 -6265 0
h 6257 -6265 0
h 6258 -6265 0
h 6259 -6265 0
h 6260 -6265 0
h 6261 -6265 0
h 6262 -6265 0
h 6263 -6265 0
h 6264 -6265 0
h -268 -6265 0
h -6266 -315 277 0
h 315 6266 0
h -277 6266 0
h -6267 -314 276 0
h 314 6267 0
h -276 6267 0
h -6268 -313 275 0
h 313 6268 0
h -275 6268 0
h -6269 -312 274 0
h 312 6269 0
h -274 6269 0
h -6270 -311 273 0
h 311 6270 0
h -273 6270 0
h -6271 -310 272 0
h 310 6271 0
h -272 6271 0
h -6272 -309 271 0
h 309 6272 0
h -271 6272 0
h -6273 -308 270 0
h 308 6273 0
h -270 6273 0
h -6274 -307 269 0
h 307 6274 0
h -269 6274 0
h -6275 -306 268 0
h 306 6275 0
h -268 6275 0
h 6276 -278 -6266 -6267 -6268 -6269 -6270 -6271 -6272 -6273 -6274 -6275 305 0
h 278 -6276 0
h 6266 -6276 0
h 6267 -6276 0
h 6268 -6276 0
h 6269 -6276 0
h 6270 -6276 0
h 6271 -6276 0
h 6272 -6276 0
h 6273 -6276 0
h 6274 -6276 0
h 6275 -6276 0
h -305 -6276 0
h 6277 -146 42 0
h 146 -6277 0
h -42 -6277 0
h 6278 -42 146 0
h 42 -6278 0
h -146 -6278 0
h 6279 -147 43 0
h 147 -6279 0
h -43 -6279 0
h 6280 -43 147 0
h 43 -6280 0
h -147 -6280 0
h 6281 -148 44 0
h 148 -6281 0
h -44 -6281 0
h 6282 -44 148 0
h 44 -6282 0
h -148 -6282 0
h 6283 -149 45 0
h 149 -6283 0
h -45 -6283 0
h 6284 -45 149 0
h 45 -6284 0
h -149 -6284 0
h -6285 -300 314 0
h 300 6285 0
h -314 6285 0
h -6286 -299 313 0
h 299 6286 0
h -313 6286 0
h -6287 -298 312 0
h 298 6287 0
h -312 6287 0
h -6288 -297 311 0
h 297 6288 0
h -311 6288 0
h -6289 -296 310 0
h 296 6289 0
h -310 6289 0
h -6290 -295 309 0
h 295 6290 0
h -309 6290 0
h -6291 -294 308 0
h 294 6291 0
h -308 6291 0
h -6292 -293 307 0
h 293 6292 0
h -307 6292 0
h -6293 -292 306 0
h 292 6293 0
h -306 6293 0
h -6294 -291 305 0
h 291 6294 0
h -305 6294 0
h 6295 -315 -6285 -6286 -6287 -6288 -6289 -6290 -6291 -6292 -6293 -6294 290 0
h 315 -6295 0
h 6285 -6295 0
h 6286 -6295 0
h 6287 -6295 0
h 6288 -6295 0
h 6289 -6295 0
h 6290 -6295 0
h 6291 -6295 0
h 6292 -6295 0
h 6293 -6295 0
h 6294 -6295 0
h -290 -6295 0
h -6296 -315 299 0
h 315 6296 0
h -299 6296 0
h -6297 -314 298 0
h 314 6297 0
h -298 6297 0
h -6298 -313 297 0
h 313 6298 0
h -297 6298 0
h -6299 -312 296 0
h 312 6299 0
h -296 6299 0
h -6300 -311 295 0
h 311 6300 0
h -295 6300 0
h -6301 -310 294 0
h 310 6301 0
h -294 6301 0
h -6302 -309 293 0
h 309 6302 0
h -293 6302 0
h -6303 -308 292 0
h 308 6303 0
h -292 6303 0
h -6304 -307 291 0
h 307 6304 0
h -291 6304 0
h -6305 -306 290 0
h 306 6305 0
h -290 6305 0
h 6306 -300 -6296 -6297 -6298 -6299 -6300 -6301 -6302 -6303 -6304 -6305 305 0
h 300 -6306 0
h 6296 -6306 0
h 6297 -6306 0
h 6298 -6306 0
h 6299 -6306 0
h 6300 -6306 0
h 6301 -6306 0
h 6302 -6306 0
h 6303 -6306 0
h 6304 -6306 0
h 6305 -6306 0
h -305 -6306 0
h 6307 -146 61 0
h 146 -6307 0
h -61 -6307 0
h 6308 -61 146 0
h 61 -6308 0
h -146 -6308 0
h 6309 -147 62 0
h 147 -6309 0
h -62 -6309 0
h 6310 -62 147 0
h 62 -6310 0
h -147 -6310 0
h 6311 -148 63 0
h 148 -6311 0
h -63 -6311 0
h 6312 -63 148 0
h 63 -6312 0
h -148 -6312 0
h 6313 -149 64 0
h 149 -6313 0
h -64 -6313 0
h 6314 -64 149 0
h 64 -6314 0
h -149 -6314 0
h -6315 -289 314 0
h 289 6315 0
h -314 6315 0
h -6316 -288 313 0
h 288 6316 0
h -313 6316 0
h -6317 -287 312 0
h 287 6317 0
h -312 6317 0
h -6318 -286 311 0
h 286 6318 0
h -311 6318 0
h -6319 -285 310 0
h 285 6319 0
h -310 6319 0
h -6320 -284 309 0
h 284 6320 0
h -309 6320 0
h -6321 -283 308 0
h 283 6321 0
h -308 6321 0
h -6322 -282 307 0
h 282 6322 0
h -307 6322 0
h -6323 -281 306 0
h 281 6323 0
h -306 6323 0
h -6324 -280 305 0
h 280 6324 0
h -305 6324 0
h 6325 -315 -6315 -6316 -6317 -6318 -6319 -6320 -6321 -6322 -6323 -6324 279 0
h 315 -6325 0
h 6315 -6325 0
h 6316 -6325 0
h 6317 -6325 0
h 6318 -6325 0
h 6319 -6325 0
h 6320 -6325 0
h 6321 -6325 0
h 6322 -6325 0
h 6323 -6325 0
h 6324 -6325 0
h -279 -6325 0
h -6326 -315 288 0
h 315 6326 0
h -288 6326 0
h -6327 -314 287 0
h 314 6327 0
h -287 6327 0
h -6328 -313 286 0
h 313 6328 0
h -286 6328 0
h -6329 -312 285 0
h 312 6329 0
h -285 6329 0
h -6330 -311 284 0
h 311 6330 0
h -284 6330 0
h -6331 -310 283 0
h 310 6331 0
h -283 6331 0
h -6332 -309 282 0
h 309 6332 0
h -282 6332 0
h -6333 -308 281 0
h 308 6333 0
h -281 6333 0
h -6334 -307 280 0
h 307 6334 0
h -280 6334 0
h -6335 -306 279 0
h 306 6335 0
h -279 6335 0
h 6336 -289 -6326 -6327 -6328 -6329 -6330 -6331 -6332 -6333 -6334 -6335 305 0
h 289 -6336 0
h 6326 -6336 0
h 6327 -6336 0
h 6328 -6336 0
h 6329 -6336 0
h 6330 -6336 0
h 6331 -6336 0
h 6332 -6336 0
h 6333 -6336 0
h 6334 -6336 0
h 6335 -6336 0
h -305 -6336 0
h 6337 -146 57 0
h 146 -6337 0
h -57 -6337 0
h 6338 -57 146 0
h 57 -6338 0
h -146 -6338 0
h 6339 -147 58 0
h 147 -6339 0
h -58 -6339 0
h 6340 -58 147 0
h 58 -6340 0
h -147 -6340 0
h 6341 -148 59 0
h 148 -6341 0
h -59 -6341 0
h 6342 -59 148 0
h 59 -6342 0
h -148 -6342 0
h 6343 -149 60 0
h 149 -6343 0
h -60 -6343 0
h 6344 -60 149 0
h 60 -6344 0
h -149 -6344 0
h -6345 -203 354 0
h 203 6345 0
h -354 6345 0
h -6346 -202 353 0
h 202 6346 0
h -353 6346 0
h -6347 -201 352 0
h 201 6347 0
h -352 6347 0
h -6348 -200 351 0
h 200 6348 0
h -351 6348 0
h -6349 -199 350 0
h 199 6349 0
h -350 6349 0
h -6350 -198 349 0
h 198 6350 0
h -349 6350 0
h -6351 -197 348 0
h 197 6351 0
h -348 6351 0
h -6352 -196 347 0
h 196 6352 0
h -347 6352 0
h -6353 -195 346 0
h 195 6353 0
h -346 6353 0
h 6354 -355 -6345 -6346 -6347 -6348 -6349 -6350 -6351 -6352 -6353 194 193 0
h 355 -6354 0
h 6345 -6354 0
h 6346 -6354 0
h 6347 -6354 0
h 6348 -6354 0
h 6349 -6354 0
h 6350 -6354 0
h 6351 -6354 0
h 6352 -6354 0
h 6353 -6354 0
h -194 -6354 0
h -193 -6354 0
h -6355 -356 200 0
h 356 6355 0
h -200 6355 0
h -6356 -355 199 0
h 355 6356 0
h -199 6356 0
h -6357 -354 198 0
h 354 6357 0
h -198 6357 0
h -6358 -353 197 0
h 353 6358 0
h -197 6358 0
h -6359 -352 196 0
h 352 6359 0
h -196 6359 0
h -6360 -351 195 0
h 351 6360 0
h -195 6360 0
h -6361 -350 194 0
h 350 6361 0
h -194 6361 0
h -6362 -349 193 0
h 349 6362 0
h -193 6362 0
h 6363 -201 -6355 -6356 -6357 -6358 -6359 -6360 -6361 -6362 348 347 346 0
h 201 -6363 0
h 6355 -6363 0
h 6356 -6363 0
h 6357 -6363 0
h 6358 -6363 0
h 6359 -6363 0
h 6360 -6363 0
h 6361 -6363 0
h 6362 -6363 0
h -348 -6363 0
h -347 -6363 0
h -346 -6363 0
h 6364 -154 342 0
h 154 -6364 0
h -342 -6364 0
h 6365 -342 154 0
h 342 -6365 0
h -154 -6365 0
h 6366 -155 343 0
h 155 -6366 0
h -343 -6366 0
h 6367 -343 155 0
h 343 -6367 0
h -155 -6367 0
h 6368 -156 344 0
h 156 -6368 0
h -344 -6368 0
h 6369 -344 156 0
h 344 -6369 0
h -156 -6369 0
h 6370 -157 345 0
h 157 -6370 0
h -345 -6370 0
h 6371 -345 157 0
h 345 -6371 0
h -157 -6371 0
h -6372 -218 354 0
h 218 6372 0
h -354 6372 0
h -6373 -217 353 0
h 217 6373 0
h -353 6373 0
h -6374 -216 352 0
h 216 6374 0
h -352 6374 0
h -6375 -215 351 0
h 215 6375 0
h -351 6375 0
h -6376 -214 350 0
h 214 6376 0
h -350 6376 0
h -6377 -213 349 0
h 213 6377 0
h -349 6377 0
h -6378 -212 348 0
h 212 6378 0
h -348 6378 0
h -6379 -211 347 0
h 211 6379 0
h -347 6379 0
h -6380 -210 346 0
h 210 6380 0
h -346 6380 0
h 6381 -355 -6372 -6373 -6374 -6375 -6376 -6377 -6378 -6379 -6380 209 208 0
h 355 -6381 0
h 6372 -6381 0
h 6373 -6381 0
h 6374 -6381 0
h 6375 -6381 0
h 6376 -6381 0
h 6377 -6381 0
h 6378 -6381 0
h 6379 -6381 0
h 6380 -6381 0
h -209 -6381 0
h -208 -6381 0
h -6382 -356 215 0
h 356 6382 0
h -215 6382 0
h -6383 -355 214 0
h 355 6383 0
h -214 6383 0
h -6384 -354 213 0
h 354 6384 0
h -213 6384 0
h -6385 -353 212 0
h 353 6385 0
h -212 6385 0
h -6386 -352 211 0
h 352 6386 0
h -211 6386 0
h -6387 -351 210 0
h 351 6387 0
h -210 6387 0
h -6388 -350 209 0
h 350 6388 0
h -209 6388 0
h -6389 -349 208 0
h 349 6389 0
h -208 6389 0
h 6390 -216 -6382 -6383 -6384 -6385 -6386 -6387 -6388 -6389 348 347 346 0
h 216 -6390 0
h 6382 -6390 0
h 6383 -6390 0
h 6384 -6390 0
h 6385 -6390 0
h 6386 -6390 0
h 6387 -6390 0
h 6388 -6390 0
h 6389 -6390 0
h -348 -6390 0
h -347 -6390 0
h -346 -6390 0
h 6391 -154 327 0
h 154 -6391 0
h -327 -6391 0
h 6392 -327 154 0
h 327 -6392 0
h -154 -6392 0
h 6393 -155 328 0
h 155 -6393 0
h -328 -6393 0
h 6394 -328 155 0
h 328 -6394 0
h -155 -6394 0
h 6395 -156 329 0
h 156 -6395 0
h -329 -6395 0
h 6396 -329 156 0
h 329 -6396 0
h -156 -6396 0
h 6397 -157 330 0
h 157 -6397 0
h -330 -6397 0
h 6398 -330 157 0
h 330 -6398 0
h -157 -6398 0
h -6399 -86 354 0
h 86 6399 0
h -354 6399 0
h -6400 -85 353 0
h 85 6400 0
h -353 6400 0
h -6401 -84 352 0
h 84 6401 0
h -352 6401 0
h -6402 -83 351 0
h 83 6402 0
h -351 6402 0
h -6403 -82 350 0
h 82 6403 0
h -350 6403 0
h -6404 -81 349 0
h 81 6404 0
h -349 6404 0
h -6405 -80 348 0
h 80 6405 0
h -348 6405 0
h -6406 -79 347 0
h 79 6406 0
h -347 6406 0
h -6407 -78 346 0
h 78 6407 0
h -346 6407 0
h 6408 -355 -6399 -6400 -6401 -6402 -6403 -6404 -6405 -6406 -6407 77 76 0
h 355 -6408 0
h 6399 -6408 0
h 6400 -6408 0
h 6401 -6408 0
h 6402 -6408 0
h 6403 -6408 0
h 6404 -6408 0
h 6405 -6408 0
h 6406 -6408 0
h 6407 -6408 0
h -77 -6408 0
h -76 -6408 0
h -6409 -356 84 0
h 356 6409 0
h -84 6409 0
h -6410 -355 83 0
h 355 6410 0
h -83 6410 0
h -6411 -354 82 0
h 354 6411 0
h -82 6411 0
h -6412 -353 81 0
h 353 6412 0
h -81 6412 0
h -6413 -352 80 0
h 352 6413 0
h -80 6413 0
h -6414 -351 79 0
h 351 6414 0
h -79 6414 0
h -6415 -350 78 0
h 350 6415 0
h -78 6415 0
h -6416 -349 77 0
h 349 6416 0
h -77 6416 0
h -6417 -348 76 0
h 348 6417 0
h -76 6417 0
h 6418 -85 -6409 -6410 -6411 -6412 -6413 -6414 -6415 -6416 -6417 347 346 0
h 85 -6418 0
h 6409 -6418 0
h 6410 -6418 0
h 6411 -6418 0
h 6412 -6418 0
h 6413 -6418 0
h 6414 -6418 0
h 6415 -6418 0
h 6416 -6418 0
h 6417 -6418 0
h -347 -6418 0
h -346 -6418 0
h 6419 -154 185 0
h 154 -6419 0
h -185 -6419 0
h 6420 -185 154 0
h 185 -6420 0
h -154 -6420 0
h 6421 -155 186 0
h 155 -6421 0
h -186 -6421 0
h 6422 -186 155 0
h 186 -6422 0
h -155 -6422 0
h 6423 -156 187 0
h 156 -6423 0
h -187 -6423 0
h 6424 -187 156 0
h 187 -6424 0
h -156 -6424 0
h 6425 -157 188 0
h 157 -6425 0
h -188 -6425 0
h 6426 -188 157 0
h 188 -6426 0
h -157 -6426 0
h -6427 -75 354 0
h 75 6427 0
h -354 6427 0
h -6428 -74 353 0
h 74 6428 0
h -353 6428 0
h -6429 -73 352 0
h 73 6429 0
h -352 6429 0
h -6430 -72 351 0
h 72 6430 0
h -351 6430 0
h -6431 -71 350 0
h 71 6431 0
h -350 6431 0
h -6432 -70 349 0
h 70 6432 0
h -349 6432 0
h -6433 -69 348 0
h 69 6433 0
h -348 6433 0
h -6434 -68 347 0
h 68 6434 0
h -347 6434 0
h -6435 -67 346 0
h 67 6435 0
h -346 6435 0
h 6436 -355 -6427 -6428 -6429 -6430 -6431 -6432 -6433 -6434 -6435 66 65 0
h 355 -6436 0
h 6427 -6436 0
h 6428 -6436 0
h 6429 -6436 0
h 6430 -6436 0
h 6431 -6436 0
h 6432 -6436 0
h 6433 -6436 0
h 6434 -6436 0
h 6435 -6436 0
h -66 -6436 0
h -65 -6436 0
h -6437 -356 73 0
h 356 6437 0
h -73 6437 0
h -6438 -355 72 0
h 355 6438 0
h -72 6438 0
h -6439 -354 71 0
h 354 6439 0
h -71 6439 0
h -6440 -353 70 0
h 353 6440 0
h -70 6440 0
h -6441 -352 69 0
h 352 6441 0
h -69 6441 0
h -6442 -351 68 0
h 351 6442 0
h -68 6442 0
h -6443 -350 67 0
h 350 6443 0
h -67 6443 0
h -6444 -349 66 0
h 349 6444 0
h -66 6444 0
h -6445 -348 65 0
h 348 6445 0
h -65 6445 0
h 6446 -74 -6437 -6438 -6439 -6440 -6441 -6442 -6443 -6444 -6445 347 346 0
h 74 -6446 0
h 6437 -6446 0
h 6438 -6446 0
h 6439 -6446 0
h 6440 -6446 0
h 6441 -6446 0
h 6442 -6446 0
h 6443 -6446 0
h 6444 -6446 0
h 6445 -6446 0
h -347 -6446 0
h -346 -6446 0
h 6447 -154 177 0
h 154 -6447 0
h -177 -6447 0
h 6448 -177 154 0
h 177 -6448 0
h -154 -6448 0
h 6449 -155 178 0
h 155 -6449 0
h -178 -6449 0
h 6450 -178 155 0
h 178 -6450 0
h -155 -6450 0
h 6451 -156 179 0
h 156 -6451 0
h -179 -6451 0
h 6452 -179 156 0
h 179 -6452 0
h -156 -6452 0
h 6453 -157 180 0
h 157 -6453 0
h -180 -6453 0
h 6454 -180 157 0
h 180 -6454 0
h -157 -6454 0
h -6455 -203 340 0
h 203 6455 0
h -340 6455 0
h -6456 -202 339 0
h 202 6456 0
h -339 6456 0
h -6457 -201 338 0
h 201 6457 0
h -338 6457 0
h -6458 -200 337 0
h 200 6458 0
h -337 6458 0
h -6459 -199 336 0
h 199 6459 0
h -336 6459 0
h -6460 -198 335 0
h 198 6460 0
h -335 6460 0
h -6461 -197 334 0
h 197 6461 0
h -334 6461 0
h -6462 -196 333 0
h 196 6462 0
h -333 6462 0
h -6463 -195 332 0
h 195 6463 0
h -332 6463 0
h -6464 -194 331 0
h 194 6464 0
h -331 6464 0
h 6465 -341 -6455 -6456 -6457 -6458 -6459 -6460 -6461 -6462 -6463 -6464 193 0
h 341 -6465 0
h 6455 -6465 0
h 6456 -6465 0
h 6457 -6465 0
h 6458 -6465 0
h 6459 -6465 0
h 6460 -6465 0
h 6461 -6465 0
h 6462 -6465 0
h 6463 -6465 0
h 6464 -6465 0
h -193 -6465 0
h -6466 -341 200 0
h 341 6466 0
h -200 6466 0
h -6467 -340 199 0
h 340 6467 0
h -199 6467 0
h -6468 -339 198 0
h 339 6468 0
h -198 6468 0
h -6469 -338 197 0
h 338 6469 0
h -197 6469 0
h -6470 -337 196 0
h 337 6470 0
h -196 6470 0
h -6471 -336 195 0
h 336 6471 0
h -195 6471 0
h -6472 -335 194 0
h 335 6472 0
h -194 6472 0
h -6473 -334 193 0
h 334 6473 0
h -193 6473 0
h 6474 -201 -6466 -6467 -6468 -6469 -6470 -6471 -6472 -6473 333 332 331 0
h 201 -6474 0
h 6466 -6474 0
h 6467 -6474 0
h 6468 -6474 0
h 6469 -6474 0
h 6470 -6474 0
h 6471 -6474 0
h 6472 -6474 0
h 6473 -6474 0
h -333 -6474 0
h -332 -6474 0
h -331 -6474 0
h 6475 -150 342 0
h 150 -6475 0
h -342 -6475 0
h 6476 -342 150 0
h 342 -6476 0
h -150 -6476 0
h 6477 -151 343 0
h 151 -6477 0
h -343 -6477 0
h 6478 -343 151 0
h 343 -6478 0
h -151 -6478 0
h 6479 -152 344 0
h 152 -6479 0
h -344 -6479 0
h 6480 -344 152 0
h 344 -6480 0
h -152 -6480 0
h 6481 -153 345 0
h 153 -6481 0
h -345 -6481 0
h 6482 -345 153 0
h 345 -6482 0
h -153 -6482 0
h -6483 -218 340 0
h 218 6483 0
h -340 6483 0
h -6484 -217 339 0
h 217 6484 0
h -339 6484 0
h -6485 -216 338 0
h 216 6485 0
h -338 6485 0
h -6486 -215 337 0
h 215 6486 0
h -337 6486 0
h -6487 -214 336 0
h 214 6487 0
h -336 6487 0
h -6488 -213 335 0
h 213 6488 0
h -335 6488 0
h -6489 -212 334 0
h 212 6489 0
h -334 6489 0
h -6490 -211 333 0
h 211 6490 0
h -333 6490 0
h -6491 -210 332 0
h 210 6491 0
h -332 6491 0
h -6492 -209 331 0
h 209 6492 0
h -331 6492 0
h 6493 -341 -6483 -6484 -6485 -6486 -6487 -6488 -6489 -6490 -6491 -6492 208 0
h 341 -6493 0
h 6483 -6493 0
h 6484 -6493 0
h 6485 -6493 0
h 6486 -6493 0
h 6487 -6493 0
h 6488 -6493 0
h 6489 -6493 0
h 6490 -6493 0
h 6491 -6493 0
h 6492 -6493 0
h -208 -6493 0
h -6494 -341 215 0
h 341 6494 0
h -215 6494 0
h -6495 -340 214 0
h 340 6495 0
h -214 6495 0
h -6496 -339 213 0
h 339 6496 0
h -213 6496 0
h -6497 -338 212 0
h 338 6497 0
h -212 6497 0
h -6498 -337 211 0
h 337 6498 0
h -211 6498 0
h -6499 -336 210 0
h 336 6499 0
h -210 6499 0
h -6500 -335 209 0
h 335 6500 0
h -209 6500 0
h -6501 -334 208 0
h 334 6501 0
h -208 6501 0
h 6502 -216 -6494 -6495 -6496 -6497 -6498 -6499 -6500 -6501 333 332 331 0
h 216 -6502 0
h 6494 -6502 0
h 6495 -6502 0
h 6496 -6502 0
h 6497 -6502 0
h 6498 -6502 0
h 6499 -6502 0
h 6500 -6502 0
h 6501 -6502 0
h -333 -6502 0
h -332 -6502 0
h -331 -6502 0
h 6503 -150 327 0
h 150 -6503 0
h -327 -6503 0
h 6504 -327 150 0
h 327 -6504 0
h -150 -6504 0
h 6505 -151 328 0
h 151 -6505 0
h -328 -6505 0
h 6506 -328 151 0
h 328 -6506 0
h -151 -6506 0
h 6507 -152 329 0
h 152 -6507 0
h -329 -6507 0
h 6508 -329 152 0
h 329 -6508 0
h -152 -6508 0
h 6509 -153 330 0
h 153 -6509 0
h -330 -6509 0
h 6510 -330 153 0
h 330 -6510 0
h -153 -6510 0
h -6511 -203 325 0
h 203 6511 0
h -325 6511 0
h -6512 -202 324 0
h 202 6512 0
h -324 6512 0
h -6513 -201 323 0
h 201 6513 0
h -323 6513 0
h -6514 -200 322 0
h 200 6514 0
h -322 6514 0
h -6515 -199 321 0
h 199 6515 0
h -321 6515 0
h -6516 -198 320 0
h 198 6516 0
h -320 6516 0
h -6517 -197 319 0
h 197 6517 0
h -319 6517 0
h -6518 -196 318 0
h 196 6518 0
h -318 6518 0
h -6519 -195 317 0
h 195 6519 0
h -317 6519 0
h -6520 -194 316 0
h 194 6520 0
h -316 6520 0
h 6521 -326 -6511 -6512 -6513 -6514 -6515 -6516 -6517 -6518 -6519 -6520 193 0
h 326 -6521 0
h 6511 -6521 0
h 6512 -6521 0
h 6513 -6521 0
h 6514 -6521 0
h 6515 -6521 0
h 6516 -6521 0
h 6517 -6521 0
h 6518 -6521 0
h 6519 -6521 0
h 6520 -6521 0
h -193 -6521 0
h -6522 -326 200 0
h 326 6522 0
h -200 6522 0
h -6523 -325 199 0
h 325 6523 0
h -199 6523 0
h -6524 -324 198 0
h 324 6524 0
h -198 6524 0
h -6525 -323 197 0
h 323 6525 0
h -197 6525 0
h -6526 -322 196 0
h 322 6526 0
h -196 6526 0
h -6527 -321 195 0
h 321 6527 0
h -195 6527 0
h -6528 -320 194 0
h 320 6528 0
h -194 6528 0
h -6529 -319 193 0
h 319 6529 0
h -193 6529 0
h 6530 -201 -6522 -6523 -6524 -6525 -6526 -6527 -6528 -6529 318 317 316 0
h 201 -6530 0
h 6522 -6530 0
h 6523 -6530 0
h 6524 -6530 0
h 6525 -6530 0
h 6526 -6530 0
h 6527 -6530 0
h 6528 -6530 0
h 6529 -6530 0
h -318 -6530 0
h -317 -6530 0
h -316 -6530 0
h 6531 -142 342 0
h 142 -6531 0
h -342 -6531 0
h 6532 -342 142 0
h 342 -6532 0
h -142 -6532 0
h 6533 -143 343 0
h 143 -6533 0
h -343 -6533 0
h 6534 -343 143 0
h 343 -6534 0
h -143 -6534 0
h 6535 -144 344 0
h 144 -6535 0
h -344 -6535 0
h 6536 -344 144 0
h 344 -6536 0
h -144 -6536 0
h 6537 -145 345 0
h 145 -6537 0
h -345 -6537 0
h 6538 -345 145 0
h 345 -6538 0
h -145 -6538 0
h -6539 -218 325 0
h 218 6539 0
h -325 6539 0
h -6540 -217 324 0
h 217 6540 0
h -324 6540 0
h -6541 -216 323 0
h 216 6541 0
h -323 6541 0
h -6542 -215 322 0
h 215 6542 0
h -322 6542 0
h -6543 -214 321 0
h 214 6543 0
h -321 6543 0
h -6544 -213 320 0
h 213 6544 0
h -320 6544 0
h -6545 -212 319 0
h 212 6545 0
h -319 6545 0
h -6546 -211 318 0
h 211 6546 0
h -318 6546 0
h -6547 -210 317 0
h 210 6547 0
h -317 6547 0
h -6548 -209 316 0
h 209 6548 0
h -316 6548 0
h 6549 -326 -6539 -6540 -6541 -6542 -6543 -6544 -6545 -6546 -6547 -6548 208 0
h 326 -6549 0
h 6539 -6549 0
h 6540 -6549 0
h 6541 -6549 0
h 6542 -6549 0
h 6543 -6549 0
h 6544 -6549 0
h 6545 -6549 0
h 6546 -6549 0
h 6547 -6549 0
h 6548 -6549 0
h -208 -6549 0
h -6550 -326 215 0
h 326 6550 0
h -215 6550 0
h -6551 -325 214 0
h 325 6551 0
h -214 6551 0
h -6552 -324 213 0
h 324 6552 0
h -213 6552 0
h -6553 -323 212 0
h 323 6553 0
h -212 6553 0
h -6554 -322 211 0
h 322 6554 0
h -211 6554 0
h -6555 -321 210 0
h 321 6555 0
h -210 6555 0
h -6556 -320 209 0
h 320 6556 0
h -209 6556 0
h -6557 -319 208 0
h 319 6557 0
h -208 6557 0
h 6558 -216 -6550 -6551 -6552 -6553 -6554 -6555 -6556 -6557 318 317 316 0
h 216 -6558 0
h 6550 -6558 0
h 6551 -6558 0
h 6552 -6558 0
h 6553 -6558 0
h 6554 -6558 0
h 6555 -6558 0
h 6556 -6558 0
h 6557 -6558 0
h -318 -6558 0
h -317 -6558 0
h -316 -6558 0
h 6559 -142 327 0
h 142 -6559 0
h -327 -6559 0
h 6560 -327 142 0
h 327 -6560 0
h -142 -6560 0
h 6561 -143 328 0
h 143 -6561 0
h -328 -6561 0
h 6562 -328 143 0
h 328 -6562 0
h -143 -6562 0
h 6563 -144 329 0
h 144 -6563 0
h -329 -6563 0
h 6564 -329 144 0
h 329 -6564 0
h -144 -6564 0
h 6565 -145 330 0
h 145 -6565 0
h -330 -6565 0
h 6566 -330 145 0
h 330 -6566 0
h -145 -6566 0
h -6567 -203 314 0
h 203 6567 0
h -314 6567 0
h -6568 -202 313 0
h 202 6568 0
h -313 6568 0
h -6569 -201 312 0
h 201 6569 0
h -312 6569 0
h -6570 -200 311 0
h 200 6570 0
h -311 6570 0
h -6571 -199 310 0
h 199 6571 0
h -310 6571 0
h -6572 -198 309 0
h 198 6572 0
h -309 6572 0
h -6573 -197 308 0
h 197 6573 0
h -308 6573 0
h -6574 -196 307 0
h 196 6574 0
h -307 6574 0
h -6575 -195 306 0
h 195 6575 0
h -306 6575 0
h -6576 -194 305 0
h 194 6576 0
h -305 6576 0
h 6577 -315 -6567 -6568 -6569 -6570 -6571 -6572 -6573 -6574 -6575 -6576 193 0
h 315 -6577 0
h 6567 -6577 0
h 6568 -6577 0
h 6569 -6577 0
h 6570 -6577 0
h 6571 -6577 0
h 6572 -6577 0
h 6573 -6577 0
h 6574 -6577 0
h 6575 -6577 0
h 6576 -6577 0
h -193 -6577 0
h -6578 -315 200 0
h 315 6578 0
h -200 6578 0
h -6579 -314 199 0
h 314 6579 0
h -199 6579 0
h -6580 -313 198 0
h 313 6580 0
h -198 6580 0
h -6581 -312 197 0
h 312 6581 0
h -197 6581 0
h -6582 -311 196 0
h 311 6582 0
h -196 6582 0
h -6583 -310 195 0
h 310 6583 0
h -195 6583 0
h -6584 -309 194 0
h 309 6584 0
h -194 6584 0
h -6585 -308 193 0
h 308 6585 0
h -193 6585 0
h 6586 -201 -6578 -6579 -6580 -6581 -6582 -6583 -6584 -6585 307 306 305 0
h 201 -6586 0
h 6578 -6586 0
h 6579 -6586 0
h 6580 -6586 0
h 6581 -6586 0
h 6582 -6586 0
h 6583 -6586 0
h 6584 -6586 0
h 6585 -6586 0
h -307 -6586 0
h -306 -6586 0
h -305 -6586 0
h 6587 -146 342 0
h 146 -6587 0
h -342 -6587 0
h 6588 -342 146 0
h 342 -6588 0
h -146 -6588 0
h 6589 -147 343 0
h 147 -6589 0
h -343 -6589 0
h 6590 -343 147 0
h 343 -6590 0
h -147 -6590 0
h 6591 -148 344 0
h 148 -6591 0
h -344 -6591 0
h 6592 -344 148 0
h 344 -6592 0
h -148 -6592 0
h 6593 -149 345 0
h 149 -6593 0
h -345 -6593 0
h 6594 -345 149 0
h 345 -6594 0
h -149 -6594 0
h -6595 -218 314 0
h 218 6595 0
h -314 6595 0
h -6596 -217 313 0
h 217 6596 0
h -313 6596 0
h -6597 -216 312 0
h 216 6597 0
h -312 6597 0
h -6598 -215 311 0
h 215 6598 0
h -311 6598 0
h -6599 -214 310 0
h 214 6599 0
h -310 6599 0
h -6600 -213 309 0
h 213 6600 0
h -309 6600 0
h -6601 -212 308 0
h 212 6601 0
h -308 6601 0
h -6602 -211 307 0
h 211 6602 0
h -307 6602 0
h -6603 -210 306 0
h 210 6603 0
h -306 6603 0
h -6604 -209 305 0
h 209 6604 0
h -305 6604 0
h 6605 -315 -6595 -6596 -6597 -6598 -6599 -6600 -6601 -6602 -6603 -6604 208 0
h 315 -6605 0
h 6595 -6605 0
h 6596 -6605 0
h 6597 -6605 0
h 6598 -6605 0
h 6599 -6605 0
h 6600 -6605 0
h 6601 -6605 0
h 6602 -6605 0
h 6603 -6605 0
h 6604 -6605 0
h -208 -6605 0
h -6606 -315 215 0
h 315 6606 0
h -215 6606 0
h -6607 -314 214 0
h 314 6607 0
h -214 6607 0
h -6608 -313 213 0
h 313 6608 0
h -213 6608 0
h -6609 -312 212 0
h 312 6609 0
h -212 6609 0
h -6610 -311 211 0
h 311 6610 0
h -211 6610 0
h -6611 -310 210 0
h 310 6611 0
h -210 6611 0
h -6612 -309 209 0
h 309 6612 0
h -209 6612 0
h -6613 -308 208 0
h 308 6613 0
h -208 6613 0
h 6614 -216 -6606 -6607 -6608 -6609 -6610 -6611 -6612 -6613 307 306 305 0
h 216 -6614 0
h 6606 -6614 0
h 6607 -6614 0
h 6608 -6614 0
h 6609 -6614 0
h 6610 -6614 0
h 6611 -6614 0
h 6612 -6614 0
h 6613 -6614 0
h -307 -6614 0
h -306 -6614 0
h -305 -6614 0
h 6615 -146 327 0
h 146 -6615 0
h -327 -6615 0
h 6616 -327 146 0
h 327 -6616 0
h -146 -6616 0
h 6617 -147 328 0
h 147 -6617 0
h -328 -6617 0
h 6618 -328 147 0
h 328 -6618 0
h -147 -6618 0
h 6619 -148 329 0
h 148 -6619 0
h -329 -6619 0
h 6620 -329 148 0
h 329 -6620 0
h -148 -6620 0
h 6621 -149 330 0
h 149 -6621 0
h -330 -6621 0
h 6622 -330 149 0
h 330 -6622 0
h -149 -6622 0
h -6623 -86 340 0
h 86 6623 0
h -340 6623 0
h -6624 -85 339 0
h 85 6624 0
h -339 6624 0
h -6625 -84 338 0
h 84 6625 0
h -338 6625 0
h -6626 -83 337 0
h 83 6626 0
h -337 6626 0
h -6627 -82 336 0
h 82 6627 0
h -336 6627 0
h -6628 -81 335 0
h 81 6628 0
h -335 6628 0
h -6629 -80 334 0
h 80 6629 0
h -334 6629 0
h -6630 -79 333 0
h 79 6630 0
h -333 6630 0
h -6631 -78 332 0
h 78 6631 0
h -332 6631 0
h -6632 -77 331 0
h 77 6632 0
h -331 6632 0
h 6633 -341 -6623 -6624 -6625 -6626 -6627 -6628 -6629 -6630 -6631 -6632 76 0
h 341 -6633 0
h 6623 -6633 0
h 6624 -6633 0
h 6625 -6633 0
h 6626 -6633 0
h 6627 -6633 0
h 6628 -6633 0
h 6629 -6633 0
h 6630 -6633 0
h 6631 -6633 0
h 6632 -6633 0
h -76 -6633 0
h -6634 -341 84 0
h 341 6634 0
h -84 6634 0
h -6635 -340 83 0
h 340 6635 0
h -83 6635 0
h -6636 -339 82 0
h 339 6636 0
h -82 6636 0
h -6637 -338 81 0
h 338 6637 0
h -81 6637 0
h -6638 -337 80 0
h 337 6638 0
h -80 6638 0
h -6639 -336 79 0
h 336 6639 0
h -79 6639 0
h -6640 -335 78 0
h 335 6640 0
h -78 6640 0
h -6641 -334 77 0
h 334 6641 0
h -77 6641 0
h -6642 -333 76 0
h 333 6642 0
h -76 6642 0
h 6643 -85 -6634 -6635 -6636 -6637 -6638 -6639 -6640 -6641 -6642 332 331 0
h 85 -6643 0
h 6634 -6643 0
h 6635 -6643 0
h 6636 -6643 0
h 6637 -6643 0
h 6638 -6643 0
h 6639 -6643 0
h 6640 -6643 0
h 6641 -6643 0
h 6642 -6643 0
h -332 -6643 0
h -331 -6643 0
h 6644 -150 185 0
h 150 -6644 0
h -185 -6644 0
h 6645 -185 150 0
h 185 -6645 0
h -150 -6645 0
h 6646 -151 186 0
h 151 -6646 0
h -186 -6646 0
h 6647 -186 151 0
h 186 -6647 0
h -151 -6647 0
h 6648 -152 187 0
h 152 -6648 0
h -187 -6648 0
h 6649 -187 152 0
h 187 -6649 0
h -152 -6649 0
h 6650 -153 188 0
h 153 -6650 0
h -188 -6650 0
h 6651 -188 153 0
h 188 -6651 0
h -153 -6651 0
h -6652 -75 340 0
h 75 6652 0
h -340 6652 0
h -6653 -74 339 0
h 74 6653 0
h -339 6653 0
h -6654 -73 338 0
h 73 6654 0
h -338 6654 0
h -6655 -72 337 0
h 72 6655 0
h -337 6655 0
h -6656 -71 336 0
h 71 6656 0
h -336 6656 0
h -6657 -70 335 0
h 70 6657 0
h -335 6657 0
h -6658 -69 334 0
h 69 6658 0
h -334 6658 0
h -6659 -68 333 0
h 68 6659 0
h -333 6659 0
h -6660 -67 332 0
h 67 6660 0
h -332 6660 0
h -6661 -66 331 0
h 66 6661 0
h -331 6661 0
h 6662 -341 -6652 -6653 -6654 -6655 -6656 -6657 -6658 -6659 -6660 -6661 65 0
h 341 -6662 0
h 6652 -6662 0
h 6653 -6662 0
h 6654 -6662 0
h 6655 -6662 0
h 6656 -6662 0
h 6657 -6662 0
h 6658 -6662 0
h 6659 -6662 0
h 6660 -6662 0
h 6661 -6662 0
h -65 -6662 0
h -6663 -341 73 0
h 341 6663 0
h -73 6663 0
h -6664 -340 72 0
h 340 6664 0
h -72 6664 0
h -6665 -339 71 0
h 339 6665 0
h -71 6665 0
h -6666 -338 70 0
h 338 6666 0
h -70 6666 0
h -6667 -337 69 0
h 337 6667 0
h -69 6667 0
h -6668 -336 68 0
h 336 6668 0
h -68 6668 0
h -6669 -335 67 0
h 335 6669 0
h -67 6669 0
h -6670 -334 66 0
h 334 6670 0
h -66 6670 0
h -6671 -333 65 0
h 333 6671 0
h -65 6671 0
h 6672 -74 -6663 -6664 -6665 -6666 -6667 -6668 -6669 -6670 -6671 332 331 0
h 74 -6672 0
h 6663 -6672 0
h 6664 -6672 0
h 6665 -6672 0
h 6666 -6672 0
h 6667 -6672 0
h 6668 -6672 0
h 6669 -6672 0
h 6670 -6672 0
h 6671 -6672 0
h -332 -6672 0
h -331 -6672 0
h 6673 -150 177 0
h 150 -6673 0
h -177 -6673 0
h 6674 -177 150 0
h 177 -6674 0
h -150 -6674 0
h 6675 -151 178 0
h 151 -6675 0
h -178 -6675 0
h 6676 -178 151 0
h 178 -6676 0
h -151 -6676 0
h 6677 -152 179 0
h 152 -6677 0
h -179 -6677 0
h 6678 -179 152 0
h 179 -6678 0
h -152 -6678 0
h 6679 -153 180 0
h 153 -6679 0
h -180 -6679 0
h 6680 -180 153 0
h 180 -6680 0
h -153 -6680 0
h -6681 -86 325 0
h 86 6681 0
h -325 6681 0
h -6682 -85 324 0
h 85 6682 0
h -324 6682 0
h -6683 -84 323 0
h 84 6683 0
h -323 6683 0
h -6684 -83 322 0
h 83 6684 0
h -322 6684 0
h -6685 -82 321 0
h 82 6685 0
h -321 6685 0
h -6686 -81 320 0
h 81 6686 0
h -320 6686 0
h -6687 -80 319 0
h 80 6687 0
h -319 6687 0
h -6688 -79 318 0
h 79 6688 0
h -318 6688 0
h -6689 -78 317 0
h 78 6689 0
h -317 6689 0
h -6690 -77 316 0
h 77 6690 0
h -316 6690 0
h 6691 -326 -6681 -6682 -6683 -6684 -6685 -6686 -6687 -6688 -6689 -6690 76 0
h 326 -6691 0
h 6681 -6691 0
h 6682 -6691 0
h 6683 -6691 0
h 6684 -6691 0
h 6685 -6691 0
h 6686 -6691 0
h 6687 -6691 0
h 6688 -6691 0
h 6689 -6691 0
h 6690 -6691 0
h -76 -6691 0
h -6692 -326 84 0
h 326 6692 0
h -84 6692 0
h -6693 -325 83 0
h 325 6693 0
h -83 6693 0
h -6694 -324 82 0
h 324 6694 0
h -82 6694 0
h -6695 -323 81 0
h 323 6695 0
h -81 6695 0
h -6696 -322 80 0
h 322 6696 0
h -80 6696 0
h -6697 -321 79 0
h 321 6697 0
h -79 6697 0
h -6698 -320 78 0
h 320 6698 0
h -78 6698 0
h -6699 -319 77 0
h 319 6699 0
h -77 6699 0
h -6700 -318 76 0
h 318 6700 0
h -76 6700 0
h 6701 -85 -6692 -6693 -6694 -6695 -6696 -6697 -6698 -6699 -6700 317 316 0
h 85 -6701 0
h 6692 -6701 0
h 6693 -6701 0
h 6694 -6701 0
h 6695 -6701 0
h 6696 -6701 0
h 6697 -6701 0
h 6698 -6701 0
h 6699 -6701 0
h 6700 -6701 0
h -317 -6701 0
h -316 -6701 0
h 6702 -142 185 0
h 142 -6702 0
h -185 -6702 0
h 6703 -185 142 0
h 185 -6703 0
h -142 -6703 0
h 6704 -143 186 0
h 143 -6704 0
h -186 -6704 0
h 6705 -186 143 0
h 186 -6705 0
h -143 -6705 0
h 6706 -144 187 0
h 144 -6706 0
h -187 -6706 0
h 6707 -187 144 0
h 187 -6707 0
h -144 -6707 0
h 6708 -145 188 0
h 145 -6708 0
h -188 -6708 0
h 6709 -188 145 0
h 188 -6709 0
h -145 -6709 0
h -6710 -75 325 0
h 75 6710 0
h -325 6710 0
h -6711 -74 324 0
h 74 6711 0
h -324 6711 0
h -6712 -73 323 0
h 73 6712 0
h -323 6712 0
h -6713 -72 322 0
h 72 6713 0
h -322 6713 0
h -6714 -71 321 0
h 71 6714 0
h -321 6714 0
h -6715 -70 320 0
h 70 6715 0
h -320 6715 0
h -6716 -69 319 0
h 69 6716 0
h -319 6716 0
h -6717 -68 318 0
h 68 6717 0
h -318 6717 0
h -6718 -67 317 0
h 67 6718 0
h -317 6718 0
h -6719 -66 316 0
h 66 6719 0
h -316 6719 0
h 6720 -326 -6710 -6711 -6712 -6713 -6714 -6715 -6716 -6717 -6718 -6719 65 0
h 326 -6720 0
h 6710 -6720 0
h 6711 -6720 0
h 6712 -6720 0
h 6713 -6720 0
h 6714 -6720 0
h 6715 -6720 0
h 6716 -6720 0
h 6717 -6720 0
h 6718 -6720 0
h 6719 -6720 0
h -65 -6720 0
h -6721 -326 73 0
h 326 6721 0
h -73 6721 0
h -6722 -325 72 0
h 325 6722 0
h -72 6722 0
h -6723 -324 71 0
h 324 6723 0
h -71 6723 0
h -6724 -323 70 0
h 323 6724 0
h -70 6724 0
h -6725 -322 69 0
h 322 6725 0
h -69 6725 0
h -6726 -321 68 0
h 321 6726 0
h -68 6726 0
h -6727 -320 67 0
h 320 6727 0
h -67 6727 0
h -6728 -319 66 0
h 319 6728 0
h -66 6728 0
h -6729 -318 65 0
h 318 6729 0
h -65 6729 0
h 6730 -74 -6721 -6722 -6723 -6724 -6725 -6726 -6727 -6728 -6729 317 316 0
h 74 -6730 0
h 6721 -6730 0
h 6722 -6730 0
h 6723 -6730 0
h 6724 -6730 0
h 6725 -6730 0
h 6726 -6730 0
h 6727 -6730 0
h 6728 -6730 0
h 6729 -6730 0
h -317 -6730 0
h -316 -6730 0
h 6731 -142 177 0
h 142 -6731 0
h -177 -6731 0
h 6732 -177 142 0
h 177 -6732 0
h -142 -6732 0
h 6733 -143 178 0
h 143 -6733 0
h -178 -6733 0
h 6734 -178 143 0
h 178 -6734 0
h -143 -6734 0
h 6735 -144 179 0
h 144 -6735 0
h -179 -6735 0
h 6736 -179 144 0
h 179 -6736 0
h -144 -6736 0
h 6737 -145 180 0
h 145 -6737 0
h -180 -6737 0
h 6738 -180 145 0
h 180 -6738 0
h -145 -6738 0
h -6739 -86 314 0
h 86 6739 0
h -314 6739 0
h -6740 -85 313 0
h 85 6740 0
h -313 6740 0
h -6741 -84 312 0
h 84 6741 0
h -312 6741 0
h -6742 -83 311 0
h 83 6742 0
h -311 6742 0
h -6743 -82 310 0
h 82 6743 0
h -310 6743 0
h -6744 -81 309 0
h 81 6744 0
h -309 6744 0
h -6745 -80 308 0
h 80 6745 0
h -308 6745 0
h -6746 -79 307 0
h 79 6746 0
h -307 6746 0
h -6747 -78 306 0
h 78 6747 0
h -306 6747 0
h -6748 -77 305 0
h 77 6748 0
h -305 6748 0
h 6749 -315 -6739 -6740 -6741 -6742 -6743 -6744 -6745 -6746 -6747 -6748 76 0
h 315 -6749 0
h 6739 -6749 0
h 6740 -6749 0
h 6741 -6749 0
h 6742 -6749 0
h 6743 -6749 0
h 6744 -6749 0
h 6745 -6749 0
h 6746 -6749 0
h 6747 -6749 0
h 6748 -6749 0
h -76 -6749 0
h -6750 -315 84 0
h 315 6750 0
h -84 6750 0
h -6751 -314 83 0
h 314 6751 0
h -83 6751 0
h -6752 -313 82 0
h 313 6752 0
h -82 6752 0
h -6753 -312 81 0
h 312 6753 0
h -81 6753 0
h -6754 -311 80 0
h 311 6754 0
h -80 6754 0
h -6755 -310 79 0
h 310 6755 0
h -79 6755 0
h -6756 -309 78 0
h 309 6756 0
h -78 6756 0
h -6757 -308 77 0
h 308 6757 0
h -77 6757 0
h -6758 -307 76 0
h 307 6758 0
h -76 6758 0
h 6759 -85 -6750 -6751 -6752 -6753 -6754 -6755 -6756 -6757 -6758 306 305 0
h 85 -6759 0
h 6750 -6759 0
h 6751 -6759 0
h 6752 -6759 0
h 6753 -6759 0
h 6754 -6759 0
h 6755 -6759 0
h 6756 -6759 0
h 6757 -6759 0
h 6758 -6759 0
h -306 -6759 0
h -305 -6759 0
h 6760 -146 185 0
h 146 -6760 0
h -185 -6760 0
h 6761 -185 146 0
h 185 -6761 0
h -146 -6761 0
h 6762 -147 186 0
h 147 -6762 0
h -186 -6762 0
h 6763 -186 147 0
h 186 -6763 0
h -147 -6763 0
h 6764 -148 187 0
h 148 -6764 0
h -187 -6764 0
h 6765 -187 148 0
h 187 -6765 0
h -148 -6765 0
h 6766 -149 188 0
h 149 -6766 0
h -188 -6766 0
h 6767 -188 149 0
h 188 -6767 0
h -149 -6767 0
h -6768 -75 314 0
h 75 6768 0
h -314 6768 0
h -6769 -74 313 0
h 74 6769 0
h -313 6769 0
h -6770 -73 312 0
h 73 6770 0
h -312 6770 0
h -6771 -72 311 0
h 72 6771 0
h -311 6771 0
h -6772 -71 310 0
h 71 6772 0
h -310 6772 0
h -6773 -70 309 0
h 70 6773 0
h -309 6773 0
h -6774 -69 308 0
h 69 6774 0
h -308 6774 0
h -6775 -68 307 0
h 68 6775 0
h -307 6775 0
h -6776 -67 306 0
h 67 6776 0
h -306 6776 0
h -6777 -66 305 0
h 66 6777 0
h -305 6777 0
h 6778 -315 -6768 -6769 -6770 -6771 -6772 -6773 -6774 -6775 -6776 -6777 65 0
h 315 -6778 0
h 6768 -6778 0
h 6769 -6778 0
h 6770 -6778 0
h 6771 -6778 0
h 6772 -6778 0
h 6773 -6778 0
h 6774 -6778 0
h 6775 -6778 0
h 6776 -6778 0
h 6777 -6778 0
h -65 -6778 0
h -6779 -315 73 0
h 315 6779 0
h -73 6779 0
h -6780 -314 72 0
h 314 6780 0
h -72 6780 0
h -6781 -313 71 0
h 313 6781 0
h -71 6781 0
h -6782 -312 70 0
h 312 6782 0
h -70 6782 0
h -6783 -311 69 0
h 311 6783 0
h -69 6783 0
h -6784 -310 68 0
h 310 6784 0
h -68 6784 0
h -6785 -309 67 0
h 309 6785 0
h -67 6785 0
h -6786 -308 66 0
h 308 6786 0
h -66 6786 0
h -6787 -307 65 0
h 307 6787 0
h -65 6787 0
h 6788 -74 -6779 -6780 -6781 -6782 -6783 -6784 -6785 -6786 -6787 306 305 0
h 74 -6788 0
h 6779 -6788 0
h 6780 -6788 0
h 6781 -6788 0
h 6782 -6788 0
h 6783 -6788 0
h 6784 -6788 0
h 6785 -6788 0
h 6786 -6788 0
h 6787 -6788 0
h -306 -6788 0
h -305 -6788 0
h 6789 -146 177 0
h 146 -6789 0
h -177 -6789 0
h 6790 -177 146 0
h 177 -6790 0
h -146 -6790 0
h 6791 -147 178 0
h 147 -6791 0
h -178 -6791 0
h 6792 -178 147 0
h 178 -6792 0
h -147 -6792 0
h 6793 -148 179 0
h 148 -6793 0
h -179 -6793 0
h 6794 -179 148 0
h 179 -6794 0
h -148 -6794 0
h 6795 -149 180 0
h 149 -6795 0
h -180 -6795 0
h 6796 -180 149 0
h 180 -6796 0
h -149 -6796 0
h -6797 -252 354 0
h 252 6797 0
h -354 6797 0
h -6798 -251 353 0
h 251 6798 0
h -353 6798 0
h -6799 -250 352 0
h 250 6799 0
h -352 6799 0
h -6800 -249 351 0
h 249 6800 0
h -351 6800 0
h -6801 -248 350 0
h 248 6801 0
h -350 6801 0
h -6802 -247 349 0
h 247 6802 0
h -349 6802 0
h -6803 -246 348 0
h 246 6803 0
h -348 6803 0
h -6804 -245 347 0
h 245 6804 0
h -347 6804 0
h -6805 -244 346 0
h 244 6805 0
h -346 6805 0
h 6806 -355 -6797 -6798 -6799 -6800 -6801 -6802 -6803 -6804 -6805 243 242 0
h 355 -6806 0
h 6797 -6806 0
h 6798 -6806 0
h 6799 -6806 0
h 6800 -6806 0
h 6801 -6806 0
h 6802 -6806 0
h 6803 -6806 0
h 6804 -6806 0
h 6805 -6806 0
h -243 -6806 0
h -242 -6806 0
h -6807 -356 249 0
h 356 6807 0
h -249 6807 0
h -6808 -355 248 0
h 355 6808 0
h -248 6808 0
h -6809 -354 247 0
h 354 6809 0
h -247 6809 0
h -6810 -353 246 0
h 353 6810 0
h -246 6810 0
h -6811 -352 245 0
h 352 6811 0
h -245 6811 0
h -6812 -351 244 0
h 351 6812 0
h -244 6812 0
h -6813 -350 243 0
h 350 6813 0
h -243 6813 0
h -6814 -349 242 0
h 349 6814 0
h -242 6814 0
h 6815 -250 -6807 -6808 -6809 -6810 -6811 -6812 -6813 -6814 348 347 346 0
h 250 -6815 0
h 6807 -6815 0
h 6808 -6815 0
h 6809 -6815 0
h 6810 -6815 0
h 6811 -6815 0
h 6812 -6815 0
h 6813 -6815 0
h 6814 -6815 0
h -348 -6815 0
h -347 -6815 0
h -346 -6815 0
h 6816 -154 1 0
h 154 -6816 0
h -1 -6816 0
h 6817 -1 154 0
h 1 -6817 0
h -154 -6817 0
h 6818 -155 2 0
h 155 -6818 0
h -2 -6818 0
h 6819 -2 155 0
h 2 -6819 0
h -155 -6819 0
h 6820 -156 3 0
h 156 -6820 0
h -3 -6820 0
h 6821 -3 156 0
h 3 -6821 0
h -156 -6821 0
h 6822 -157 4 0
h 157 -6822 0
h -4 -6822 0
h 6823 -4 157 0
h 4 -6823 0
h -157 -6823 0
h -6824 -237 354 0
h 237 6824 0
h -354 6824 0
h -6825 -236 353 0
h 236 6825 0
h -353 6825 0
h -6826 -235 352 0
h 235 6826 0
h -352 6826 0
h -6827 -234 351 0
h 234 6827 0
h -351 6827 0
h -6828 -233 350 0
h 233 6828 0
h -350 6828 0
h -6829 -232 349 0
h 232 6829 0
h -349 6829 0
h -6830 -231 348 0
h 231 6830 0
h -348 6830 0
h -6831 -230 347 0
h 230 6831 0
h -347 6831 0
h -6832 -229 346 0
h 229 6832 0
h -346 6832 0
h 6833 -355 -6824 -6825 -6826 -6827 -6828 -6829 -6830 -6831 -6832 228 227 0
h 355 -6833 0
h 6824 -6833 0
h 6825 -6833 0
h 6826 -6833 0
h 6827 -6833 0
h 6828 -6833 0
h 6829 -6833 0
h 6830 -6833 0
h 6831 -6833 0
h 6832 -6833 0
h -228 -6833 0
h -227 -6833 0
h -6834 -356 234 0
h 356 6834 0
h -234 6834 0
h -6835 -355 233 0
h 355 6835 0
h -233 6835 0
h -6836 -354 232 0
h 354 6836 0
h -232 6836 0
h -6837 -353 231 0
h 353 6837 0
h -231 6837 0
h -6838 -352 230 0
h 352 6838 0
h -230 6838 0
h -6839 -351 229 0
h 351 6839 0
h -229 6839 0
h -6840 -350 228 0
h 350 6840 0
h -228 6840 0
h -6841 -349 227 0
h 349 6841 0
h -227 6841 0
h 6842 -235 -6834 -6835 -6836 -6837 -6838 -6839 -6840 -6841 348 347 346 0
h 235 -6842 0
h 6834 -6842 0
h 6835 -6842 0
h 6836 -6842 0
h 6837 -6842 0
h 6838 -6842 0
h 6839 -6842 0
h 6840 -6842 0
h 6841 -6842 0
h -348 -6842 0
h -347 -6842 0
h -346 -6842 0
h 6843 -154 357 0
h 154 -6843 0
h -357 -6843 0
h 6844 -357 154 0
h 357 -6844 0
h -154 -6844 0
h 6845 -155 358 0
h 155 -6845 0
h -358 -6845 0
h 6846 -358 155 0
h 358 -6846 0
h -155 -6846 0
h 6847 -156 359 0
h 156 -6847 0
h -359 -6847 0
h 6848 -359 156 0
h 359 -6848 0
h -156 -6848 0
h 6849 -157 360 0
h 157 -6849 0
h -360 -6849 0
h 6850 -360 157 0
h 360 -6850 0
h -157 -6850 0
h -6851 -130 354 0
h 130 6851 0
h -354 6851 0
h -6852 -129 353 0
h 129 6852 0
h -353 6852 0
h -6853 -128 352 0
h 128 6853 0
h -352 6853 0
h -6854 -127 351 0
h 127 6854 0
h -351 6854 0
h -6855 -126 350 0
h 126 6855 0
h -350 6855 0
h -6856 -125 349 0
h 125 6856 0
h -349 6856 0
h -6857 -124 348 0
h 124 6857 0
h -348 6857 0
h -6858 -123 347 0
h 123 6858 0
h -347 6858 0
h -6859 -122 346 0
h 122 6859 0
h -346 6859 0
h 6860 -355 -6851 -6852 -6853 -6854 -6855 -6856 -6857 -6858 -6859 121 120 0
h 355 -6860 0
h 6851 -6860 0
h 6852 -6860 0
h 6853 -6860 0
h 6854 -6860 0
h 6855 -6860 0
h 6856 -6860 0
h 6857 -6860 0
h 6858 -6860 0
h 6859 -6860 0
h -121 -6860 0
h -120 -6860 0
h -6861 -356 128 0
h 356 6861 0
h -128 6861 0
h -6862 -355 127 0
h 355 6862 0
h -127 6862 0
h -6863 -354 126 0
h 354 6863 0
h -126 6863 0
h -6864 -353 125 0
h 353 6864 0
h -125 6864 0
h -6865 -352 124 0
h 352 6865 0
h -124 6865 0
h -6866 -351 123 0
h 351 6866 0
h -123 6866 0
h -6867 -350 122 0
h 350 6867 0
h -122 6867 0
h -6868 -349 121 0
h 349 6868 0
h -121 6868 0
h -6869 -348 120 0
h 348 6869 0
h -120 6869 0
h 6870 -129 -6861 -6862 -6863 -6864 -6865 -6866 -6867 -6868 -6869 347 346 0
h 129 -6870 0
h 6861 -6870 0
h 6862 -6870 0
h 6863 -6870 0
h 6864 -6870 0
h 6865 -6870 0
h 6866 -6870 0
h 6867 -6870 0
h 6868 -6870 0
h 6869 -6870 0
h -347 -6870 0
h -346 -6870 0
h 6871 -154 219 0
h 154 -6871 0
h -219 -6871 0
h 6872 -219 154 0
h 219 -6872 0
h -154 -6872 0
h 6873 -155 220 0
h 155 -6873 0
h -220 -6873 0
h 6874 -220 155 0
h 220 -6874 0
h -155 -6874 0
h 6875 -156 221 0
h 156 -6875 0
h -221 -6875 0
h 6876 -221 156 0
h 221 -6876 0
h -156 -6876 0
h 6877 -157 222 0
h 157 -6877 0
h -222 -6877 0
h 6878 -222 157 0
h 222 -6878 0
h -157 -6878 0
h -6879 -108 354 0
h 108 6879 0
h -354 6879 0
h -6880 -107 353 0
h 107 6880 0
h -353 6880 0
h -6881 -106 352 0
h 106 6881 0
h -352 6881 0
h -6882 -105 351 0
h 105 6882 0
h -351 6882 0
h -6883 -104 350 0
h 104 6883 0
h -350 6883 0
h -6884 -103 349 0
h 103 6884 0
h -349 6884 0
h -6885 -102 348 0
h 102 6885 0
h -348 6885 0
h -6886 -101 347 0
h 101 6886 0
h -347 6886 0
h -6887 -100 346 0
h 100 6887 0
h -346 6887 0
h 6888 -355 -6879 -6880 -6881 -6882 -6883 -6884 -6885 -6886 -6887 99 98 0
h 355 -6888 0
h 6879 -6888 0
h 6880 -6888 0
h 6881 -6888 0
h 6882 -6888 0
h 6883 -6888 0
h 6884 -6888 0
h 6885 -6888 0
h 6886 -6888 0
h 6887 -6888 0
h -99 -6888 0
h -98 -6888 0
h -6889 -356 106 0
h 356 6889 0
h -106 6889 0
h -6890 -355 105 0
h 355 6890 0
h -105 6890 0
h -6891 -354 104 0
h 354 6891 0
h -104 6891 0
h -6892 -353 103 0
h 353 6892 0
h -103 6892 0
h -6893 -352 102 0
h 352 6893 0
h -102 6893 0
h -6894 -351 101 0
h 351 6894 0
h -101 6894 0
h -6895 -350 100 0
h 350 6895 0
h -100 6895 0
h -6896 -349 99 0
h 349 6896 0
h -99 6896 0
h -6897 -348 98 0
h 348 6897 0
h -98 6897 0
h 6898 -107 -6889 -6890 -6891 -6892 -6893 -6894 -6895 -6896 -6897 347 346 0
h 107 -6898 0
h 6889 -6898 0
h 6890 -6898 0
h 6891 -6898 0
h 6892 -6898 0
h 6893 -6898 0
h 6894 -6898 0
h 6895 -6898 0
h 6896 -6898 0
h 6897 -6898 0
h -347 -6898 0
h -346 -6898 0
h 6899 -154 204 0
h 154 -6899 0
h -204 -6899 0
h 6900 -204 154 0
h 204 -6900 0
h -154 -6900 0
h 6901 -155 205 0
h 155 -6901 0
h -205 -6901 0
h 6902 -205 155 0
h 205 -6902 0
h -155 -6902 0
h 6903 -156 206 0
h 156 -6903 0
h -206 -6903 0
h 6904 -206 156 0
h 206 -6904 0
h -156 -6904 0
h 6905 -157 207 0
h 157 -6905 0
h -207 -6905 0
h 6906 -207 157 0
h 207 -6906 0
h -157 -6906 0
h -6907 -252 340 0
h 252 6907 0
h -340 6907 0
h -6908 -251 339 0
h 251 6908 0
h -339 6908 0
h -6909 -250 338 0
h 250 6909 0
h -338 6909 0
h -6910 -249 337 0
h 249 6910 0
h -337 6910 0
h -6911 -248 336 0
h 248 6911 0
h -336 6911 0
h -6912 -247 335 0
h 247 6912 0
h -335 6912 0
h -6913 -246 334 0
h 246 6913 0
h -334 6913 0
h -6914 -245 333 0
h 245 6914 0
h -333 6914 0
h -6915 -244 332 0
h 244 6915 0
h -332 6915 0
h -6916 -243 331 0
h 243 6916 0
h -331 6916 0
h 6917 -341 -6907 -6908 -6909 -6910 -6911 -6912 -6913 -6914 -6915 -6916 242 0
h 341 -6917 0
h 6907 -6917 0
h 6908 -6917 0
h 6909 -6917 0
h 6910 -6917 0
h 6911 -6917 0
h 6912 -6917 0
h 6913 -6917 0
h 6914 -6917 0
h 6915 -6917 0
h 6916 -6917 0
h -242 -6917 0
h -6918 -341 249 0
h 341 6918 0
h -249 6918 0
h -6919 -340 248 0
h 340 6919 0
h -248 6919 0
h -6920 -339 247 0
h 339 6920 0
h -247 6920 0
h -6921 -338 246 0
h 338 6921 0
h -246 6921 0
h -6922 -337 245 0
h 337 6922 0
h -245 6922 0
h -6923 -336 244 0
h 336 6923 0
h -244 6923 0
h -6924 -335 243 0
h 335 6924 0
h -243 6924 0
h -6925 -334 242 0
h 334 6925 0
h -242 6925 0
h 6926 -250 -6918 -6919 -6920 -6921 -6922 -6923 -6924 -6925 333 332 331 0
h 250 -6926 0
h 6918 -6926 0
h 6919 -6926 0
h 6920 -6926 0
h 6921 -6926 0
h 6922 -6926 0
h 6923 -6926 0
h 6924 -6926 0
h 6925 -6926 0
h -333 -6926 0
h -332 -6926 0
h -331 -6926 0
h 6927 -150 1 0
h 150 -6927 0
h -1 -6927 0
h 6928 -1 150 0
h 1 -6928 0
h -150 -6928 0
h 6929 -151 2 0
h 151 -6929 0
h -2 -6929 0
h 6930 -2 151 0
h 2 -6930 0
h -151 -6930 0
h 6931 -152 3 0
h 152 -6931 0
h -3 -6931 0
h 6932 -3 152 0
h 3 -6932 0
h -152 -6932 0
h 6933 -153 4 0
h 153 -6933 0
h -4 -6933 0
h 6934 -4 153 0
h 4 -6934 0
h -153 -6934 0
h -6935 -237 340 0
h 237 6935 0
h -340 6935 0
h -6936 -236 339 0
h 236 6936 0
h -339 6936 0
h -6937 -235 338 0
h 235 6937 0
h -338 6937 0
h -6938 -234 337 0
h 234 6938 0
h -337 6938 0
h -6939 -233 336 0
h 233 6939 0
h -336 6939 0
h -6940 -232 335 0
h 232 6940 0
h -335 6940 0
h -6941 -231 334 0
h 231 6941 0
h -334 6941 0
h -6942 -230 333 0
h 230 6942 0
h -333 6942 0
h -6943 -229 332 0
h 229 6943 0
h -332 6943 0
h -6944 -228 331 0
h 228 6944 0
h -331 6944 0
h 6945 -341 -6935 -6936 -6937 -6938 -6939 -6940 -6941 -6942 -6943 -6944 227 0
h 341 -6945 0
h 6935 -6945 0
h 6936 -6945 0
h 6937 -6945 0
h 6938 -6945 0
h 6939 -6945 0
h 6940 -6945 0
h 6941 -6945 0
h 6942 -6945 0
h 6943 -6945 0
h 6944 -6945 0
h -227 -6945 0
h -6946 -341 234 0
h 341 6946 0
h -234 6946 0
h -6947 -340 233 0
h 340 6947 0
h -233 6947 0
h -6948 -339 232 0
h 339 6948 0
h -232 6948 0
h -6949 -338 231 0
h 338 6949 0
h -231 6949 0
h -6950 -337 230 0
h 337 6950 0
h -230 6950 0
h -6951 -336 229 0
h 336 6951 0
h -229 6951 0
h -6952 -335 228 0
h 335 6952 0
h -228 6952 0
h -6953 -334 227 0
h 334 6953 0
h -227 6953 0
h 6954 -235 -6946 -6947 -6948 -6949 -6950 -6951 -6952 -6953 333 332 331 0
h 235 -6954 0
h 6946 -6954 0
h 6947 -6954 0
h 6948 -6954 0
h 6949 -6954 0
h 6950 -6954 0
h 6951 -6954 0
h 6952 -6954 0
h 6953 -6954 0
h -333 -6954 0
h -332 -6954 0
h -331 -6954 0
h 6955 -150 357 0
h 150 -6955 0
h -357 -6955 0
h 6956 -357 150 0
h 357 -6956 0
h -150 -6956 0
h 6957 -151 358 0
h 151 -6957 0
h -358 -6957 0
h 6958 -358 151 0
h 358 -6958 0
h -151 -6958 0
h 6959 -152 359 0
h 152 -6959 0
h -359 -6959 0
h 6960 -359 152 0
h 359 -6960 0
h -152 -6960 0
h 6961 -153 360 0
h 153 -6961 0
h -360 -6961 0
h 6962 -360 153 0
h 360 -6962 0
h -153 -6962 0
h -6963 -252 325 0
h 252 6963 0
h -325 6963 0
h -6964 -251 324 0
h 251 6964 0
h -324 6964 0
h -6965 -250 323 0
h 250 6965 0
h -323 6965 0
h -6966 -249 322 0
h 249 6966 0
h -322 6966 0
h -6967 -248 321 0
h 248 6967 0
h -321 6967 0
h -6968 -247 320 0
h 247 6968 0
h -320 6968 0
h -6969 -246 319 0
h 246 6969 0
h -319 6969 0
h -6970 -245 318 0
h 245 6970 0
h -318 6970 0
h -6971 -244 317 0
h 244 6971 0
h -317 6971 0
h -6972 -243 316 0
h 243 6972 0
h -316 6972 0
h 6973 -326 -6963 -6964 -6965 -6966 -6967 -6968 -6969 -6970 -6971 -6972 242 0
h 326 -6973 0
h 6963 -6973 0
h 6964 -6973 0
h 6965 -6973 0
h 6966 -6973 0
h 6967 -6973 0
h 6968 -6973 0
h 6969 -6973 0
h 6970 -6973 0
h 6971 -6973 0
h 6972 -6973 0
h -242 -6973 0
h -6974 -326 249 0
h 326 6974 0
h -249 6974 0
h -6975 -325 248 0
h 325 6975 0
h -248 6975 0
h -6976 -324 247 0
h 324 6976 0
h -247 6976 0
h -6977 -323 246 0
h 323 6977 0
h -246 6977 0
h -6978 -322 245 0
h 322 6978 0
h -245 6978 0
h -6979 -321 244 0
h 321 6979 0
h -244 6979 0
h -6980 -320 243 0
h 320 6980 0
h -243 6980 0
h -6981 -319 242 0
h 319 6981 0
h -242 6981 0
h 6982 -250 -6974 -6975 -6976 -6977 -6978 -6979 -6980 -6981 318 317 316 0
h 250 -6982 0
h 6974 -6982 0
h 6975 -6982 0
h 6976 -6982 0
h 6977 -6982 0
h 6978 -6982 0
h 6979 -6982 0
h 6980 -6982 0
h 6981 -6982 0
h -318 -6982 0
h -317 -6982 0
h -316 -6982 0
h 6983 -142 1 0
h 142 -6983 0
h -1 -6983 0
h 6984 -1 142 0
h 1 -6984 0
h -142 -6984 0
h 6985 -143 2 0
h 143 -6985 0
h -2 -6985 0
h 6986 -2 143 0
h 2 -6986 0
h -143 -6986 0
h 6987 -144 3 0
h 144 -6987 0
h -3 -6987 0
h 6988 -3 144 0
h 3 -6988 0
h -144 -6988 0
h 6989 -145 4 0
h 145 -6989 0
h -4 -6989 0
h 6990 -4 145 0
h 4 -6990 0
h -145 -6990 0
h -6991 -237 325 0
h 237 6991 0
h -325 6991 0
h -6992 -236 324 0
h 236 6992 0
h -324 6992 0
h -6993 -235 323 0
h 235 6993 0
h -323 6993 0
h -6994 -234 322 0
h 234 6994 0
h -322 6994 0
h -6995 -233 321 0
h 233 6995 0
h -321 6995 0
h -6996 -232 320 0
h 232 6996 0
h -320 6996 0
h -6997 -231 319 0
h 231 6997 0
h -319 6997 0
h -6998 -230 318 0
h 230 6998 0
h -318 6998 0
h -6999 -229 317 0
h 229 6999 0
h -317 6999 0
h -7000 -228 316 0
h 228 7000 0
h -316 7000 0
h 7001 -326 -6991 -6992 -6993 -6994 -6995 -6996 -6997 -6998 -6999 -7000 227 0
h 326 -7001 0
h 6991 -7001 0
h 6992 -7001 0
h 6993 -7001 0
h 6994 -7001 0
h 6995 -7001 0
h 6996 -7001 0
h 6997 -7001 0
h 6998 -7001 0
h 6999 -7001 0
h 7000 -7001 0
h -227 -7001 0
h -7002 -326 234 0
h 326 7002 0
h -234 7002 0
h -7003 -325 233 0
h 325 7003 0
h -233 7003 0
h -7004 -324 232 0
h 324 7004 0
h -232 7004 0
h -7005 -323 231 0
h 323 7005 0
h -231 7005 0
h -7006 -322 230 0
h 322 7006 0
h -230 7006 0
h -7007 -321 229 0
h 321 7007 0
h -229 7007 0
h -7008 -320 228 0
h 320 7008 0
h -228 7008 0
h -7009 -319 227 0
h 319 7009 0
h -227 7009 0
h 7010 -235 -7002 -7003 -7004 -7005 -7006 -7007 -7008 -7009 318 317 316 0
h 235 -7010 0
h 7002 -7010 0
h 7003 -7010 0
h 7004 -7010 0
h 7005 -7010 0
h 7006 -7010 0
h 7007 -7010 0
h 7008 -7010 0
h 7009 -7010 0
h -318 -7010 0
h -317 -7010 0
h -316 -7010 0
h 7011 -142 357 0
h 142 -7011 0
h -357 -7011 0
h 7012 -357 142 0
h 357 -7012 0
h -142 -7012 0
h 7013 -143 358 0
h 143 -7013 0
h -358 -7013 0
h 7014 -358 143 0
h 358 -7014 0
h -143 -7014 0
h 7015 -144 359 0
h 144 -7015 0
h -359 -7015 0
h 7016 -359 144 0
h 359 -7016 0
h -144 -7016 0
h 7017 -145 360 0
h 145 -7017 0
h -360 -7017 0
h 7018 -360 145 0
h 360 -7018 0
h -145 -7018 0
h -7019 -252 314 0
h 252 7019 0
h -314 7019 0
h -7020 -251 313 0
h 251 7020 0
h -313 7020 0
h -7021 -250 312 0
h 250 7021 0
h -312 7021 0
h -7022 -249 311 0
h 249 7022 0
h -311 7022 0
h -7023 -248 310 0
h 248 7023 0
h -310 7023 0
h -7024 -247 309 0
h 247 7024 0
h -309 7024 0
h -7025 -246 308 0
h 246 7025 0
h -308 7025 0
h -7026 -245 307 0
h 245 7026 0
h -307 7026 0
h -7027 -244 306 0
h 244 7027 0
h -306 7027 0
h -7028 -243 305 0
h 243 7028 0
h -305 7028 0
h 7029 -315 -7019 -7020 -7021 -7022 -7023 -7024 -7025 -7026 -7027 -7028 242 0
h 315 -7029 0
h 7019 -7029 0
h 7020 -7029 0
h 7021 -7029 0
h 7022 -7029 0
h 7023 -7029 0
h 7024 -7029 0
h 7025 -7029 0
h 7026 -7029 0
h 7027 -7029 0
h 7028 -7029 0
h -242 -7029 0
h -7030 -315 249 0
h 315 7030 0
h -249 7030 0
h -7031 -314 248 0
h 314 7031 0
h -248 7031 0
h -7032 -313 247 0
h 313 7032 0
h -247 7032 0
h -7033 -312 246 0
h 312 7033 0
h -246 7033 0
h -7034 -311 245 0
h 311 7034 0
h -245 7034 0
h -7035 -310 244 0
h 310 7035 0
h -244 7035 0
h -7036 -309 243 0
h 309 7036 0
h -243 7036 0
h -7037 -308 242 0
h 308 7037 0
h -242 7037 0
h 7038 -250 -7030 -7031 -7032 -7033 -7034 -7035 -7036 -7037 307 306 305 0
h 250 -7038 0
h 7030 -7038 0
h 7031 -7038 0
h 7032 -7038 0
h 7033 -7038 0
h 7034 -7038 0
h 7035 -7038 0
h 7036 -7038 0
h 7037 -7038 0
h -307 -7038 0
h -306 -7038 0
h -305 -7038 0
h 7039 -146 1 0
h 146 -7039 0
h -1 -7039 0
h 7040 -1 146 0
h 1 -7040 0
h -146 -7040 0
h 7041 -147 2 0
h 147 -7041 0
h -2 -7041 0
h 7042 -2 147 0
h 2 -7042 0
h -147 -7042 0
h 7043 -148 3 0
h 148 -7043 0
h -3 -7043 0
h 7044 -3 148 0
h 3 -7044 0
h -148 -7044 0
h 7045 -149 4 0
h 149 -7045 0
h -4 -7045 0
h 7046 -4 149 0
h 4 -7046 0
h -149 -7046 0
h -7047 -237 314 0
h 237 7047 0
h -314 7047 0
h -7048 -236 313 0
h 236 7048 0
h -313 7048 0
h -7049 -235 312 0
h 235 7049 0
h -312 7049 0
h -7050 -234 311 0
h 234 7050 0
h -311 7050 0
h -7051 -233 310 0
h 233 7051 0
h -310 7051 0
h -7052 -232 309 0
h 232 7052 0
h -309 7052 0
h -7053 -231 308 0
h 231 7053 0
h -308 7053 0
h -7054 -230 307 0
h 230 7054 0
h -307 7054 0
h -7055 -229 306 0
h 229 7055 0
h -306 7055 0
h -7056 -228 305 0
h 228 7056 0
h -305 7056 0
h 7057 -315 -7047 -7048 -7049 -7050 -7051 -7052 -7053 -7054 -7055 -7056 227 0
h 315 -7057 0
h 7047 -7057 0
h 7048 -7057 0
h 7049 -7057 0
h 7050 -7057 0
h 7051 -7057 0
h 7052 -7057 0
h 7053 -7057 0
h 7054 -7057 0
h 7055 -7057 0
h 7056 -7057 0
h -227 -7057 0
h -7058 -315 234 0
h 315 7058 0
h -234 7058 0
h -7059 -314 233 0
h 314 7059 0
h -233 7059 0
h -7060 -313 232 0
h 313 7060 0
h -232 7060 0
h -7061 -312 231 0
h 312 7061 0
h -231 7061 0
h -7062 -311 230 0
h 311 7062 0
h -230 7062 0
h -7063 -310 229 0
h 310 7063 0
h -229 7063 0
h -7064 -309 228 0
h 309 7064 0
h -228 7064 0
h -7065 -308 227 0
h 308 7065 0
h -227 7065 0
h 7066 -235 -7058 -7059 -7060 -7061 -7062 -7063 -7064 -7065 307 306 305 0
h 235 -7066 0
h 7058 -7066 0
h 7059 -7066 0
h 7060 -7066 0
h 7061 -7066 0
h 7062 -7066 0
h 7063 -7066 0
h 7064 -7066 0
h 7065 -7066 0
h -307 -7066 0
h -306 -7066 0
h -305 -7066 0
h 7067 -146 357 0
h 146 -7067 0
h -357 -7067 0
h 7068 -357 146 0
h 357 -7068 0
h -146 -7068 0
h 7069 -147 358 0
h 147 -7069 0
h -358 -7069 0
h 7070 -358 147 0
h 358 -7070 0
h -147 -7070 0
h 7071 -148 359 0
h 148 -7071 0
h -359 -7071 0
h 7072 -359 148 0
h 359 -7072 0
h -148 -7072 0
h 7073 -149 360 0
h 149 -7073 0
h -360 -7073 0
h 7074 -360 149 0
h 360 -7074 0
h -149 -7074 0
h -7075 -130 340 0
h 130 7075 0
h -340 7075 0
h -7076 -129 339 0
h 129 7076 0
h -339 7076 0
h -7077 -128 338 0
h 128 7077 0
h -338 7077 0
h -7078 -127 337 0
h 127 7078 0
h -337 7078 0
h -7079 -126 336 0
h 126 7079 0
h -336 7079 0
h -7080 -125 335 0
h 125 7080 0
h -335 7080 0
h -7081 -124 334 0
h 124 7081 0
h -334 7081 0
h -7082 -123 333 0
h 123 7082 0
h -333 7082 0
h -7083 -122 332 0
h 122 7083 0
h -332 7083 0
h -7084 -121 331 0
h 121 7084 0
h -331 7084 0
h 7085 -341 -7075 -7076 -7077 -7078 -7079 -7080 -7081 -7082 -7083 -7084 120 0
h 341 -7085 0
h 7075 -7085 0
h 7076 -7085 0
h 7077 -7085 0
h 7078 -7085 0
h 7079 -7085 0
h 7080 -7085 0
h 7081 -7085 0
h 7082 -7085 0
h 7083 -7085 0
h 7084 -7085 0
h -120 -7085 0
h -7086 -341 128 0
h 341 7086 0
h -128 7086 0
h -7087 -340 127 0
h 340 7087 0
h -127 7087 0
h -7088 -339 126 0
h 339 7088 0
h -126 7088 0
h -7089 -338 125 0
h 338 7089 0
h -125 7089 0
h -7090 -337 124 0
h 337 7090 0
h -124 7090 0
h -7091 -336 123 0
h 336 7091 0
h -123 7091 0
h -7092 -335 122 0
h 335 7092 0
h -122 7092 0
h -7093 -334 121 0
h 334 7093 0
h -121 7093 0
h -7094 -333 120 0
h 333 7094 0
h -120 7094 0
h 7095 -129 -7086 -7087 -7088 -7089 -7090 -7091 -7092 -7093 -7094 332 331 0
h 129 -7095 0
h 7086 -7095 0
h 7087 -7095 0
h 7088 -7095 0
h 7089 -7095 0
h 7090 -7095 0
h 7091 -7095 0
h 7092 -7095 0
h 7093 -7095 0
h 7094 -7095 0
h -332 -7095 0
h -331 -7095 0
h 7096 -150 219 0
h 150 -7096 0
h -219 -7096 0
h 7097 -219 150 0
h 219 -7097 0
h -150 -7097 0
h 7098 -151 220 0
h 151 -7098 0
h -220 -7098 0
h 7099 -220 151 0
h 220 -7099 0
h -151 -7099 0
h 7100 -152 221 0
h 152 -7100 0
h -221 -7100 0
h 7101 -221 152 0
h 221 -7101 0
h -152 -7101 0
h 7102 -153 222 0
h 153 -7102 0
h -222 -7102 0
h 7103 -222 153 0
h 222 -7103 0
h -153 -7103 0
h -7104 -108 340 0
h 108 7104 0
h -340 7104 0
h -7105 -107 339 0
h 107 7105 0
h -339 7105 0
h -7106 -106 338 0
h 106 7106 0
h -338 7106 0
h -7107 -105 337 0
h 105 7107 0
h -337 7107 0
h -7108 -104 336 0
h 104 7108 0
h -336 7108 0
h -7109 -103 335 0
h 103 7109 0
h -335 7109 0
h -7110 -102 334 0
h 102 7110 0
h -334 7110 0
h -7111 -101 333 0
h 101 7111 0
h -333 7111 0
h -7112 -100 332 0
h 100 7112 0
h -332 7112 0
h -7113 -99 331 0
h 99 7113 0
h -331 7113 0
h 7114 -341 -7104 -7105 -7106 -7107 -7108 -7109 -7110 -7111 -7112 -7113 98 0
h 341 -7114 0
h 7104 -7114 0
h 7105 -7114 0
h 7106 -7114 0
h 7107 -7114 0
h 7108 -7114 0
h 7109 -7114 0
h 7110 -7114 0
h 7111 -7114 0
h 7112 -7114 0
h 7113 -7114 0
h -98 -7114 0
h -7115 -341 106 0
h 341 7115 0
h -106 7115 0
h -7116 -340 105 0
h 340 7116 0
h -105 7116 0
h -7117 -339 104 0
h 339 7117 0
h -104 7117 0
h -7118 -338 103 0
h 338 7118 0
h -103 7118 0
h -7119 -337 102 0
h 337 7119 0
h -102 7119 0
h -7120 -336 101 0
h 336 7120 0
h -101 7120 0
h -7121 -335 100 0
h 335 7121 0
h -100 7121 0
h -7122 -334 99 0
h 334 7122 0
h -99 7122 0
h -7123 -333 98 0
h 333 7123 0
h -98 7123 0
h 7124 -107 -7115 -7116 -7117 -7118 -7119 -7120 -7121 -7122 -7123 332 331 0
h 107 -7124 0
h 7115 -7124 0
h 7116 -7124 0
h 7117 -7124 0
h 7118 -7124 0
h 7119 -7124 0
h 7120 -7124 0
h 7121 -7124 0
h 7122 -7124 0
h 7123 -7124 0
h -332 -7124 0
h -331 -7124 0
h 7125 -150 204 0
h 150 -7125 0
h -204 -7125 0
h 7126 -204 150 0
h 204 -7126 0
h -150 -7126 0
h 7127 -151 205 0
h 151 -7127 0
h -205 -7127 0
h 7128 -205 151 0
h 205 -7128 0
h -151 -7128 0
h 7129 -152 206 0
h 152 -7129 0
h -206 -7129 0
h 7130 -206 152 0
h 206 -7130 0
h -152 -7130 0
h 7131 -153 207 0
h 153 -7131 0
h -207 -7131 0
h 7132 -207 153 0
h 207 -7132 0
h -153 -7132 0
h -7133 -130 325 0
h 130 7133 0
h -325 7133 0
h -7134 -129 324 0
h 129 7134 0
h -324 7134 0
h -7135 -128 323 0
h 128 7135 0
h -323 7135 0
h -7136 -127 322 0
h 127 7136 0
h -322 7136 0
h -7137 -126 321 0
h 126 7137 0
h -321 7137 0
h -7138 -125 320 0
h 125 7138 0
h -320 7138 0
h -7139 -124 319 0
h 124 7139 0
h -319 7139 0
h -7140 -123 318 0
h 123 7140 0
h -318 7140 0
h -7141 -122 317 0
h 122 7141 0
h -317 7141 0
h -7142 -121 316 0
h 121 7142 0
h -316 7142 0
h 7143 -326 -7133 -7134 -7135 -7136 -7137 -7138 -7139 -7140 -7141 -7142 120 0
h 326 -7143 0
h 7133 -7143 0
h 7134 -7143 0
h 7135 -7143 0
h 7136 -7143 0
h 7137 -7143 0
h 7138 -7143 0
h 7139 -7143 0
h 7140 -7143 0
h 7141 -7143 0
h 7142 -7143 0
h -120 -7143 0
h -7144 -326 128 0
h 326 7144 0
h -128 7144 0
h -7145 -325 127 0
h 325 7145 0
h -127 7145 0
h -7146 -324 126 0
h 324 7146 0
h -126 7146 0
h -7147 -323 125 0
h 323 7147 0
h -125 7147 0
h -7148 -322 124 0
h 322 7148 0
h -124 7148 0
h -7149 -321 123 0
h 321 7149 0
h -123 7149 0
h -7150 -320 122 0
h 320 7150 0
h -122 7150 0
h -7151 -319 121 0
h 319 7151 0
h -121 7151 0
h -7152 -318 120 0
h 318 7152 0
h -120 7152 0
h 7153 -129 -7144 -7145 -7146 -7147 -7148 -7149 -7150 -7151 -7152 317 316 0
h 129 -7153 0
h 7144 -7153 0
h 7145 -7153 0
h 7146 -7153 0
h 7147 -7153 0
h 7148 -7153 0
h 7149 -7153 0
h 7150 -7153 0
h 7151 -7153 0
h 7152 -7153 0
h -317 -7153 0
h -316 -7153 0
h 7154 -142 219 0
h 142 -7154 0
h -219 -7154 0
h 7155 -219 142 0
h 219 -7155 0
h -142 -7155 0
h 7156 -143 220 0
h 143 -7156 0
h -220 -7156 0
h 7157 -220 143 0
h 220 -7157 0
h -143 -7157 0
h 7158 -144 221 0
h 144 -7158 0
h -221 -7158 0
h 7159 -221 144 0
h 221 -7159 0
h -144 -7159 0
h 7160 -145 222 0
h 145 -7160 0
h -222 -7160 0
h 7161 -222 145 0
h 222 -7161 0
h -145 -7161 0
h -7162 -108 325 0
h 108 7162 0
h -325 7162 0
h -7163 -107 324 0
h 107 7163 0
h -324 7163 0
h -7164 -106 323 0
h 106 7164 0
h -323 7164 0
h -7165 -105 322 0
h 105 7165 0
h -322 7165 0
h -7166 -104 321 0
h 104 7166 0
h -321 7166 0
h -7167 -103 320 0
h 103 7167 0
h -320 7167 0
h -7168 -102 319 0
h 102 7168 0
h -319 7168 0
h -7169 -101 318 0
h 101 7169 0
h -318 7169 0
h -7170 -100 317 0
h 100 7170 0
h -317 7170 0
h -7171 -99 316 0
h 99 7171 0
h -316 7171 0
h 7172 -326 -7162 -7163 -7164 -7165 -7166 -7167 -7168 -7169 -7170 -7171 98 0
h 326 -7172 0
h 7162 -7172 0
h 7163 -7172 0
h 7164 -7172 0
h 7165 -7172 0
h 7166 -7172 0
h 7167 -7172 0
h 7168 -7172 0
h 7169 -7172 0
h 7170 -7172 0
h 7171 -7172 0
h -98 -7172 0
h -7173 -326 106 0
h 326 7173 0
h -106 7173 0
h -7174 -325 105 0
h 325 7174 0
h -105 7174 0
h -7175 -324 104 0
h 324 7175 0
h -104 7175 0
h -7176 -323 103 0
h 323 7176 0
h -103 7176 0
h -7177 -322 102 0
h 322 7177 0
h -102 7177 0
h -7178 -321 101 0
h 321 7178 0
h -101 7178 0
h -7179 -320 100 0
h 320 7179 0
h -100 7179 0
h -7180 -319 99 0
h 319 7180 0
h -99 7180 0
h -7181 -318 98 0
h 318 7181 0
h -98 7181 0
h 7182 -107 -7173 -7174 -7175 -7176 -7177 -7178 -7179 -7180 -7181 317 316 0
h 107 -7182 0
h 7173 -7182 0
h 7174 -7182 0
h 7175 -7182 0
h 7176 -7182 0
h 7177 -7182 0
h 7178 -7182 0
h 7179 -7182 0
h 7180 -7182 0
h 7181 -7182 0
h -317 -7182 0
h -316 -7182 0
h 7183 -142 204 0
h 142 -7183 0
h -204 -7183 0
h 7184 -204 142 0
h 204 -7184 0
h -142 -7184 0
h 7185 -143 205 0
h 143 -7185 0
h -205 -7185 0
h 7186 -205 143 0
h 205 -7186 0
h -143 -7186 0
h 7187 -144 206 0
h 144 -7187 0
h -206 -7187 0
h 7188 -206 144 0
h 206 -7188 0
h -144 -7188 0
h 7189 -145 207 0
h 145 -7189 0
h -207 -7189 0
h 7190 -207 145 0
h 207 -7190 0
h -145 -7190 0
h -7191 -130 314 0
h 130 7191 0
h -314 7191 0
h -7192 -129 313 0
h 129 7192 0
h -313 7192 0
h -7193 -128 312 0
h 128 7193 0
h -312 7193 0
h -7194 -127 311 0
h 127 7194 0
h -311 7194 0
h -7195 -126 310 0
h 126 7195 0
h -310 7195 0
h -7196 -125 309 0
h 125 7196 0
h -309 7196 0
h -7197 -124 308 0
h 124 7197 0
h -308 7197 0
h -7198 -123 307 0
h 123 7198 0
h -307 7198 0
h -7199 -122 306 0
h 122 7199 0
h -306 7199 0
h -7200 -121 305 0
h 121 7200 0
h -305 7200 0
h 7201 -315 -7191 -7192 -7193 -7194 -7195 -7196 -7197 -7198 -7199 -7200 120 0
h 315 -7201 0
h 7191 -7201 0
h 7192 -7201 0
h 7193 -7201 0
h 7194 -7201 0
h 7195 -7201 0
h 7196 -7201 0
h 7197 -7201 0
h 7198 -7201 0
h 7199 -7201 0
h 7200 -7201 0
h -120 -7201 0
h -7202 -315 128 0
h 315 7202 0
h -128 7202 0
h -7203 -314 127 0
h 314 7203 0
h -127 7203 0
h -7204 -313 126 0
h 313 7204 0
h -126 7204 0
h -7205 -312 125 0
h 312 7205 0
h -125 7205 0
h -7206 -311 124 0
h 311 7206 0
h -124 7206 0
h -7207 -310 123 0
h 310 7207 0
h -123 7207 0
h -7208 -309 122 0
h 309 7208 0
h -122 7208 0
h -7209 -308 121 0
h 308 7209 0
h -121 7209 0
h -7210 -307 120 0
h 307 7210 0
h -120 7210 0
h 7211 -129 -7202 -7203 -7204 -7205 -7206 -7207 -7208 -7209 -7210 306 305 0
h 129 -7211 0
h 7202 -7211 0
h 7203 -7211 0
h 7204 -7211 0
h 7205 -7211 0
h 7206 -7211 0
h 7207 -7211 0
h 7208 -7211 0
h 7209 -7211 0
h 7210 -7211 0
h -306 -7211 0
h -305 -7211 0
h 7212 -146 219 0
h 146 -7212 0
h -219 -7212 0
h 7213 -219 146 0
h 219 -7213 0
h -146 -7213 0
h 7214 -147 220 0
h 147 -7214 0
h -220 -7214 0
h 7215 -220 147 0
h 220 -7215 0
h -147 -7215 0
h 7216 -148 221 0
h 148 -7216 0
h -221 -7216 0
h 7217 -221 148 0
h 221 -7217 0
h -148 -7217 0
h 7218 -149 222 0
h 149 -7218 0
h -222 -7218 0
h 7219 -222 149 0
h 222 -7219 0
h -149 -7219 0
h -7220 -108 314 0
h 108 7220 0
h -314 7220 0
h -7221 -107 313 0
h 107 7221 0
h -313 7221 0
h -7222 -106 312 0
h 106 7222 0
h -312 7222 0
h -7223 -105 311 0
h 105 7223 0
h -311 7223 0
h -7224 -104 310 0
h 104 7224 0
h -310 7224 0
h -7225 -103 309 0
h 103 7225 0
h -309 7225 0
h -7226 -102 308 0
h 102 7226 0
h -308 7226 0
h -7227 -101 307 0
h 101 7227 0
h -307 7227 0
h -7228 -100 306 0
h 100 7228 0
h -306 7228 0
h -7229 -99 305 0
h 99 7229 0
h -305 7229 0
h 7230 -315 -7220 -7221 -7222 -7223 -7224 -7225 -7226 -7227 -7228 -7229 98 0
h 315 -7230 0
h 7220 -7230 0
h 7221 -7230 0
h 7222 -7230 0
h 7223 -7230 0
h 7224 -7230 0
h 7225 -7230 0
h 7226 -7230 0
h 7227 -7230 0
h 7228 -7230 0
h 7229 -7230 0
h -98 -7230 0
h -7231 -315 106 0
h 315 7231 0
h -106 7231 0
h -7232 -314 105 0
h 314 7232 0
h -105 7232 0
h -7233 -313 104 0
h 313 7233 0
h -104 7233 0
h -7234 -312 103 0
h 312 7234 0
h -103 7234 0
h -7235 -311 102 0
h 311 7235 0
h -102 7235 0
h -7236 -310 101 0
h 310 7236 0
h -101 7236 0
h -7237 -309 100 0
h 309 7237 0
h -100 7237 0
h -7238 -308 99 0
h 308 7238 0
h -99 7238 0
h -7239 -307 98 0
h 307 7239 0
h -98 7239 0
h 7240 -107 -7231 -7232 -7233 -7234 -7235 -7236 -7237 -7238 -7239 306 305 0
h 107 -7240 0
h 7231 -7240 0
h 7232 -7240 0
h 7233 -7240 0
h 7234 -7240 0
h 7235 -7240 0
h 7236 -7240 0
h 7237 -7240 0
h 7238 -7240 0
h 7239 -7240 0
h -306 -7240 0
h -305 -7240 0
h 7241 -146 204 0
h 146 -7241 0
h -204 -7241 0
h 7242 -204 146 0
h 204 -7242 0
h -146 -7242 0
h 7243 -147 205 0
h 147 -7243 0
h -205 -7243 0
h 7244 -205 147 0
h 205 -7244 0
h -147 -7244 0
h 7245 -148 206 0
h 148 -7245 0
h -206 -7245 0
h 7246 -206 148 0
h 206 -7246 0
h -148 -7246 0
h 7247 -149 207 0
h 149 -7247 0
h -207 -7247 0
h 7248 -207 149 0
h 207 -7248 0
h -149 -7248 0
h -7249 -56 354 0
h 56 7249 0
h -354 7249 0
h -7250 -55 353 0
h 55 7250 0
h -353 7250 0
h -7251 -54 352 0
h 54 7251 0
h -352 7251 0
h -7252 -53 351 0
h 53 7252 0
h -351 7252 0
h -7253 -52 350 0
h 52 7253 0
h -350 7253 0
h -7254 -51 349 0
h 51 7254 0
h -349 7254 0
h -7255 -50 348 0
h 50 7255 0
h -348 7255 0
h -7256 -49 347 0
h 49 7256 0
h -347 7256 0
h -7257 -48 346 0
h 48 7257 0
h -346 7257 0
h 7258 -355 -7249 -7250 -7251 -7252 -7253 -7254 -7255 -7256 -7257 47 46 0
h 355 -7258 0
h 7249 -7258 0
h 7250 -7258 0
h 7251 -7258 0
h 7252 -7258 0
h 7253 -7258 0
h 7254 -7258 0
h 7255 -7258 0
h 7256 -7258 0
h 7257 -7258 0
h -47 -7258 0
h -46 -7258 0
h -7259 -356 53 0
h 356 7259 0
h -53 7259 0
h -7260 -355 52 0
h 355 7260 0
h -52 7260 0
h -7261 -354 51 0
h 354 7261 0
h -51 7261 0
h -7262 -353 50 0
h 353 7262 0
h -50 7262 0
h -7263 -352 49 0
h 352 7263 0
h -49 7263 0
h -7264 -351 48 0
h 351 7264 0
h -48 7264 0
h -7265 -350 47 0
h 350 7265 0
h -47 7265 0
h -7266 -349 46 0
h 349 7266 0
h -46 7266 0
h 7267 -54 -7259 -7260 -7261 -7262 -7263 -7264 -7265 -7266 348 347 346 0
h 54 -7267 0
h 7259 -7267 0
h 7260 -7267 0
h 7261 -7267 0
h 7262 -7267 0
h 7263 -7267 0
h 7264 -7267 0
h 7265 -7267 0
h 7266 -7267 0
h -348 -7267 0
h -347 -7267 0
h -346 -7267 0
h 7268 -154 189 0
h 154 -7268 0
h -189 -7268 0
h 7269 -189 154 0
h 189 -7269 0
h -154 -7269 0
h 7270 -155 190 0
h 155 -7270 0
h -190 -7270 0
h 7271 -190 155 0
h 190 -7271 0
h -155 -7271 0
h 7272 -156 191 0
h 156 -7272 0
h -191 -7272 0
h 7273 -191 156 0
h 191 -7273 0
h -156 -7273 0
h 7274 -157 192 0
h 157 -7274 0
h -192 -7274 0
h 7275 -192 157 0
h 192 -7275 0
h -157 -7275 0
h -7276 -41 354 0
h 41 7276 0
h -354 7276 0
h -7277 -40 353 0
h 40 7277 0
h -353 7277 0
h -7278 -39 352 0
h 39 7278 0
h -352 7278 0
h -7279 -38 351 0
h 38 7279 0
h -351 7279 0
h -7280 -37 350 0
h 37 7280 0
h -350 7280 0
h -7281 -36 349 0
h 36 7281 0
h -349 7281 0
h -7282 -35 348 0
h 35 7282 0
h -348 7282 0
h -7283 -34 347 0
h 34 7283 0
h -347 7283 0
h -7284 -33 346 0
h 33 7284 0
h -346 7284 0
h 7285 -355 -7276 -7277 -7278 -7279 -7280 -7281 -7282 -7283 -7284 32 31 0
h 355 -7285 0
h 7276 -7285 0
h 7277 -7285 0
h 7278 -7285 0
h 7279 -7285 0
h 7280 -7285 0
h 7281 -7285 0
h 7282 -7285 0
h 7283 -7285 0
h 7284 -7285 0
h -32 -7285 0
h -31 -7285 0
h -7286 -356 40 0
h 356 7286 0
h -40 7286 0
h -7287 -355 39 0
h 355 7287 0
h -39 7287 0
h -7288 -354 38 0
h 354 7288 0
h -38 7288 0
h -7289 -353 37 0
h 353 7289 0
h -37 7289 0
h -7290 -352 36 0
h 352 7290 0
h -36 7290 0
h -7291 -351 35 0
h 351 7291 0
h -35 7291 0
h -7292 -350 34 0
h 350 7292 0
h -34 7292 0
h -7293 -349 33 0
h 349 7293 0
h -33 7293 0
h -7294 -348 32 0
h 348 7294 0
h -32 7294 0
h -7295 -347 31 0
h 347 7295 0
h -31 7295 0
h 7296 -41 -7286 -7287 -7288 -7289 -7290 -7291 -7292 -7293 -7294 -7295 346 0
h 41 -7296 0
h 7286 -7296 0
h 7287 -7296 0
h 7288 -7296 0
h 7289 -7296 0
h 7290 -7296 0
h 7291 -7296 0
h 7292 -7296 0
h 7293 -7296 0
h 7294 -7296 0
h 7295 -7296 0
h -346 -7296 0
h 7297 -154 181 0
h 154 -7297 0
h -181 -7297 0
h 7298 -181 154 0
h 181 -7298 0
h -154 -7298 0
h 7299 -155 182 0
h 155 -7299 0
h -182 -7299 0
h 7300 -182 155 0
h 182 -7300 0
h -155 -7300 0
h 7301 -156 183 0
h 156 -7301 0
h -183 -7301 0
h 7302 -183 156 0
h 183 -7302 0
h -156 -7302 0
h 7303 -157 184 0
h 157 -7303 0
h -184 -7303 0
h 7304 -184 157 0
h 184 -7304 0
h -157 -7304 0
h -7305 -56 340 0
h 56 7305 0
h -340 7305 0
h -7306 -55 339 0
h 55 7306 0
h -339 7306 0
h -7307 -54 338 0
h 54 7307 0
h -338 7307 0
h -7308 -53 337 0
h 53 7308 0
h -337 7308 0
h -7309 -52 336 0
h 52 7309 0
h -336 7309 0
h -7310 -51 335 0
h 51 7310 0
h -335 7310 0
h -7311 -50 334 0
h 50 7311 0
h -334 7311 0
h -7312 -49 333 0
h 49 7312 0
h -333 7312 0
h -7313 -48 332 0
h 48 7313 0
h -332 7313 0
h -7314 -47 331 0
h 47 7314 0
h -331 7314 0
h 7315 -341 -7305 -7306 -7307 -7308 -7309 -7310 -7311 -7312 -7313 -7314 46 0
h 341 -7315 0
h 7305 -7315 0
h 7306 -7315 0
h 7307 -7315 0
h 7308 -7315 0
h 7309 -7315 0
h 7310 -7315 0
h 7311 -7315 0
h 7312 -7315 0
h 7313 -7315 0
h 7314 -7315 0
h -46 -7315 0
h -7316 -341 53 0
h 341 7316 0
h -53 7316 0
h -7317 -340 52 0
h 340 7317 0
h -52 7317 0
h -7318 -339 51 0
h 339 7318 0
h -51 7318 0
h -7319 -338 50 0
h 338 7319 0
h -50 7319 0
h -7320 -337 49 0
h 337 7320 0
h -49 7320 0
h -7321 -336 48 0
h 336 7321 0
h -48 7321 0
h -7322 -335 47 0
h 335 7322 0
h -47 7322 0
h -7323 -334 46 0
h 334 7323 0
h -46 7323 0
h 7324 -54 -7316 -7317 -7318 -7319 -7320 -7321 -7322 -7323 333 332 331 0
h 54 -7324 0
h 7316 -7324 0
h 7317 -7324 0
h 7318 -7324 0
h 7319 -7324 0
h 7320 -7324 0
h 7321 -7324 0
h 7322 -7324 0
h 7323 -7324 0
h -333 -7324 0
h -332 -7324 0
h -331 -7324 0
h 7325 -150 189 0
h 150 -7325 0
h -189 -7325 0
h 7326 -189 150 0
h 189 -7326 0
h -150 -7326 0
h 7327 -151 190 0
h 151 -7327 0
h -190 -7327 0
h 7328 -190 151 0
h 190 -7328 0
h -151 -7328 0
h 7329 -152 191 0
h 152 -7329 0
h -191 -7329 0
h 7330 -191 152 0
h 191 -7330 0
h -152 -7330 0
h 7331 -153 192 0
h 153 -7331 0
h -192 -7331 0
h 7332 -192 153 0
h 192 -7332 0
h -153 -7332 0
h -7333 -56 325 0
h 56 7333 0
h -325 7333 0
h -7334 -55 324 0
h 55 7334 0
h -324 7334 0
h -7335 -54 323 0
h 54 7335 0
h -323 7335 0
h -7336 -53 322 0
h 53 7336 0
h -322 7336 0
h -7337 -52 321 0
h 52 7337 0
h -321 7337 0
h -7338 -51 320 0
h 51 7338 0
h -320 7338 0
h -7339 -50 319 0
h 50 7339 0
h -319 7339 0
h -7340 -49 318 0
h 49 7340 0
h -318 7340 0
h -7341 -48 317 0
h 48 7341 0
h -317 7341 0
h -7342 -47 316 0
h 47 7342 0
h -316 7342 0
h 7343 -326 -7333 -7334 -7335 -7336 -7337 -7338 -7339 -7340 -7341 -7342 46 0
h 326 -7343 0
h 7333 -7343 0
h 7334 -7343 0
h 7335 -7343 0
h 7336 -7343 0
h 7337 -7343 0
h 7338 -7343 0
h 7339 -7343 0
h 7340 -7343 0
h 7341 -7343 0
h 7342 -7343 0
h -46 -7343 0
h -7344 -326 53 0
h 326 7344 0
h -53 7344 0
h -7345 -325 52 0
h 325 7345 0
h -52 7345 0
h -7346 -324 51 0
h 324 7346 0
h -51 7346 0
h -7347 -323 50 0
h 323 7347 0
h -50 7347 0
h -7348 -322 49 0
h 322 7348 0
h -49 7348 0
h -7349 -321 48 0
h 321 7349 0
h -48 7349 0
h -7350 -320 47 0
h 320 7350 0
h -47 7350 0
h -7351 -319 46 0
h 319 7351 0
h -46 7351 0
h 7352 -54 -7344 -7345 -7346 -7347 -7348 -7349 -7350 -7351 318 317 316 0
h 54 -7352 0
h 7344 -7352 0
h 7345 -7352 0
h 7346 -7352 0
h 7347 -7352 0
h 7348 -7352 0
h 7349 -7352 0
h 7350 -7352 0
h 7351 -7352 0
h -318 -7352 0
h -317 -7352 0
h -316 -7352 0
h 7353 -142 189 0
h 142 -7353 0
h -189 -7353 0
h 7354 -189 142 0
h 189 -7354 0
h -142 -7354 0
h 7355 -143 190 0
h 143 -7355 0
h -190 -7355 0
h 7356 -190 143 0
h 190 -7356 0
h -143 -7356 0
h 7357 -144 191 0
h 144 -7357 0
h -191 -7357 0
h 7358 -191 144 0
h 191 -7358 0
h -144 -7358 0
h 7359 -145 192 0
h 145 -7359 0
h -192 -7359 0
h 7360 -192 145 0
h 192 -7360 0
h -145 -7360 0
h -7361 -56 314 0
h 56 7361 0
h -314 7361 0
h -7362 -55 313 0
h 55 7362 0
h -313 7362 0
h -7363 -54 312 0
h 54 7363 0
h -312 7363 0
h -7364 -53 311 0
h 53 7364 0
h -311 7364 0
h -7365 -52 310 0
h 52 7365 0
h -310 7365 0
h -7366 -51 309 0
h 51 7366 0
h -309 7366 0
h -7367 -50 308 0
h 50 7367 0
h -308 7367 0
h -7368 -49 307 0
h 49 7368 0
h -307 7368 0
h -7369 -48 306 0
h 48 7369 0
h -306 7369 0
h -7370 -47 305 0
h 47 7370 0
h -305 7370 0
h 7371 -315 -7361 -7362 -7363 -7364 -7365 -7366 -7367 -7368 -7369 -7370 46 0
h 315 -7371 0
h 7361 -7371 0
h 7362 -7371 0
h 7363 -7371 0
h 7364 -7371 0
h 7365 -7371 0
h 7366 -7371 0
h 7367 -7371 0
h 7368 -7371 0
h 7369 -7371 0
h 7370 -7371 0
h -46 -7371 0
h -7372 -315 53 0
h 315 7372 0
h -53 7372 0
h -7373 -314 52 0
h 314 7373 0
h -52 7373 0
h -7374 -313 51 0
h 313 7374 0
h -51 7374 0
h -7375 -312 50 0
h 312 7375 0
h -50 7375 0
h -7376 -311 49 0
h 311 7376 0
h -49 7376 0
h -7377 -310 48 0
h 310 7377 0
h -48 7377 0
h -7378 -309 47 0
h 309 7378 0
h -47 7378 0
h -7379 -308 46 0
h 308 7379 0
h -46 7379 0
h 7380 -54 -7372 -7373 -7374 -7375 -7376 -7377 -7378 -7379 307 306 305 0
h 54 -7380 0
h 7372 -7380 0
h 7373 -7380 0
h 7374 -7380 0
h 7375 -7380 0
h 7376 -7380 0
h 7377 -7380 0
h 7378 -7380 0
h 7379 -7380 0
h -307 -7380 0
h -306 -7380 0
h -305 -7380 0
h 7381 -146 189 0
h 146 -7381 0
h -189 -7381 0
h 7382 -189 146 0
h 189 -7382 0
h -146 -7382 0
h 7383 -147 190 0
h 147 -7383 0
h -190 -7383 0
h 7384 -190 147 0
h 190 -7384 0
h -147 -7384 0
h 7385 -148 191 0
h 148 -7385 0
h -191 -7385 0
h 7386 -191 148 0
h 191 -7386 0
h -148 -7386 0
h 7387 -149 192 0
h 149 -7387 0
h -192 -7387 0
h 7388 -192 149 0
h 192 -7388 0
h -149 -7388 0
h -7389 -41 340 0
h 41 7389 0
h -340 7389 0
h -7390 -40 339 0
h 40 7390 0
h -339 7390 0
h -7391 -39 338 0
h 39 7391 0
h -338 7391 0
h -7392 -38 337 0
h 38 7392 0
h -337 7392 0
h -7393 -37 336 0
h 37 7393 0
h -336 7393 0
h -7394 -36 335 0
h 36 7394 0
h -335 7394 0
h -7395 -35 334 0
h 35 7395 0
h -334 7395 0
h -7396 -34 333 0
h 34 7396 0
h -333 7396 0
h -7397 -33 332 0
h 33 7397 0
h -332 7397 0
h -7398 -32 331 0
h 32 7398 0
h -331 7398 0
h 7399 -341 -7389 -7390 -7391 -7392 -7393 -7394 -7395 -7396 -7397 -7398 31 0
h 341 -7399 0
h 7389 -7399 0
h 7390 -7399 0
h 7391 -7399 0
h 7392 -7399 0
h 7393 -7399 0
h 7394 -7399 0
h 7395 -7399 0
h 7396 -7399 0
h 7397 -7399 0
h 7398 -7399 0
h -31 -7399 0
h -7400 -341 40 0
h 341 7400 0
h -40 7400 0
h -7401 -340 39 0
h 340 7401 0
h -39 7401 0
h -7402 -339 38 0
h 339 7402 0
h -38 7402 0
h -7403 -338 37 0
h 338 7403 0
h -37 7403 0
h -7404 -337 36 0
h 337 7404 0
h -36 7404 0
h -7405 -336 35 0
h 336 7405 0
h -35 7405 0
h -7406 -335 34 0
h 335 7406 0
h -34 7406 0
h -7407 -334 33 0
h 334 7407 0
h -33 7407 0
h -7408 -333 32 0
h 333 7408 0
h -32 7408 0
h -7409 -332 31 0
h 332 7409 0
h -31 7409 0
h 7410 -41 -7400 -7401 -7402 -7403 -7404 -7405 -7406 -7407 -7408 -7409 331 0
h 41 -7410 0
h 7400 -7410 0
h 7401 -7410 0
h 7402 -7410 0
h 7403 -7410 0
h 7404 -7410 0
h 7405 -7410 0
h 7406 -7410 0
h 7407 -7410 0
h 7408 -7410 0
h 7409 -7410 0
h -331 -7410 0
h 7411 -150 181 0
h 150 -7411 0
h -181 -7411 0
h 7412 -181 150 0
h 181 -7412 0
h -150 -7412 0
h 7413 -151 182 0
h 151 -7413 0
h -182 -7413 0
h 7414 -182 151 0
h 182 -7414 0
h -151 -7414 0
h 7415 -152 183 0
h 152 -7415 0
h -183 -7415 0
h 7416 -183 152 0
h 183 -7416 0
h -152 -7416 0
h 7417 -153 184 0
h 153 -7417 0
h -184 -7417 0
h 7418 -184 153 0
h 184 -7418 0
h -153 -7418 0
h -7419 -41 325 0
h 41 7419 0
h -325 7419 0
h -7420 -40 324 0
h 40 7420 0
h -324 7420 0
h -7421 -39 323 0
h 39 7421 0
h -323 7421 0
h -7422 -38 322 0
h 38 7422 0
h -322 7422 0
h -7423 -37 321 0
h 37 7423 0
h -321 7423 0
h -7424 -36 320 0
h 36 7424 0
h -320 7424 0
h -7425 -35 319 0
h 35 7425 0
h -319 7425 0
h -7426 -34 318 0
h 34 7426 0
h -318 7426 0
h -7427 -33 317 0
h 33 7427 0
h -317 7427 0
h -7428 -32 316 0
h 32 7428 0
h -316 7428 0
h 7429 -326 -7419 -7420 -7421 -7422 -7423 -7424 -7425 -7426 -7427 -7428 31 0
h 326 -7429 0
h 7419 -7429 0
h 7420 -7429 0
h 7421 -7429 0
h 7422 -7429 0
h 7423 -7429 0
h 7424 -7429 0
h 7425 -7429 0
h 7426 -7429 0
h 7427 -7429 0
h 7428 -7429 0
h -31 -7429 0
h -7430 -326 40 0
h 326 7430 0
h -40 7430 0
h -7431 -325 39 0
h 325 7431 0
h -39 7431 0
h -7432 -324 38 0
h 324 7432 0
h -38 7432 0
h -7433 -323 37 0
h 323 7433 0
h -37 7433 0
h -7434 -322 36 0
h 322 7434 0
h -36 7434 0
h -7435 -321 35 0
h 321 7435 0
h -35 7435 0
h -7436 -320 34 0
h 320 7436 0
h -34 7436 0
h -7437 -319 33 0
h 319 7437 0
h -33 7437 0
h -7438 -318 32 0
h 318 7438 0
h -32 7438 0
h -7439 -317 31 0
h 317 7439 0
h -31 7439 0
h 7440 -41 -7430 -7431 -7432 -7433 -7434 -7435 -7436 -7437 -7438 -7439 316 0
h 41 -7440 0
h 7430 -7440 0
h 7431 -7440 0
h 7432 -7440 0
h 7433 -7440 0
h 7434 -7440 0
h 7435 -7440 0
h 7436 -7440 0
h 7437 -7440 0
h 7438 -7440 0
h 7439 -7440 0
h -316 -7440 0
h 7441 -142 181 0
h 142 -7441 0
h -181 -7441 0
h 7442 -181 142 0
h 181 -7442 0
h -142 -7442 0
h 7443 -143 182 0
h 143 -7443 0
h -182 -7443 0
h 7444 -182 143 0
h 182 -7444 0
h -143 -7444 0
h 7445 -144 183 0
h 144 -7445 0
h -183 -7445 0
h 7446 -183 144 0
h 183 -7446 0
h -144 -7446 0
h 7447 -145 184 0
h 145 -7447 0
h -184 -7447 0
h 7448 -184 145 0
h 184 -7448 0
h -145 -7448 0
h -7449 -41 314 0
h 41 7449 0
h -314 7449 0
h -7450 -40 313 0
h 40 7450 0
h -313 7450 0
h -7451 -39 312 0
h 39 7451 0
h -312 7451 0
h -7452 -38 311 0
h 38 7452 0
h -311 7452 0
h -7453 -37 310 0
h 37 7453 0
h -310 7453 0
h -7454 -36 309 0
h 36 7454 0
h -309 7454 0
h -7455 -35 308 0
h 35 7455 0
h -308 7455 0
h -7456 -34 307 0
h 34 7456 0
h -307 7456 0
h -7457 -33 306 0
h 33 7457 0
h -306 7457 0
h -7458 -32 305 0
h 32 7458 0
h -305 7458 0
h 7459 -315 -7449 -7450 -7451 -7452 -7453 -7454 -7455 -7456 -7457 -7458 31 0
h 315 -7459 0
h 7449 -7459 0
h 7450 -7459 0
h 7451 -7459 0
h 7452 -7459 0
h 7453 -7459 0
h 7454 -7459 0
h 7455 -7459 0
h 7456 -7459 0
h 7457 -7459 0
h 7458 -7459 0
h -31 -7459 0
h -7460 -315 40 0
h 315 7460 0
h -40 7460 0
h -7461 -314 39 0
h 314 7461 0
h -39 7461 0
h -7462 -313 38 0
h 313 7462 0
h -38 7462 0
h -7463 -312 37 0
h 312 7463 0
h -37 7463 0
h -7464 -311 36 0
h 311 7464 0
h -36 7464 0
h -7465 -310 35 0
h 310 7465 0
h -35 7465 0
h -7466 -309 34 0
h 309 7466 0
h -34 7466 0
h -7467 -308 33 0
h 308 7467 0
h -33 7467 0
h -7468 -307 32 0
h 307 7468 0
h -32 7468 0
h -7469 -306 31 0
h 306 7469 0
h -31 7469 0
h 7470 -41 -7460 -7461 -7462 -7463 -7464 -7465 -7466 -7467 -7468 -7469 305 0
h 41 -7470 0
h 7460 -7470 0
h 7461 -7470 0
h 7462 -7470 0
h 7463 -7470 0
h 7464 -7470 0
h 7465 -7470 0
h 7466 -7470 0
h 7467 -7470 0
h 7468 -7470 0
h 7469 -7470 0
h -305 -7470 0
h 7471 -146 181 0
h 146 -7471 0
h -181 -7471 0
h 7472 -181 146 0
h 181 -7472 0
h -146 -7472 0
h 7473 -147 182 0
h 147 -7473 0
h -182 -7473 0
h 7474 -182 147 0
h 182 -7474 0
h -147 -7474 0
h 7475 -148 183 0
h 148 -7475 0
h -183 -7475 0
h 7476 -183 148 0
h 183 -7476 0
h -148 -7476 0
h 7477 -149 184 0
h 149 -7477 0
h -184 -7477 0
h 7478 -184 149 0
h 184 -7478 0
h -149 -7478 0
h -7479 -30 354 0
h 30 7479 0
h -354 7479 0
h -7480 -29 353 0
h 29 7480 0
h -353 7480 0
h -7481 -28 352 0
h 28 7481 0
h -352 7481 0
h -7482 -27 351 0
h 27 7482 0
h -351 7482 0
h -7483 -26 350 0
h 26 7483 0
h -350 7483 0
h -7484 -25 349 0
h 25 7484 0
h -349 7484 0
h -7485 -24 348 0
h 24 7485 0
h -348 7485 0
h -7486 -23 347 0
h 23 7486 0
h -347 7486 0
h -7487 -22 346 0
h 22 7487 0
h -346 7487 0
h 7488 -355 -7479 -7480 -7481 -7482 -7483 -7484 -7485 -7486 -7487 21 20 0
h 355 -7488 0
h 7479 -7488 0
h 7480 -7488 0
h 7481 -7488 0
h 7482 -7488 0
h 7483 -7488 0
h 7484 -7488 0
h 7485 -7488 0
h 7486 -7488 0
h 7487 -7488 0
h -21 -7488 0
h -20 -7488 0
h -7489 -356 28 0
h 356 7489 0
h -28 7489 0
h -7490 -355 27 0
h 355 7490 0
h -27 7490 0
h -7491 -354 26 0
h 354 7491 0
h -26 7491 0
h -7492 -353 25 0
h 353 7492 0
h -25 7492 0
h -7493 -352 24 0
h 352 7493 0
h -24 7493 0
h -7494 -351 23 0
h 351 7494 0
h -23 7494 0
h -7495 -350 22 0
h 350 7495 0
h -22 7495 0
h -7496 -349 21 0
h 349 7496 0
h -21 7496 0
h -7497 -348 20 0
h 348 7497 0
h -20 7497 0
h 7498 -29 -7489 -7490 -7491 -7492 -7493 -7494 -7495 -7496 -7497 347 346 0
h 29 -7498 0
h 7489 -7498 0
h 7490 -7498 0
h 7491 -7498 0
h 7492 -7498 0
h 7493 -7498 0
h 7494 -7498 0
h 7495 -7498 0
h 7496 -7498 0
h 7497 -7498 0
h -347 -7498 0
h -346 -7498 0
h 7499 -154 162 0
h 154 -7499 0
h -162 -7499 0
h 7500 -162 154 0
h 162 -7500 0
h -154 -7500 0
h 7501 -155 163 0
h 155 -7501 0
h -163 -7501 0
h 7502 -163 155 0
h 163 -7502 0
h -155 -7502 0
h 7503 -156 164 0
h 156 -7503 0
h -164 -7503 0
h 7504 -164 156 0
h 164 -7504 0
h -156 -7504 0
h 7505 -157 165 0
h 157 -7505 0
h -165 -7505 0
h 7506 -165 157 0
h 165 -7506 0
h -157 -7506 0
h -7507 7488 7498 7499 7500 7501 7502 7503 7504 7505 7506 0
h -7488 7507 0
h -7498 7507 0
h -7499 7507 0
h -7500 7507 0
h -7501 7507 0
h -7502 7507 0
h -7503 7507 0
h -7504 7507 0
h -7505 7507 0
h -7506 7507 0
h -7508 -15 354 0
h 15 7508 0
h -354 7508 0
h -7509 -14 353 0
h 14 7509 0
h -353 7509 0
h -7510 -13 352 0
h 13 7510 0
h -352 7510 0
h -7511 -12 351 0
h 12 7511 0
h -351 7511 0
h -7512 -11 350 0
h 11 7512 0
h -350 7512 0
h -7513 -10 349 0
h 10 7513 0
h -349 7513 0
h -7514 -9 348 0
h 9 7514 0
h -348 7514 0
h -7515 -8 347 0
h 8 7515 0
h -347 7515 0
h -7516 -7 346 0
h 7 7516 0
h -346 7516 0
h 7517 -355 -7508 -7509 -7510 -7511 -7512 -7513 -7514 -7515 -7516 6 5 0
h 355 -7517 0
h 7508 -7517 0
h 7509 -7517 0
h 7510 -7517 0
h 7511 -7517 0
h 7512 -7517 0
h 7513 -7517 0
h 7514 -7517 0
h 7515 -7517 0
h 7516 -7517 0
h -6 -7517 0
h -5 -7517 0
h -7518 -356 13 0
h 356 7518 0
h -13 7518 0
h -7519 -355 12 0
h 355 7519 0
h -12 7519 0
h -7520 -354 11 0
h 354 7520 0
h -11 7520 0
h -7521 -353 10 0
h 353 7521 0
h -10 7521 0
h -7522 -352 9 0
h 352 7522 0
h -9 7522 0
h -7523 -351 8 0
h 351 7523 0
h -8 7523 0
h -7524 -350 7 0
h 350 7524 0
h -7 7524 0
h -7525 -349 6 0
h 349 7525 0
h -6 7525 0
h -7526 -348 5 0
h 348 7526 0
h -5 7526 0
h 7527 -14 -7518 -7519 -7520 -7521 -7522 -7523 -7524 -7525 -7526 347 346 0
h 14 -7527 0
h 7518 -7527 0
h 7519 -7527 0
h 7520 -7527 0
h 7521 -7527 0
h 7522 -7527 0
h 7523 -7527 0
h 7524 -7527 0
h 7525 -7527 0
h 7526 -7527 0
h -347 -7527 0
h -346 -7527 0
h 7528 -154 158 0
h 154 -7528 0
h -158 -7528 0
h 7529 -158 154 0
h 158 -7529 0
h -154 -7529 0
h 7530 -155 159 0
h 155 -7530 0
h -159 -7530 0
h 7531 -159 155 0
h 159 -7531 0
h -155 -7531 0
h 7532 -156 160 0
h 156 -7532 0
h -160 -7532 0
h 7533 -160 156 0
h 160 -7533 0
h -156 -7533 0
h 7534 -157 161 0
h 157 -7534 0
h -161 -7534 0
h 7535 -161 157 0
h 161 -7535 0
h -157 -7535 0
h -7536 7517 7527 7528 7529 7530 7531 7532 7533 7534 7535 0
h -7517 7536 0
h -7527 7536 0
h -7528 7536 0
h -7529 7536 0
h -7530 7536 0
h -7531 7536 0
h -7532 7536 0
h -7533 7536 0
h -7534 7536 0
h -7535 7536 0
h -7537 -30 340 0
h 30 7537 0
h -340 7537 0
h -7538 -29 339 0
h 29 7538 0
h -339 7538 0
h -7539 -28 338 0
h 28 7539 0
h -338 7539 0
h -7540 -27 337 0
h 27 7540 0
h -337 7540 0
h -7541 -26 336 0
h 26 7541 0
h -336 7541 0
h -7542 -25 335 0
h 25 7542 0
h -335 7542 0
h -7543 -24 334 0
h 24 7543 0
h -334 7543 0
h -7544 -23 333 0
h 23 7544 0
h -333 7544 0
h -7545 -22 332 0
h 22 7545 0
h -332 7545 0
h -7546 -21 331 0
h 21 7546 0
h -331 7546 0
h 7547 -341 -7537 -7538 -7539 -7540 -7541 -7542 -7543 -7544 -7545 -7546 20 0
h 341 -7547 0
h 7537 -7547 0
h 7538 -7547 0
h 7539 -7547 0
h 7540 -7547 0
h 7541 -7547 0
h 7542 -7547 0
h 7543 -7547 0
h 7544 -7547 0
h 7545 -7547 0
h 7546 -7547 0
h -20 -7547 0
h -7548 -341 28 0
h 341 7548 0
h -28 7548 0
h -7549 -340 27 0
h 340 7549 0
h -27 7549 0
h -7550 -339 26 0
h 339 7550 0
h -26 7550 0
h -7551 -338 25 0
h 338 7551 0
h -25 7551 0
h -7552 -337 24 0
h 337 7552 0
h -24 7552 0
h -7553 -336 23 0
h 336 7553 0
h -23 7553 0
h -7554 -335 22 0
h 335 7554 0
h -22 7554 0
h -7555 -334 21 0
h 334 7555 0
h -21 7555 0
h -7556 -333 20 0
h 333 7556 0
h -20 7556 0
h 7557 -29 -7548 -7549 -7550 -7551 -7552 -7553 -7554 -7555 -7556 332 331 0
h 29 -7557 0
h 7548 -7557 0
h 7549 -7557 0
h 7550 -7557 0
h 7551 -7557 0
h 7552 -7557 0
h 7553 -7557 0
h 7554 -7557 0
h 7555 -7557 0
h 7556 -7557 0
h -332 -7557 0
h -331 -7557 0
h 7558 -150 162 0
h 150 -7558 0
h -162 -7558 0
h 7559 -162 150 0
h 162 -7559 0
h -150 -7559 0
h 7560 -151 163 0
h 151 -7560 0
h -163 -7560 0
h 7561 -163 151 0
h 163 -7561 0
h -151 -7561 0
h 7562 -152 164 0
h 152 -7562 0
h -164 -7562 0
h 7563 -164 152 0
h 164 -7563 0
h -152 -7563 0
h 7564 -153 165 0
h 153 -7564 0
h -165 -7564 0
h 7565 -165 153 0
h 165 -7565 0
h -153 -7565 0
h -7566 7547 7557 7558 7559 7560 7561 7562 7563 7564 7565 0
h -7547 7566 0
h -7557 7566 0
h -7558 7566 0
h -7559 7566 0
h -7560 7566 0
h -7561 7566 0
h -7562 7566 0
h -7563 7566 0
h -7564 7566 0
h -7565 7566 0
h -7567 -15 340 0
h 15 7567 0
h -340 7567 0
h -7568 -14 339 0
h 14 7568 0
h -339 7568 0
h -7569 -13 338 0
h 13 7569 0
h -338 7569 0
h -7570 -12 337 0
h 12 7570 0
h -337 7570 0
h -7571 -11 336 0
h 11 7571 0
h -336 7571 0
h -7572 -10 335 0
h 10 7572 0
h -335 7572 0
h -7573 -9 334 0
h 9 7573 0
h -334 7573 0
h -7574 -8 333 0
h 8 7574 0
h -333 7574 0
h -7575 -7 332 0
h 7 7575 0
h -332 7575 0
h -7576 -6 331 0
h 6 7576 0
h -331 7576 0
h 7577 -341 -7567 -7568 -7569 -7570 -7571 -7572 -7573 -7574 -7575 -7576 5 0
h 341 -7577 0
h 7567 -7577 0
h 7568 -7577 0
h 7569 -7577 0
h 7570 -7577 0
h 7571 -7577 0
h 7572 -7577 0
h 7573 -7577 0
h 7574 -7577 0
h 7575 -7577 0
h 7576 -7577 0
h -5 -7577 0
h -7578 -341 13 0
h 341 7578 0
h -13 7578 0
h -7579 -340 12 0
h 340 7579 0
h -12 7579 0
h -7580 -339 11 0
h 339 7580 0
h -11 7580 0
h -7581 -338 10 0
h 338 7581 0
h -10 7581 0
h -7582 -337 9 0
h 337 7582 0
h -9 7582 0
h -7583 -336 8 0
h 336 7583 0
h -8 7583 0
h -7584 -335 7 0
h 335 7584 0
h -7 7584 0
h -7585 -334 6 0
h 334 7585 0
h -6 7585 0
h -7586 -333 5 0
h 333 7586 0
h -5 7586 0
h 7587 -14 -7578 -7579 -7580 -7581 -7582 -7583 -7584 -7585 -7586 332 331 0
h 14 -7587 0
h 7578 -7587 0
h 7579 -7587 0
h 7580 -7587 0
h 7581 -7587 0
h 7582 -7587 0
h 7583 -7587 0
h 7584 -7587 0
h 7585 -7587 0
h 7586 -7587 0
h -332 -7587 0
h -331 -7587 0
h 7588 -150 158 0
h 150 -7588 0
h -158 -7588 0
h 7589 -158 150 0
h 158 -7589 0
h -150 -7589 0
h 7590 -151 159 0
h 151 -7590 0
h -159 -7590 0
h 7591 -159 151 0
h 159 -7591 0
h -151 -7591 0
h 7592 -152 160 0
h 152 -7592 0
h -160 -7592 0
h 7593 -160 152 0
h 160 -7593 0
h -152 -7593 0
h 7594 -153 161 0
h 153 -7594 0
h -161 -7594 0
h 7595 -161 153 0
h 161 -7595 0
h -153 -7595 0
h -7596 7577 7587 7588 7589 7590 7591 7592 7593 7594 7595 0
h -7577 7596 0
h -7587 7596 0
h -7588 7596 0
h -7589 7596 0
h -7590 7596 0
h -7591 7596 0
h -7592 7596 0
h -7593 7596 0
h -7594 7596 0
h -7595 7596 0
h -7597 -30 325 0
h 30 7597 0
h -325 7597 0
h -7598 -29 324 0
h 29 7598 0
h -324 7598 0
h -7599 -28 323 0
h 28 7599 0
h -323 7599 0
h -7600 -27 322 0
h 27 7600 0
h -322 7600 0
h -7601 -26 321 0
h 26 7601 0
h -321 7601 0
h -7602 -25 320 0
h 25 7602 0
h -320 7602 0
h -7603 -24 319 0
h 24 7603 0
h -319 7603 0
h -7604 -23 318 0
h 23 7604 0
h -318 7604 0
h -7605 -22 317 0
h 22 7605 0
h -317 7605 0
h -7606 -21 316 0
h 21 7606 0
h -316 7606 0
h 7607 -326 -7597 -7598 -7599 -7600 -7601 -7602 -7603 -7604 -7605 -7606 20 0
h 326 -7607 0
h 7597 -7607 0
h 7598 -7607 0
h 7599 -7607 0
h 7600 -7607 0
h 7601 -7607 0
h 7602 -7607 0
h 7603 -7607 0
h 7604 -7607 0
h 7605 -7607 0
h 7606 -7607 0
h -20 -7607 0
h -7608 -326 28 0
h 326 7608 0
h -28 7608 0
h -7609 -325 27 0
h 325 7609 0
h -27 7609 0
h -7610 -324 26 0
h 324 7610 0
h -26 7610 0
h -7611 -323 25 0
h 323 7611 0
h -25 7611 0
h -7612 -322 24 0
h 322 7612 0
h -24 7612 0
h -7613 -321 23 0
h 321 7613 0
h -23 7613 0
h -7614 -320 22 0
h 320 7614 0
h -22 7614 0
h -7615 -319 21 0
h 319 7615 0
h -21 7615 0
h -7616 -318 20 0
h 318 7616 0
h -20 7616 0
h 7617 -29 -7608 -7609 -7610 -7611 -7612 -7613 -7614 -7615 -7616 317 316 0
h 29 -7617 0
h 7608 -7617 0
h 7609 -7617 0
h 7610 -7617 0
h 7611 -7617 0
h 7612 -7617 0
h 7613 -7617 0
h 7614 -7617 0
h 7615 -7617 0
h 7616 -7617 0
h -317 -7617 0
h -316 -7617 0
h 7618 -142 162 0
h 142 -7618 0
h -162 -7618 0
h 7619 -162 142 0
h 162 -7619 0
h -142 -7619 0
h 7620 -143 163 0
h 143 -7620 0
h -163 -7620 0
h 7621 -163 143 0
h 163 -7621 0
h -143 -7621 0
h 7622 -144 164 0
h 144 -7622 0
h -164 -7622 0
h 7623 -164 144 0
h 164 -7623 0
h -144 -7623 0
h 7624 -145 165 0
h 145 -7624 0
h -165 -7624 0
h 7625 -165 145 0
h 165 -7625 0
h -145 -7625 0
h -7626 7607 7617 7618 7619 7620 7621 7622 7623 7624 7625 0
h -7607 7626 0
h -7617 7626 0
h -7618 7626 0
h -7619 7626 0
h -7620 7626 0
h -7621 7626 0
h -7622 7626 0
h -7623 7626 0
h -7624 7626 0
h -7625 7626 0
h -7627 -15 325 0
h 15 7627 0
h -325 7627 0
h -7628 -14 324 0
h 14 7628 0
h -324 7628 0
h -7629 -13 323 0
h 13 7629 0
h -323 7629 0
h -7630 -12 322 0
h 12 7630 0
h -322 7630 0
h -7631 -11 321 0
h 11 7631 0
h -321 7631 0
h -7632 -10 320 0
h 10 7632 0
h -320 7632 0
h -7633 -9 319 0
h 9 7633 0
h -319 7633 0
h -7634 -8 318 0
h 8 7634 0
h -318 7634 0
h -7635 -7 317 0
h 7 7635 0
h -317 7635 0
h -7636 -6 316 0
h 6 7636 0
h -316 7636 0
h 7637 -326 -7627 -7628 -7629 -7630 -7631 -7632 -7633 -7634 -7635 -7636 5 0
h 326 -7637 0
h 7627 -7637 0
h 7628 -7637 0
h 7629 -7637 0
h 7630 -7637 0
h 7631 -7637 0
h 7632 -7637 0
h 7633 -7637 0
h 7634 -7637 0
h 7635 -7637 0
h 7636 -7637 0
h -5 -7637 0
h -7638 -326 13 0
h 326 7638 0
h -13 7638 0
h -7639 -325 12 0
h 325 7639 0
h -12 7639 0
h -7640 -324 11 0
h 324 7640 0
h -11 7640 0
h -7641 -323 10 0
h 323 7641 0
h -10 7641 0
h -7642 -322 9 0
h 322 7642 0
h -9 7642 0
h -7643 -321 8 0
h 321 7643 0
h -8 7643 0
h -7644 -320 7 0
h 320 7644 0
h -7 7644 0
h -7645 -319 6 0
h 319 7645 0
h -6 7645 0
h -7646 -318 5 0
h 318 7646 0
h -5 7646 0
h 7647 -14 -7638 -7639 -7640 -7641 -7642 -7643 -7644 -7645 -7646 317 316 0
h 14 -7647 0
h 7638 -7647 0
h 7639 -7647 0
h 7640 -7647 0
h 7641 -7647 0
h 7642 -7647 0
h 7643 -7647 0
h 7644 -7647 0
h 7645 -7647 0
h 7646 -7647 0
h -317 -7647 0
h -316 -7647 0
h 7648 -142 158 0
h 142 -7648 0
h -158 -7648 0
h 7649 -158 142 0
h 158 -7649 0
h -142 -7649 0
h 7650 -143 159 0
h 143 -7650 0
h -159 -7650 0
h 7651 -159 143 0
h 159 -7651 0
h -143 -7651 0
h 7652 -144 160 0
h 144 -7652 0
h -160 -7652 0
h 7653 -160 144 0
h 160 -7653 0
h -144 -7653 0
h 7654 -145 161 0
h 145 -7654 0
h -161 -7654 0
h 7655 -161 145 0
h 161 -7655 0
h -145 -7655 0
h -7656 7637 7647 7648 7649 7650 7651 7652 7653 7654 7655 0
h -7637 7656 0
h -7647 7656 0
h -7648 7656 0
h -7649 7656 0
h -7650 7656 0
h -7651 7656 0
h -7652 7656 0
h -7653 7656 0
h -7654 7656 0
h -7655 7656 0
h -7657 -30 314 0
h 30 7657 0
h -314 7657 0
h -7658 -29 313 0
h 29 7658 0
h -313 7658 0
h -7659 -28 312 0
h 28 7659 0
h -312 7659 0
h -7660 -27 311 0
h 27 7660 0
h -311 7660 0
h -7661 -26 310 0
h 26 7661 0
h -310 7661 0
h -7662 -25 309 0
h 25 7662 0
h -309 7662 0
h -7663 -24 308 0
h 24 7663 0
h -308 7663 0
h -7664 -23 307 0
h 23 7664 0
h -307 7664 0
h -7665 -22 306 0
h 22 7665 0
h -306 7665 0
h -7666 -21 305 0
h 21 7666 0
h -305 7666 0
h 7667 -315 -7657 -7658 -7659 -7660 -7661 -7662 -7663 -7664 -7665 -7666 20 0
h 315 -7667 0
h 7657 -7667 0
h 7658 -7667 0
h 7659 -7667 0
h 7660 -7667 0
h 7661 -7667 0
h 7662 -7667 0
h 7663 -7667 0
h 7664 -7667 0
h 7665 -7667 0
h 7666 -7667 0
h -20 -7667 0
h -7668 -315 28 0
h 315 7668 0
h -28 7668 0
h -7669 -314 27 0
h 314 7669 0
h -27 7669 0
h -7670 -313 26 0
h 313 7670 0
h -26 7670 0
h -7671 -312 25 0
h 312 7671 0
h -25 7671 0
h -7672 -311 24 0
h 311 7672 0
h -24 7672 0
h -7673 -310 23 0
h 310 7673 0
h -23 7673 0
h -7674 -309 22 0
h 309 7674 0
h -22 7674 0
h -7675 -308 21 0
h 308 7675 0
h -21 7675 0
h -7676 -307 20 0
h 307 7676 0
h -20 7676 0
h 7677 -29 -7668 -7669 -7670 -7671 -7672 -7673 -7674 -7675 -7676 306 305 0
h 29 -7677 0
h 7668 -7677 0
h 7669 -7677 0
h 7670 -7677 0
h 7671 -7677 0
h 7672 -7677 0
h 7673 -7677 0
h 7674 -7677 0
h 7675 -7677 0
h 7676 -7677 0
h -306 -7677 0
h -305 -7677 0
h 7678 -146 162 0
h 146 -7678 0
h -162 -7678 0
h 7679 -162 146 0
h 162 -7679 0
h -146 -7679 0
h 7680 -147 163 0
h 147 -7680 0
h -163 -7680 0
h 7681 -163 147 0
h 163 -7681 0
h -147 -7681 0
h 7682 -148 164 0
h 148 -7682 0
h -164 -7682 0
h 7683 -164 148 0
h 164 -7683 0
h -148 -7683 0
h 7684 -149 165 0
h 149 -7684 0
h -165 -7684 0
h 7685 -165 149 0
h 165 -7685 0
h -149 -7685 0
h -7686 7667 7677 7678 7679 7680 7681 7682 7683 7684 7685 0
h -7667 7686 0
h -7677 7686 0
h -7678 7686 0
h -7679 7686 0
h -7680 7686 0
h -7681 7686 0
h -7682 7686 0
h -7683 7686 0
h -7684 7686 0
h -7685 7686 0
h -7687 -15 314 0
h 15 7687 0
h -314 7687 0
h -7688 -14 313 0
h 14 7688 0
h -313 7688 0
h -7689 -13 312 0
h 13 7689 0
h -312 7689 0
h -7690 -12 311 0
h 12 7690 0
h -311 7690 0
h -7691 -11 310 0
h 11 7691 0
h -310 7691 0
h -7692 -10 309 0
h 10 7692 0
h -309 7692 0
h -7693 -9 308 0
h 9 7693 0
h -308 7693 0
h -7694 -8 307 0
h 8 7694 0
h -307 7694 0
h -7695 -7 306 0
h 7 7695 0
h -306 7695 0
h -7696 -6 305 0
h 6 7696 0
h -305 7696 0
h 7697 -315 -7687 -7688 -7689 -7690 -7691 -7692 -7693 -7694 -7695 -7696 5 0
h 315 -7697 0
h 7687 -7697 0
h 7688 -7697 0
h 7689 -7697 0
h 7690 -7697 0
h 7691 -7697 0
h 7692 -7697 0
h 7693 -7697 0
h 7694 -7697 0
h 7695 -7697 0
h 7696 -7697 0
h -5 -7697 0
h -7698 -315 13 0
h 315 7698 0
h -13 7698 0
h -7699 -314 12 0
h 314 7699 0
h -12 7699 0
h -7700 -313 11 0
h 313 7700 0
h -11 7700 0
h -7701 -312 10 0
h 312 7701 0
h -10 7701 0
h -7702 -311 9 0
h 311 7702 0
h -9 7702 0
h -7703 -310 8 0
h 310 7703 0
h -8 7703 0
h -7704 -309 7 0
h 309 7704 0
h -7 7704 0
h -7705 -308 6 0
h 308 7705 0
h -6 7705 0
h -7706 -307 5 0
h 307 7706 0
h -5 7706 0
h 7707 -14 -7698 -7699 -7700 -7701 -7702 -7703 -7704 -7705 -7706 306 305 0
h 14 -7707 0
h 7698 -7707 0
h 7699 -7707 0
h 7700 -7707 0
h 7701 -7707 0
h 7702 -7707 0
h 7703 -7707 0
h 7704 -7707 0
h 7705 -7707 0
h 7706 -7707 0
h -306 -7707 0
h -305 -7707 0
h 7708 -146 158 0
h 146 -7708 0
h -158 -7708 0
h 7709 -158 146 0
h 158 -7709 0
h -146 -7709 0
h 7710 -147 159 0
h 147 -7710 0
h -159 -7710 0
h 7711 -159 147 0
h 159 -7711 0
h -147 -7711 0
h 7712 -148 160 0
h 148 -7712 0
h -160 -7712 0
h 7713 -160 148 0
h 160 -7713 0
h -148 -7713 0
h 7714 -149 161 0
h 149 -7714 0
h -161 -7714 0
h 7715 -161 149 0
h 161 -7715 0
h -149 -7715 0
h -7716 7697 7707 7708 7709 7710 7711 7712 7713 7714 7715 0
h -7697 7716 0
h -7707 7716 0
h -7708 7716 0
h -7709 7716 0
h -7710 7716 0
h -7711 7716 0
h -7712 7716 0
h -7713 7716 0
h -7714 7716 0
h -7715 7716 0
h 7717 -7507 -7536 -7566 -7596 -7626 -7656 -7686 -7716 0
h 7507 -7717 0
h 7536 -7717 0
h 7566 -7717 0
h 7596 -7717 0
h 7626 -7717 0
h 7656 -7717 0
h 7686 -7717 0
h 7716 -7717 0
h 7718 -30 354 0
h 30 -7718 0
h -354 -7718 0
h 7719 -29 353 0
h 29 -7719 0
h -353 -7719 0
h 7720 -28 352 0
h 28 -7720 0
h -352 -7720 0
h 7721 -27 351 0
h 27 -7721 0
h -351 -7721 0
h 7722 -26 350 0
h 26 -7722 0
h -350 -7722 0
h 7723 -25 349 0
h 25 -7723 0
h -349 -7723 0
h 7724 -24 348 0
h 24 -7724 0
h -348 -7724 0
h 7725 -23 347 0
h 23 -7725 0
h -347 -7725 0
h 7726 -22 346 0
h 22 -7726 0
h -346 -7726 0
h -7727 -355 7718 7719 7720 7721 7722 7723 7724 7725 7726 21 20 0
h 355 7727 0
h -7718 7727 0
h -7719 7727 0
h -7720 7727 0
h -7721 7727 0
h -7722 7727 0
h -7723 7727 0
h -7724 7727 0
h -7725 7727 0
h -7726 7727 0
h -21 7727 0
h -20 7727 0
h 7728 -356 28 0
h 356 -7728 0
h -28 -7728 0
h 7729 -355 27 0
h 355 -7729 0
h -27 -7729 0
h 7730 -354 26 0
h 354 -7730 0
h -26 -7730 0
h 7731 -353 25 0
h 353 -7731 0
h -25 -7731 0
h 7732 -352 24 0
h 352 -7732 0
h -24 -7732 0
h 7733 -351 23 0
h 351 -7733 0
h -23 -7733 0
h 7734 -350 22 0
h 350 -7734 0
h -22 -7734 0
h 7735 -349 21 0
h 349 -7735 0
h -21 -7735 0
h 7736 -348 20 0
h 348 -7736 0
h -20 -7736 0
h -7737 -29 7728 7729 7730 7731 7732 7733 7734 7735 7736 347 346 0
h 29 7737 0
h -7728 7737 0
h -7729 7737 0
h -7730 7737 0
h -7731 7737 0
h -7732 7737 0
h -7733 7737 0
h -7734 7737 0
h -7735 7737 0
h -7736 7737 0
h -347 7737 0
h -346 7737 0
h -7738 -154 162 0
h 154 7738 0
h -162 7738 0
h -7739 -162 154 0
h 162 7739 0
h -154 7739 0
h -7740 -155 163 0
h 155 7740 0
h -163 7740 0
h -7741 -163 155 0
h 163 7741 0
h -155 7741 0
h -7742 -156 164 0
h 156 7742 0
h -164 7742 0
h -7743 -164 156 0
h 164 7743 0
h -156 7743 0
h -7744 -157 165 0
h 157 7744 0
h -165 7744 0
h -7745 -165 157 0
h 165 7745 0
h -157 7745 0
h 7746 -7727 -7737 -7738 -7739 -7740 -7741 -7742 -7743 -7744 -7745 0
h 7727 -7746 0
h 7737 -7746 0
h 7738 -7746 0
h 7739 -7746 0
h 7740 -7746 0
h 7741 -7746 0
h 7742 -7746 0
h 7743 -7746 0
h 7744 -7746 0
h 7745 -7746 0
h 7747 -15 354 0
h 15 -7747 0
h -354 -7747 0
h 7748 -14 353 0
h 14 -7748 0
h -353 -7748 0
h 7749 -13 352 0
h 13 -7749 0
h -352 -7749 0
h 7750 -12 351 0
h 12 -7750 0
h -351 -7750 0
h 7751 -11 350 0
h 11 -7751 0
h -350 -7751 0
h 7752 -10 349 0
h 10 -7752 0
h -349 -7752 0
h 7753 -9 348 0
h 9 -7753 0
h -348 -7753 0
h 7754 -8 347 0
h 8 -7754 0
h -347 -7754 0
h 7755 -7 346 0
h 7 -7755 0
h -346 -7755 0
h -7756 -355 7747 7748 7749 7750 7751 7752 7753 7754 7755 6 5 0
h 355 7756 0
h -7747 7756 0
h -7748 7756 0
h -7749 7756 0
h -7750 7756 0
h -7751 7756 0
h -7752 7756 0
h -7753 7756 0
h -7754 7756 0
h -7755 7756 0
h -6 7756 0
h -5 7756 0
h 7757 -356 13 0
h 356 -7757 0
h -13 -7757 0
h 7758 -355 12 0
h 355 -7758 0
h -12 -7758 0
h 7759 -354 11 0
h 354 -7759 0
h -11 -7759 0
h 7760 -353 10 0
h 353 -7760 0
h -10 -7760 0
h 7761 -352 9 0
h 352 -7761 0
h -9 -7761 0
h 7762 -351 8 0
h 351 -7762 0
h -8 -7762 0
h 7763 -350 7 0
h 350 -7763 0
h -7 -7763 0
h 7764 -349 6 0
h 349 -7764 0
h -6 -7764 0
h 7765 -348 5 0
h 348 -7765 0
h -5 -7765 0
h -7766 -14 7757 7758 7759 7760 7761 7762 7763 7764 7765 347 346 0
h 14 7766 0
h -7757 7766 0
h -7758 7766 0
h -7759 7766 0
h -7760 7766 0
h -7761 7766 0
h -7762 7766 0
h -7763 7766 0
h -7764 7766 0
h -7765 7766 0
h -347 7766 0
h -346 7766 0
h -7767 -154 158 0
h 154 7767 0
h -158 7767 0
h -7768 -158 154 0
h 158 7768 0
h -154 7768 0
h -7769 -155 159 0
h 155 7769 0
h -159 7769 0
h -7770 -159 155 0
h 159 7770 0
h -155 7770 0
h -7771 -156 160 0
h 156 7771 0
h -160 7771 0
h -7772 -160 156 0
h 160 7772 0
h -156 7772 0
h -7773 -157 161 0
h 157 7773 0
h -161 7773 0
h -7774 -161 157 0
h 161 7774 0
h -157 7774 0
h 7775 -7756 -7766 -7767 -7768 -7769 -7770 -7771 -7772 -7773 -7774 0
h 7756 -7775 0
h 7766 -7775 0
h 7767 -7775 0
h 7768 -7775 0
h 7769 -7775 0
h 7770 -7775 0
h 7771 -7775 0
h 7772 -7775 0
h 7773 -7775 0
h 7774 -7775 0
h 7776 -30 340 0
h 30 -7776 0
h -340 -7776 0
h 7777 -29 339 0
h 29 -7777 0
h -339 -7777 0
h 7778 -28 338 0
h 28 -7778 0
h -338 -7778 0
h 7779 -27 337 0
h 27 -7779 0
h -337 -7779 0
h 7780 -26 336 0
h 26 -7780 0
h -336 -7780 0
h 7781 -25 335 0
h 25 -7781 0
h -335 -7781 0
h 7782 -24 334 0
h 24 -7782 0
h -334 -7782 0
h 7783 -23 333 0
h 23 -7783 0
h -333 -7783 0
h 7784 -22 332 0
h 22 -7784 0
h -332 -7784 0
h 7785 -21 331 0
h 21 -7785 0
h -331 -7785 0
h -7786 -341 7776 7777 7778 7779 7780 7781 7782 7783 7784 7785 20 0
h 341 7786 0
h -7776 7786 0
h -7777 7786 0
h -7778 7786 0
h -7779 7786 0
h -7780 7786 0
h -7781 7786 0
h -7782 7786 0
h -7783 7786 0
h -7784 7786 0
h -7785 7786 0
h -20 7786 0
h 7787 -341 28 0
h 341 -7787 0
h -28 -7787 0
h 7788 -340 27 0
h 340 -7788 0
h -27 -7788 0
h 7789 -339 26 0
h 339 -7789 0
h -26 -7789 0
h 7790 -338 25 0
h 338 -7790 0
h -25 -7790 0
h 7791 -337 24 0
h 337 -7791 0
h -24 -7791 0
h 7792 -336 23 0
h 336 -7792 0
h -23 -7792 0
h 7793 -335 22 0
h 335 -7793 0
h -22 -7793 0
h 7794 -334 21 0
h 334 -7794 0
h -21 -7794 0
h 7795 -333 20 0
h 333 -7795 0
h -20 -7795 0
h -7796 -29 7787 7788 7789 7790 7791 7792 7793 7794 7795 332 331 0
h 29 7796 0
h -7787 7796 0
h -7788 7796 0
h -7789 7796 0
h -7790 7796 0
h -7791 7796 0
h -7792 7796 0
h -7793 7796 0
h -7794 7796 0
h -7795 7796 0
h -332 7796 0
h -331 7796 0
h -7797 -150 162 0
h 150 7797 0
h -162 7797 0
h -7798 -162 150 0
h 162 7798 0
h -150 7798 0
h -7799 -151 163 0
h 151 7799 0
h -163 7799 0
h -7800 -163 151 0
h 163 7800 0
h -151 7800 0
h -7801 -152 164 0
h 152 7801 0
h -164 7801 0
h -7802 -164 152 0
h 164 7802 0
h -152 7802 0
h -7803 -153 165 0
h 153 7803 0
h -165 7803 0
h -7804 -165 153 0
h 165 7804 0
h -153 7804 0
h 7805 -7786 -7796 -7797 -7798 -7799 -7800 -7801 -7802 -7803 -7804 0
h 7786 -7805 0
h 7796 -7805 0
h 7797 -7805 0
h 7798 -7805 0
h 7799 -7805 0
h 7800 -7805 0
h 7801 -7805 0
h 7802 -7805 0
h 7803 -7805 0
h 7804 -7805 0
h 7806 -15 340 0
h 15 -7806 0
h -340 -7806 0
h 7807 -14 339 0
h 14 -7807 0
h -339 -7807 0
h 7808 -13 338 0
h 13 -7808 0
h -338 -7808 0
h 7809 -12 337 0
h 12 -7809 0
h -337 -7809 0
h 7810 -11 336 0
h 11 -7810 0
h -336 -7810 0
h 7811 -10 335 0
h 10 -7811 0
h -335 -7811 0
h 7812 -9 334 0
h 9 -7812 0
h -334 -7812 0
h 7813 -8 333 0
h 8 -7813 0
h -333 -7813 0
h 7814 -7 332 0
h 7 -7814 0
h -332 -7814 0
h 7815 -6 331 0
h 6 -7815 0
h -331 -7815 0
h -7816 -341 7806 7807 7808 7809 7810 7811 7812 7813 7814 7815 5 0
h 341 7816 0
h -7806 7816 0
h -7807 7816 0
h -7808 7816 0
h -7809 7816 0
h -7810 7816 0
h -7811 7816 0
h -7812 7816 0
h -7813 7816 0
h -7814 7816 0
h -7815 7816 0
h -5 7816 0
h 7817 -341 13 0
h 341 -7817 0
h -13 -7817 0
h 7818 -340 12 0
h 340 -7818 0
h -12 -7818 0
h 7819 -339 11 0
h 339 -7819 0
h -11 -7819 0
h 7820 -338 10 0
h 338 -7820 0
h -10 -7820 0
h 7821 -337 9 0
h 337 -7821 0
h -9 -7821 0
h 7822 -336 8 0
h 336 -7822 0
h -8 -7822 0
h 7823 -335 7 0
h 335 -7823 0
h -7 -7823 0
h 7824 -334 6 0
h 334 -7824 0
h -6 -7824 0
h 7825 -333 5 0
h 333 -7825 0
h -5 -7825 0
h -7826 -14 7817 7818 7819 7820 7821 7822 7823 7824 7825 332 331 0
h 14 7826 0
h -7817 7826 0
h -7818 7826 0
h -7819 7826 0
h -7820 7826 0
h -7821 7826 0
h -7822 7826 0
h -7823 7826 0
h -7824 7826 0
h -7825 7826 0
h -332 7826 0
h -331 7826 0
h -7827 -150 158 0
h 150 7827 0
h -158 7827 0
h -7828 -158 150 0
h 158 7828 0
h -150 7828 0
h -7829 -151 159 0
h 151 7829 0
h -159 7829 0
h -7830 -159 151 0
h 159 7830 0
h -151 7830 0
h -7831 -152 160 0
h 152 7831 0
h -160 7831 0
h -7832 -160 152 0
h 160 7832 0
h -152 7832 0
h -7833 -153 161 0
h 153 7833 0
h -161 7833 0
h -7834 -161 153 0
h 161 7834 0
h -153 7834 0
h 7835 -7816 -7826 -7827 -7828 -7829 -7830 -7831 -7832 -7833 -7834 0
h 7816 -7835 0
h 7826 -7835 0
h 7827 -7835 0
h 7828 -7835 0
h 7829 -7835 0
h 7830 -7835 0
h 7831 -7835 0
h 7832 -7835 0
h 7833 -7835 0
h 7834 -7835 0
h 7836 -30 325 0
h 30 -7836 0
h -325 -7836 0
h 7837 -29 324 0
h 29 -7837 0
h -324 -7837 0
h 7838 -28 323 0
h 28 -7838 0
h -323 -7838 0
h 7839 -27 322 0
h 27 -7839 0
h -322 -7839 0
h 7840 -26 321 0
h 26 -7840 0
h -321 -7840 0
h 7841 -25 320 0
h 25 -7841 0
h -320 -7841 0
h 7842 -24 319 0
h 24 -7842 0
h -319 -7842 0
h 7843 -23 318 0
h 23 -7843 0
h -318 -7843 0
h 7844 -22 317 0
h 22 -7844 0
h -317 -7844 0
h 7845 -21 316 0
h 21 -7845 0
h -316 -7845 0
h -7846 -326 7836 7837 7838 7839 7840 7841 7842 7843 7844 7845 20 0
h 326 7846 0
h -7836 7846 0
h -7837 7846 0
h -7838 7846 0
h -7839 7846 0
h -7840 7846 0
h -7841 7846 0
h -7842 7846 0
h -7843 7846 0
h -7844 7846 0
h -7845 7846 0
h -20 7846 0
h 7847 -326 28 0
h 326 -7847 0
h -28 -7847 0
h 7848 -325 27 0
h 325 -7848 0
h -27 -7848 0
h 7849 -324 26 0
h 324 -7849 0
h -26 -7849 0
h 7850 -323 25 0
h 323 -7850 0
h -25 -7850 0
h 7851 -322 24 0
h 322 -7851 0
h -24 -7851 0
h 7852 -321 23 0
h 321 -7852 0
h -23 -7852 0
h 7853 -320 22 0
h 320 -7853 0
h -22 -7853 0
h 7854 -319 21 0
h 319 -7854 0
h -21 -7854 0
h 7855 -318 20 0
h 318 -7855 0
h -20 -7855 0
h -7856 -29 7847 7848 7849 7850 7851 7852 7853 7854 7855 317 316 0
h 29 7856 0
h -7847 7856 0
h -7848 7856 0
h -7849 7856 0
h -7850 7856 0
h -7851 7856 0
h -7852 7856 0
h -7853 7856 0
h -7854 7856 0
h -7855 7856 0
h -317 7856 0
h -316 7856 0
h -7857 -142 162 0
h 142 7857 0
h -162 7857 0
h -7858 -162 142 0
h 162 7858 0
h -142 7858 0
h -7859 -143 163 0
h 143 7859 0
h -163 7859 0
h -7860 -163 143 0
h 163 7860 0
h -143 7860 0
h -7861 -144 164 0
h 144 7861 0
h -164 7861 0
h -7862 -164 144 0
h 164 7862 0
h -144 7862 0
h -7863 -145 165 0
h 145 7863 0
h -165 7863 0
h -7864 -165 145 0
h 165 7864 0
h -145 7864 0
h 7865 -7846 -7856 -7857 -7858 -7859 -7860 -7861 -7862 -7863 -7864 0
h 7846 -7865 0
h 7856 -7865 0
h 7857 -7865 0
h 7858 -7865 0
h 7859 -7865 0
h 7860 -7865 0
h 7861 -7865 0
h 7862 -7865 0
h 7863 -7865 0
h 7864 -7865 0
h 7866 -15 325 0
h 15 -7866 0
h -325 -7866 0
h 7867 -14 324 0
h 14 -7867 0
h -324 -7867 0
h 7868 -13 323 0
h 13 -7868 0
h -323 -7868 0
h 7869 -12 322 0
h 12 -7869 0
h -322 -7869 0
h 7870 -11 321 0
h 11 -7870 0
h -321 -7870 0
h 7871 -10 320 0
h 10 -7871 0
h -320 -7871 0
h 7872 -9 319 0
h 9 -7872 0
h -319 -7872 0
h 7873 -8 318 0
h 8 -7873 0
h -318 -7873 0
h 7874 -7 317 0
h 7 -7874 0
h -317 -7874 0
h 7875 -6 316 0
h 6 -7875 0
h -316 -7875 0
h -7876 -326 7866 7867 7868 7869 7870 7871 7872 7873 7874 7875 5 0
h 326 7876 0
h -7866 7876 0
h -7867 7876 0
h -7868 7876 0
h -7869 7876 0
h -7870 7876 0
h -7871 7876 0
h -7872 7876 0
h -7873 7876 0
h -7874 7876 0
h -7875 7876 0
h -5 7876 0
h 7877 -326 13 0
h 326 -7877 0
h -13 -7877 0
h 7878 -325 12 0
h 325 -7878 0
h -12 -7878 0
h 7879 -324 11 0
h 324 -7879 0
h -11 -7879 0
h 7880 -323 10 0
h 323 -7880 0
h -10 -7880 0
h 7881 -322 9 0
h 322 -7881 0
h -9 -7881 0
h 7882 -321 8 0
h 321 -7882 0
h -8 -7882 0
h 7883 -320 7 0
h 320 -7883 0
h -7 -7883 0
h 7884 -319 6 0
h 319 -7884 0
h -6 -7884 0
h 7885 -318 5 0
h 318 -7885 0
h -5 -7885 0
h -7886 -14 7877 7878 7879 7880 7881 7882 7883 7884 7885 317 316 0
h 14 7886 0
h -7877 7886 0
h -7878 7886 0
h -7879 7886 0
h -7880 7886 0
h -7881 7886 0
h -7882 7886 0
h -7883 7886 0
h -7884 7886 0
h -7885 7886 0
h -317 7886 0
h -316 7886 0
h -7887 -142 158 0
h 142 7887 0
h -158 7887 0
h -7888 -158 142 0
h 158 7888 0
h -142 7888 0
h -7889 -143 159 0
h 143 7889 0
h -159 7889 0
h -7890 -159 143 0
h 159 7890 0
h -143 7890 0
h -7891 -144 160 0
h 144 7891 0
h -160 7891 0
h -7892 -160 144 0
h 160 7892 0
h -144 7892 0
h -7893 -145 161 0
h 145 7893 0
h -161 7893 0
h -7894 -161 145 0
h 161 7894 0
h -145 7894 0
h 7895 -7876 -7886 -7887 -7888 -7889 -7890 -7891 -7892 -7893 -7894 0
h 7876 -7895 0
h 7886 -7895 0
h 7887 -7895 0
h 7888 -7895 0
h 7889 -7895 0
h 7890 -7895 0
h 7891 -7895 0
h 7892 -7895 0
h 7893 -7895 0
h 7894 -7895 0
h 7896 -30 314 0
h 30 -7896 0
h -314 -7896 0
h 7897 -29 313 0
h 29 -7897 0
h -313 -7897 0
h 7898 -28 312 0
h 28 -7898 0
h -312 -7898 0
h 7899 -27 311 0
h 27 -7899 0
h -311 -7899 0
h 7900 -26 310 0
h 26 -7900 0
h -310 -7900 0
h 7901 -25 309 0
h 25 -7901 0
h -309 -7901 0
h 7902 -24 308 0
h 24 -7902 0
h -308 -7902 0
h 7903 -23 307 0
h 23 -7903 0
h -307 -7903 0
h 7904 -22 306 0
h 22 -7904 0
h -306 -7904 0
h 7905 -21 305 0
h 21 -7905 0
h -305 -7905 0
h -7906 -315 7896 7897 7898 7899 7900 7901 7902 7903 7904 7905 20 0
h 315 7906 0
h -7896 7906 0
h -7897 7906 0
h -7898 7906 0
h -7899 7906 0
h -7900 7906 0
h -7901 7906 0
h -7902 7906 0
h -7903 7906 0
h -7904 7906 0
h -7905 7906 0
h -20 7906 0
h 7907 -315 28 0
h 315 -7907 0
h -28 -7907 0
h 7908 -314 27 0
h 314 -7908 0
h -27 -7908 0
h 7909 -313 26 0
h 313 -7909 0
h -26 -7909 0
h 7910 -312 25 0
h 312 -7910 0
h -25 -7910 0
h 7911 -311 24 0
h 311 -7911 0
h -24 -7911 0
h 7912 -310 23 0
h 310 -7912 0
h -23 -7912 0
h 7913 -309 22 0
h 309 -7913 0
h -22 -7913 0
h 7914 -308 21 0
h 308 -7914 0
h -21 -7914 0
h 7915 -307 20 0
h 307 -7915 0
h -20 -7915 0
h -7916 -29 7907 7908 7909 7910 7911 7912 7913 7914 7915 306 305 0
h 29 7916 0
h -7907 7916 0
h -7908 7916 0
h -7909 7916 0
h -7910 7916 0
h -7911 7916 0
h -7912 7916 0
h -7913 7916 0
h -7914 7916 0
h -7915 7916 0
h -306 7916 0
h -305 7916 0
h -7917 -146 162 0
h 146 7917 0
h -162 7917 0
h -7918 -162 146 0
h 162 7918 0
h -146 7918 0
h -7919 -147 163 0
h 147 7919 0
h -163 7919 0
h -7920 -163 147 0
h 163 7920 0
h -147 7920 0
h -7921 -148 164 0
h 148 7921 0
h -164 7921 0
h -7922 -164 148 0
h 164 7922 0
h -148 7922 0
h -7923 -149 165 0
h 149 7923 0
h -165 7923 0
h -7924 -165 149 0
h 165 7924 0
h -149 7924 0
h 7925 -7906 -7916 -7917 -7918 -7919 -7920 -7921 -7922 -7923 -7924 0
h 7906 -7925 0
h 7916 -7925 0
h 7917 -7925 0
h 7918 -7925 0
h 7919 -7925 0
h 7920 -7925 0
h 7921 -7925 0
h 7922 -7925 0
h 7923 -7925 0
h 7924 -7925 0
h 7926 -15 314 0
h 15 -7926 0
h -314 -7926 0
h 7927 -14 313 0
h 14 -7927 0
h -313 -7927 0
h 7928 -13 312 0
h 13 -7928 0
h -312 -7928 0
h 7929 -12 311 0
h 12 -7929 0
h -311 -7929 0
h 7930 -11 310 0
h 11 -7930 0
h -310 -7930 0
h 7931 -10 309 0
h 10 -7931 0
h -309 -7931 0
h 7932 -9 308 0
h 9 -7932 0
h -308 -7932 0
h 7933 -8 307 0
h 8 -7933 0
h -307 -7933 0
h 7934 -7 306 0
h 7 -7934 0
h -306 -7934 0
h 7935 -6 305 0
h 6 -7935 0
h -305 -7935 0
h -7936 -315 7926 7927 7928 7929 7930 7931 7932 7933 7934 7935 5 0
h 315 7936 0
h -7926 7936 0
h -7927 7936 0
h -7928 7936 0
h -7929 7936 0
h -7930 7936 0
h -7931 7936 0
h -7932 7936 0
h -7933 7936 0
h -7934 7936 0
h -7935 7936 0
h -5 7936 0
h 7937 -315 13 0
h 315 -7937 0
h -13 -7937 0
h 7938 -314 12 0
h 314 -7938 0
h -12 -7938 0
h 7939 -313 11 0
h 313 -7939 0
h -11 -7939 0
h 7940 -312 10 0
h 312 -7940 0
h -10 -7940 0
h 7941 -311 9 0
h 311 -7941 0
h -9 -7941 0
h 7942 -310 8 0
h 310 -7942 0
h -8 -7942 0
h 7943 -309 7 0
h 309 -7943 0
h -7 -7943 0
h 7944 -308 6 0
h 308 -7944 0
h -6 -7944 0
h 7945 -307 5 0
h 307 -7945 0
h -5 -7945 0
h -7946 -14 7937 7938 7939 7940 7941 7942 7943 7944 7945 306 305 0
h 14 7946 0
h -7937 7946 0
h -7938 7946 0
h -7939 7946 0
h -7940 7946 0
h -7941 7946 0
h -7942 7946 0
h -7943 7946 0
h -7944 7946 0
h -7945 7946 0
h -306 7946 0
h -305 7946 0
h -7947 -146 158 0
h 146 7947 0
h -158 7947 0
h -7948 -158 146 0
h 158 7948 0
h -146 7948 0
h -7949 -147 159 0
h 147 7949 0
h -159 7949 0
h -7950 -159 147 0
h 159 7950 0
h -147 7950 0
h -7951 -148 160 0
h 148 7951 0
h -160 7951 0
h -7952 -160 148 0
h 160 7952 0
h -148 7952 0
h -7953 -149 161 0
h 149 7953 0
h -161 7953 0
h -7954 -161 149 0
h 161 7954 0
h -149 7954 0
h 7955 -7936 -7946 -7947 -7948 -7949 -7950 -7951 -7952 -7953 -7954 0
h 7936 -7955 0
h 7946 -7955 0
h 7947 -7955 0
h 7948 -7955 0
h 7949 -7955 0
h 7950 -7955 0
h 7951 -7955 0
h 7952 -7955 0
h 7953 -7955 0
h 7954 -7955 0
h -7956 -203 95 0
h 203 7956 0
h -95 7956 0
h -7957 -202 94 0
h 202 7957 0
h -94 7957 0
h -7958 -201 93 0
h 201 7958 0
h -93 7958 0
h -7959 -200 92 0
h 200 7959 0
h -92 7959 0
h -7960 -199 91 0
h 199 7960 0
h -91 7960 0
h -7961 -198 90 0
h 198 7961 0
h -90 7961 0
h -7962 -197 89 0
h 197 7962 0
h -89 7962 0
h -7963 -196 88 0
h 196 7963 0
h -88 7963 0
h -7964 -195 87 0
h 195 7964 0
h -87 7964 0
h 7965 -96 -7956 -7957 -7958 -7959 -7960 -7961 -7962 -7963 -7964 194 193 0
h 96 -7965 0
h 7956 -7965 0
h 7957 -7965 0
h 7958 -7965 0
h 7959 -7965 0
h 7960 -7965 0
h 7961 -7965 0
h 7962 -7965 0
h 7963 -7965 0
h 7964 -7965 0
h -194 -7965 0
h -193 -7965 0
h -7966 -97 200 0
h 97 7966 0
h -200 7966 0
h -7967 -96 199 0
h 96 7967 0
h -199 7967 0
h -7968 -95 198 0
h 95 7968 0
h -198 7968 0
h -7969 -94 197 0
h 94 7969 0
h -197 7969 0
h -7970 -93 196 0
h 93 7970 0
h -196 7970 0
h -7971 -92 195 0
h 92 7971 0
h -195 7971 0
h -7972 -91 194 0
h 91 7972 0
h -194 7972 0
h -7973 -90 193 0
h 90 7973 0
h -193 7973 0
h 7974 -201 -7966 -7967 -7968 -7969 -7970 -7971 -7972 -7973 89 88 87 0
h 201 -7974 0
h 7966 -7974 0
h 7967 -7974 0
h 7968 -7974 0
h 7969 -7974 0
h 7970 -7974 0
h 7971 -7974 0
h 7972 -7974 0
h 7973 -7974 0
h -89 -7974 0
h -88 -7974 0
h -87 -7974 0
h 7975 -238 342 0
h 238 -7975 0
h -342 -7975 0
h 7976 -342 238 0
h 342 -7976 0
h -238 -7976 0
h 7977 -239 343 0
h 239 -7977 0
h -343 -7977 0
h 7978 -343 239 0
h 343 -7978 0
h -239 -7978 0
h 7979 -240 344 0
h 240 -7979 0
h -344 -7979 0
h 7980 -344 240 0
h 344 -7980 0
h -240 -7980 0
h 7981 -241 345 0
h 241 -7981 0
h -345 -7981 0
h 7982 -345 241 0
h 345 -7982 0
h -241 -7982 0
h -7983 -218 95 0
h 218 7983 0
h -95 7983 0
h -7984 -217 94 0
h 217 7984 0
h -94 7984 0
h -7985 -216 93 0
h 216 7985 0
h -93 7985 0
h -7986 -215 92 0
h 215 7986 0
h -92 7986 0
h -7987 -214 91 0
h 214 7987 0
h -91 7987 0
h -7988 -213 90 0
h 213 7988 0
h -90 7988 0
h -7989 -212 89 0
h 212 7989 0
h -89 7989 0
h -7990 -211 88 0
h 211 7990 0
h -88 7990 0
h -7991 -210 87 0
h 210 7991 0
h -87 7991 0
h 7992 -96 -7983 -7984 -7985 -7986 -7987 -7988 -7989 -7990 -7991 209 208 0
h 96 -7992 0
h 7983 -7992 0
h 7984 -7992 0
h 7985 -7992 0
h 7986 -7992 0
h 7987 -7992 0
h 7988 -7992 0
h 7989 -7992 0
h 7990 -7992 0
h 7991 -7992 0
h -209 -7992 0
h -208 -7992 0
h -7993 -97 215 0
h 97 7993 0
h -215 7993 0
h -7994 -96 214 0
h 96 7994 0
h -214 7994 0
h -7995 -95 213 0
h 95 7995 0
h -213 7995 0
h -7996 -94 212 0
h 94 7996 0
h -212 7996 0
h -7997 -93 211 0
h 93 7997 0
h -211 7997 0
h -7998 -92 210 0
h 92 7998 0
h -210 7998 0
h -7999 -91 209 0
h 91 7999 0
h -209 7999 0
h -8000 -90 208 0
h 90 8000 0
h -208 8000 0
h 8001 -216 -7993 -7994 -7995 -7996 -7997 -7998 -7999 -8000 89 88 87 0
h 216 -8001 0
h 7993 -8001 0
h 7994 -8001 0
h 7995 -8001 0
h 7996 -8001 0
h 7997 -8001 0
h 7998 -8001 0
h 7999 -8001 0
h 8000 -8001 0
h -89 -8001 0
h -88 -8001 0
h -87 -8001 0
h 8002 -238 327 0
h 238 -8002 0
h -327 -8002 0
h 8003 -327 238 0
h 327 -8003 0
h -238 -8003 0
h 8004 -239 328 0
h 239 -8004 0
h -328 -8004 0
h 8005 -328 239 0
h 328 -8005 0
h -239 -8005 0
h 8006 -240 329 0
h 240 -8006 0
h -329 -8006 0
h 8007 -329 240 0
h 329 -8007 0
h -240 -8007 0
h 8008 -241 330 0
h 241 -8008 0
h -330 -8008 0
h 8009 -330 241 0
h 330 -8009 0
h -241 -8009 0
h -8010 -203 117 0
h 203 8010 0
h -117 8010 0
h -8011 -202 116 0
h 202 8011 0
h -116 8011 0
h -8012 -201 115 0
h 201 8012 0
h -115 8012 0
h -8013 -200 114 0
h 200 8013 0
h -114 8013 0
h -8014 -199 113 0
h 199 8014 0
h -113 8014 0
h -8015 -198 112 0
h 198 8015 0
h -112 8015 0
h -8016 -197 111 0
h 197 8016 0
h -111 8016 0
h -8017 -196 110 0
h 196 8017 0
h -110 8017 0
h -8018 -195 109 0
h 195 8018 0
h -109 8018 0
h 8019 -118 -8010 -8011 -8012 -8013 -8014 -8015 -8016 -8017 -8018 194 193 0
h 118 -8019 0
h 8010 -8019 0
h 8011 -8019 0
h 8012 -8019 0
h 8013 -8019 0
h 8014 -8019 0
h 8015 -8019 0
h 8016 -8019 0
h 8017 -8019 0
h 8018 -8019 0
h -194 -8019 0
h -193 -8019 0
h -8020 -119 200 0
h 119 8020 0
h -200 8020 0
h -8021 -118 199 0
h 118 8021 0
h -199 8021 0
h -8022 -117 198 0
h 117 8022 0
h -198 8022 0
h -8023 -116 197 0
h 116 8023 0
h -197 8023 0
h -8024 -115 196 0
h 115 8024 0
h -196 8024 0
h -8025 -114 195 0
h 114 8025 0
h -195 8025 0
h -8026 -113 194 0
h 113 8026 0
h -194 8026 0
h -8027 -112 193 0
h 112 8027 0
h -193 8027 0
h 8028 -201 -8020 -8021 -8022 -8023 -8024 -8025 -8026 -8027 111 110 109 0
h 201 -8028 0
h 8020 -8028 0
h 8021 -8028 0
h 8022 -8028 0
h 8023 -8028 0
h 8024 -8028 0
h 8025 -8028 0
h 8026 -8028 0
h 8027 -8028 0
h -111 -8028 0
h -110 -8028 0
h -109 -8028 0
h 8029 -253 342 0
h 253 -8029 0
h -342 -8029 0
h 8030 -342 253 0
h 342 -8030 0
h -253 -8030 0
h 8031 -254 343 0
h 254 -8031 0
h -343 -8031 0
h 8032 -343 254 0
h 343 -8032 0
h -254 -8032 0
h 8033 -255 344 0
h 255 -8033 0
h -344 -8033 0
h 8034 -344 255 0
h 344 -8034 0
h -255 -8034 0
h 8035 -256 345 0
h 256 -8035 0
h -345 -8035 0
h 8036 -345 256 0
h 345 -8036 0
h -256 -8036 0
h -8037 -218 117 0
h 218 8037 0
h -117 8037 0
h -8038 -217 116 0
h 217 8038 0
h -116 8038 0
h -8039 -216 115 0
h 216 8039 0
h -115 8039 0
h -8040 -215 114 0
h 215 8040 0
h -114 8040 0
h -8041 -214 113 0
h 214 8041 0
h -113 8041 0
h -8042 -213 112 0
h 213 8042 0
h -112 8042 0
h -8043 -212 111 0
h 212 8043 0
h -111 8043 0
h -8044 -211 110 0
h 211 8044 0
h -110 8044 0
h -8045 -210 109 0
h 210 8045 0
h -109 8045 0
h 8046 -118 -8037 -8038 -8039 -8040 -8041 -8042 -8043 -8044 -8045 209 208 0
h 118 -8046 0
h 8037 -8046 0
h 8038 -8046 0
h 8039 -8046 0
h 8040 -8046 0
h 8041 -8046 0
h 8042 -8046 0
h 8043 -8046 0
h 8044 -8046 0
h 8045 -8046 0
h -209 -8046 0
h -208 -8046 0
h -8047 -119 215 0
h 119 8047 0
h -215 8047 0
h -8048 -118 214 0
h 118 8048 0
h -214 8048 0
h -8049 -117 213 0
h 117 8049 0
h -213 8049 0
h -8050 -116 212 0
h 116 8050 0
h -212 8050 0
h -8051 -115 211 0
h 115 8051 0
h -211 8051 0
h -8052 -114 210 0
h 114 8052 0
h -210 8052 0
h -8053 -113 209 0
h 113 8053 0
h -209 8053 0
h -8054 -112 208 0
h 112 8054 0
h -208 8054 0
h 8055 -216 -8047 -8048 -8049 -8050 -8051 -8052 -8053 -8054 111 110 109 0
h 216 -8055 0
h 8047 -8055 0
h 8048 -8055 0
h 8049 -8055 0
h 8050 -8055 0
h 8051 -8055 0
h 8052 -8055 0
h 8053 -8055 0
h 8054 -8055 0
h -111 -8055 0
h -110 -8055 0
h -109 -8055 0
h 8056 -253 327 0
h 253 -8056 0
h -327 -8056 0
h 8057 -327 253 0
h 327 -8057 0
h -253 -8057 0
h 8058 -254 328 0
h 254 -8058 0
h -328 -8058 0
h 8059 -328 254 0
h 328 -8059 0
h -254 -8059 0
h 8060 -255 329 0
h 255 -8060 0
h -329 -8060 0
h 8061 -329 255 0
h 329 -8061 0
h -255 -8061 0
h 8062 -256 330 0
h 256 -8062 0
h -330 -8062 0
h 8063 -330 256 0
h 330 -8063 0
h -256 -8063 0
h -8064 -86 95 0
h 86 8064 0
h -95 8064 0
h -8065 -85 94 0
h 85 8065 0
h -94 8065 0
h -8066 -84 93 0
h 84 8066 0
h -93 8066 0
h -8067 -83 92 0
h 83 8067 0
h -92 8067 0
h -8068 -82 91 0
h 82 8068 0
h -91 8068 0
h -8069 -81 90 0
h 81 8069 0
h -90 8069 0
h -8070 -80 89 0
h 80 8070 0
h -89 8070 0
h -8071 -79 88 0
h 79 8071 0
h -88 8071 0
h -8072 -78 87 0
h 78 8072 0
h -87 8072 0
h 8073 -96 -8064 -8065 -8066 -8067 -8068 -8069 -8070 -8071 -8072 77 76 0
h 96 -8073 0
h 8064 -8073 0
h 8065 -8073 0
h 8066 -8073 0
h 8067 -8073 0
h 8068 -8073 0
h 8069 -8073 0
h 8070 -8073 0
h 8071 -8073 0
h 8072 -8073 0
h -77 -8073 0
h -76 -8073 0
h -8074 -97 84 0
h 97 8074 0
h -84 8074 0
h -8075 -96 83 0
h 96 8075 0
h -83 8075 0
h -8076 -95 82 0
h 95 8076 0
h -82 8076 0
h -8077 -94 81 0
h 94 8077 0
h -81 8077 0
h -8078 -93 80 0
h 93 8078 0
h -80 8078 0
h -8079 -92 79 0
h 92 8079 0
h -79 8079 0
h -8080 -91 78 0
h 91 8080 0
h -78 8080 0
h -8081 -90 77 0
h 90 8081 0
h -77 8081 0
h -8082 -89 76 0
h 89 8082 0
h -76 8082 0
h 8083 -85 -8074 -8075 -8076 -8077 -8078 -8079 -8080 -8081 -8082 88 87 0
h 85 -8083 0
h 8074 -8083 0
h 8075 -8083 0
h 8076 -8083 0
h 8077 -8083 0
h 8078 -8083 0
h 8079 -8083 0
h 8080 -8083 0
h 8081 -8083 0
h 8082 -8083 0
h -88 -8083 0
h -87 -8083 0
h 8084 -238 185 0
h 238 -8084 0
h -185 -8084 0
h 8085 -185 238 0
h 185 -8085 0
h -238 -8085 0
h 8086 -239 186 0
h 239 -8086 0
h -186 -8086 0
h 8087 -186 239 0
h 186 -8087 0
h -239 -8087 0
h 8088 -240 187 0
h 240 -8088 0
h -187 -8088 0
h 8089 -187 240 0
h 187 -8089 0
h -240 -8089 0
h 8090 -241 188 0
h 241 -8090 0
h -188 -8090 0
h 8091 -188 241 0
h 188 -8091 0
h -241 -8091 0
h -8092 -75 95 0
h 75 8092 0
h -95 8092 0
h -8093 -74 94 0
h 74 8093 0
h -94 8093 0
h -8094 -73 93 0
h 73 8094 0
h -93 8094 0
h -8095 -72 92 0
h 72 8095 0
h -92 8095 0
h -8096 -71 91 0
h 71 8096 0
h -91 8096 0
h -8097 -70 90 0
h 70 8097 0
h -90 8097 0
h -8098 -69 89 0
h 69 8098 0
h -89 8098 0
h -8099 -68 88 0
h 68 8099 0
h -88 8099 0
h -8100 -67 87 0
h 67 8100 0
h -87 8100 0
h 8101 -96 -8092 -8093 -8094 -8095 -8096 -8097 -8098 -8099 -8100 66 65 0
h 96 -8101 0
h 8092 -8101 0
h 8093 -8101 0
h 8094 -8101 0
h 8095 -8101 0
h 8096 -8101 0
h 8097 -8101 0
h 8098 -8101 0
h 8099 -8101 0
h 8100 -8101 0
h -66 -8101 0
h -65 -8101 0
h -8102 -97 73 0
h 97 8102 0
h -73 8102 0
h -8103 -96 72 0
h 96 8103 0
h -72 8103 0
h -8104 -95 71 0
h 95 8104 0
h -71 8104 0
h -8105 -94 70 0
h 94 8105 0
h -70 8105 0
h -8106 -93 69 0
h 93 8106 0
h -69 8106 0
h -8107 -92 68 0
h 92 8107 0
h -68 8107 0
h -8108 -91 67 0
h 91 8108 0
h -67 8108 0
h -8109 -90 66 0
h 90 8109 0
h -66 8109 0
h -8110 -89 65 0
h 89 8110 0
h -65 8110 0
h 8111 -74 -8102 -8103 -8104 -8105 -8106 -8107 -8108 -8109 -8110 88 87 0
h 74 -8111 0
h 8102 -8111 0
h 8103 -8111 0
h 8104 -8111 0
h 8105 -8111 0
h 8106 -8111 0
h 8107 -8111 0
h 8108 -8111 0
h 8109 -8111 0
h 8110 -8111 0
h -88 -8111 0
h -87 -8111 0
h 8112 -238 177 0
h 238 -8112 0
h -177 -8112 0
h 8113 -177 238 0
h 177 -8113 0
h -238 -8113 0
h 8114 -239 178 0
h 239 -8114 0
h -178 -8114 0
h 8115 -178 239 0
h 178 -8115 0
h -239 -8115 0
h 8116 -240 179 0
h 240 -8116 0
h -179 -8116 0
h 8117 -179 240 0
h 179 -8117 0
h -240 -8117 0
h 8118 -241 180 0
h 241 -8118 0
h -180 -8118 0
h 8119 -180 241 0
h 180 -8119 0
h -241 -8119 0
h -8120 -86 117 0
h 86 8120 0
h -117 8120 0
h -8121 -85 116 0
h 85 8121 0
h -116 8121 0
h -8122 -84 115 0
h 84 8122 0
h -115 8122 0
h -8123 -83 114 0
h 83 8123 0
h -114 8123 0
h -8124 -82 113 0
h 82 8124 0
h -113 8124 0
h -8125 -81 112 0
h 81 8125 0
h -112 8125 0
h -8126 -80 111 0
h 80 8126 0
h -111 8126 0
h -8127 -79 110 0
h 79 8127 0
h -110 8127 0
h -8128 -78 109 0
h 78 8128 0
h -109 8128 0
h 8129 -118 -8120 -8121 -8122 -8123 -8124 -8125 -8126 -8127 -8128 77 76 0
h 118 -8129 0
h 8120 -8129 0
h 8121 -8129 0
h 8122 -8129 0
h 8123 -8129 0
h 8124 -8129 0
h 8125 -8129 0
h 8126 -8129 0
h 8127 -8129 0
h 8128 -8129 0
h -77 -8129 0
h -76 -8129 0
h -8130 -119 84 0
h 119 8130 0
h -84 8130 0
h -8131 -118 83 0
h 118 8131 0
h -83 8131 0
h -8132 -117 82 0
h 117 8132 0
h -82 8132 0
h -8133 -116 81 0
h 116 8133 0
h -81 8133 0
h -8134 -115 80 0
h 115 8134 0
h -80 8134 0
h -8135 -114 79 0
h 114 8135 0
h -79 8135 0
h -8136 -113 78 0
h 113 8136 0
h -78 8136 0
h -8137 -112 77 0
h 112 8137 0
h -77 8137 0
h -8138 -111 76 0
h 111 8138 0
h -76 8138 0
h 8139 -85 -8130 -8131 -8132 -8133 -8134 -8135 -8136 -8137 -8138 110 109 0
h 85 -8139 0
h 8130 -8139 0
h 8131 -8139 0
h 8132 -8139 0
h 8133 -8139 0
h 8134 -8139 0
h 8135 -8139 0
h 8136 -8139 0
h 8137 -8139 0
h 8138 -8139 0
h -110 -8139 0
h -109 -8139 0
h 8140 -253 185 0
h 253 -8140 0
h -185 -8140 0
h 8141 -185 253 0
h 185 -8141 0
h -253 -8141 0
h 8142 -254 186 0
h 254 -8142 0
h -186 -8142 0
h 8143 -186 254 0
h 186 -8143 0
h -254 -8143 0
h 8144 -255 187 0
h 255 -8144 0
h -187 -8144 0
h 8145 -187 255 0
h 187 -8145 0
h -255 -8145 0
h 8146 -256 188 0
h 256 -8146 0
h -188 -8146 0
h 8147 -188 256 0
h 188 -8147 0
h -256 -8147 0
h -8148 -75 117 0
h 75 8148 0
h -117 8148 0
h -8149 -74 116 0
h 74 8149 0
h -116 8149 0
h -8150 -73 115 0
h 73 8150 0
h -115 8150 0
h -8151 -72 114 0
h 72 8151 0
h -114 8151 0
h -8152 -71 113 0
h 71 8152 0
h -113 8152 0
h -8153 -70 112 0
h 70 8153 0
h -112 8153 0
h -8154 -69 111 0
h 69 8154 0
h -111 8154 0
h -8155 -68 110 0
h 68 8155 0
h -110 8155 0
h -8156 -67 109 0
h 67 8156 0
h -109 8156 0
h 8157 -118 -8148 -8149 -8150 -8151 -8152 -8153 -8154 -8155 -8156 66 65 0
h 118 -8157 0
h 8148 -8157 0
h 8149 -8157 0
h 8150 -8157 0
h 8151 -8157 0
h 8152 -8157 0
h 8153 -8157 0
h 8154 -8157 0
h 8155 -8157 0
h 8156 -8157 0
h -66 -8157 0
h -65 -8157 0
h -8158 -119 73 0
h 119 8158 0
h -73 8158 0
h -8159 -118 72 0
h 118 8159 0
h -72 8159 0
h -8160 -117 71 0
h 117 8160 0
h -71 8160 0
h -8161 -116 70 0
h 116 8161 0
h -70 8161 0
h -8162 -115 69 0
h 115 8162 0
h -69 8162 0
h -8163 -114 68 0
h 114 8163 0
h -68 8163 0
h -8164 -113 67 0
h 113 8164 0
h -67 8164 0
h -8165 -112 66 0
h 112 8165 0
h -66 8165 0
h -8166 -111 65 0
h 111 8166 0
h -65 8166 0
h 8167 -74 -8158 -8159 -8160 -8161 -8162 -8163 -8164 -8165 -8166 110 109 0
h 74 -8167 0
h 8158 -8167 0
h 8159 -8167 0
h 8160 -8167 0
h 8161 -8167 0
h 8162 -8167 0
h 8163 -8167 0
h 8164 -8167 0
h 8165 -8167 0
h 8166 -8167 0
h -110 -8167 0
h -109 -8167 0
h 8168 -253 177 0
h 253 -8168 0
h -177 -8168 0
h 8169 -177 253 0
h 177 -8169 0
h -253 -8169 0
h 8170 -254 178 0
h 254 -8170 0
h -178 -8170 0
h 8171 -178 254 0
h 178 -8171 0
h -254 -8171 0
h 8172 -255 179 0
h 255 -8172 0
h -179 -8172 0
h 8173 -179 255 0
h 179 -8173 0
h -255 -8173 0
h 8174 -256 180 0
h 256 -8174 0
h -180 -8174 0
h 8175 -180 256 0
h 180 -8175 0
h -256 -8175 0
h -8176 -203 139 0
h 203 8176 0
h -139 8176 0
h -8177 -202 138 0
h 202 8177 0
h -138 8177 0
h -8178 -201 137 0
h 201 8178 0
h -137 8178 0
h -8179 -200 136 0
h 200 8179 0
h -136 8179 0
h -8180 -199 135 0
h 199 8180 0
h -135 8180 0
h -8181 -198 134 0
h 198 8181 0
h -134 8181 0
h -8182 -197 133 0
h 197 8182 0
h -133 8182 0
h -8183 -196 132 0
h 196 8183 0
h -132 8183 0
h -8184 -195 131 0
h 195 8184 0
h -131 8184 0
h 8185 -140 -8176 -8177 -8178 -8179 -8180 -8181 -8182 -8183 -8184 194 193 0
h 140 -8185 0
h 8176 -8185 0
h 8177 -8185 0
h 8178 -8185 0
h 8179 -8185 0
h 8180 -8185 0
h 8181 -8185 0
h 8182 -8185 0
h 8183 -8185 0
h 8184 -8185 0
h -194 -8185 0
h -193 -8185 0
h -8186 -141 200 0
h 141 8186 0
h -200 8186 0
h -8187 -140 199 0
h 140 8187 0
h -199 8187 0
h -8188 -139 198 0
h 139 8188 0
h -198 8188 0
h -8189 -138 197 0
h 138 8189 0
h -197 8189 0
h -8190 -137 196 0
h 137 8190 0
h -196 8190 0
h -8191 -136 195 0
h 136 8191 0
h -195 8191 0
h -8192 -135 194 0
h 135 8192 0
h -194 8192 0
h -8193 -134 193 0
h 134 8193 0
h -193 8193 0
h 8194 -201 -8186 -8187 -8188 -8189 -8190 -8191 -8192 -8193 133 132 131 0
h 201 -8194 0
h 8186 -8194 0
h 8187 -8194 0
h 8188 -8194 0
h 8189 -8194 0
h 8190 -8194 0
h 8191 -8194 0
h 8192 -8194 0
h 8193 -8194 0
h -133 -8194 0
h -132 -8194 0
h -131 -8194 0
h 8195 -223 342 0
h 223 -8195 0
h -342 -8195 0
h 8196 -342 223 0
h 342 -8196 0
h -223 -8196 0
h 8197 -224 343 0
h 224 -8197 0
h -343 -8197 0
h 8198 -343 224 0
h 343 -8198 0
h -224 -8198 0
h 8199 -225 344 0
h 225 -8199 0
h -344 -8199 0
h 8200 -344 225 0
h 344 -8200 0
h -225 -8200 0
h 8201 -226 345 0
h 226 -8201 0
h -345 -8201 0
h 8202 -345 226 0
h 345 -8202 0
h -226 -8202 0
h -8203 -218 139 0
h 218 8203 0
h -139 8203 0
h -8204 -217 138 0
h 217 8204 0
h -138 8204 0
h -8205 -216 137 0
h 216 8205 0
h -137 8205 0
h -8206 -215 136 0
h 215 8206 0
h -136 8206 0
h -8207 -214 135 0
h 214 8207 0
h -135 8207 0
h -8208 -213 134 0
h 213 8208 0
h -134 8208 0
h -8209 -212 133 0
h 212 8209 0
h -133 8209 0
h -8210 -211 132 0
h 211 8210 0
h -132 8210 0
h -8211 -210 131 0
h 210 8211 0
h -131 8211 0
h 8212 -140 -8203 -8204 -8205 -8206 -8207 -8208 -8209 -8210 -8211 209 208 0
h 140 -8212 0
h 8203 -8212 0
h 8204 -8212 0
h 8205 -8212 0
h 8206 -8212 0
h 8207 -8212 0
h 8208 -8212 0
h 8209 -8212 0
h 8210 -8212 0
h 8211 -8212 0
h -209 -8212 0
h -208 -8212 0
h -8213 -141 215 0
h 141 8213 0
h -215 8213 0
h -8214 -140 214 0
h 140 8214 0
h -214 8214 0
h -8215 -139 213 0
h 139 8215 0
h -213 8215 0
h -8216 -138 212 0
h 138 8216 0
h -212 8216 0
h -8217 -137 211 0
h 137 8217 0
h -211 8217 0
h -8218 -136 210 0
h 136 8218 0
h -210 8218 0
h -8219 -135 209 0
h 135 8219 0
h -209 8219 0
h -8220 -134 208 0
h 134 8220 0
h -208 8220 0
h 8221 -216 -8213 -8214 -8215 -8216 -8217 -8218 -8219 -8220 133 132 131 0
h 216 -8221 0
h 8213 -8221 0
h 8214 -8221 0
h 8215 -8221 0
h 8216 -8221 0
h 8217 -8221 0
h 8218 -8221 0
h 8219 -8221 0
h 8220 -8221 0
h -133 -8221 0
h -132 -8221 0
h -131 -8221 0
h 8222 -223 327 0
h 223 -8222 0
h -327 -8222 0
h 8223 -327 223 0
h 327 -8223 0
h -223 -8223 0
h 8224 -224 328 0
h 224 -8224 0
h -328 -8224 0
h 8225 -328 224 0
h 328 -8225 0
h -224 -8225 0
h 8226 -225 329 0
h 225 -8226 0
h -329 -8226 0
h 8227 -329 225 0
h 329 -8227 0
h -225 -8227 0
h 8228 -226 330 0
h 226 -8228 0
h -330 -8228 0
h 8229 -330 226 0
h 330 -8229 0
h -226 -8229 0
h -8230 -86 139 0
h 86 8230 0
h -139 8230 0
h -8231 -85 138 0
h 85 8231 0
h -138 8231 0
h -8232 -84 137 0
h 84 8232 0
h -137 8232 0
h -8233 -83 136 0
h 83 8233 0
h -136 8233 0
h -8234 -82 135 0
h 82 8234 0
h -135 8234 0
h -8235 -81 134 0
h 81 8235 0
h -134 8235 0
h -8236 -80 133 0
h 80 8236 0
h -133 8236 0
h -8237 -79 132 0
h 79 8237 0
h -132 8237 0
h -8238 -78 131 0
h 78 8238 0
h -131 8238 0
h 8239 -140 -8230 -8231 -8232 -8233 -8234 -8235 -8236 -8237 -8238 77 76 0
h 140 -8239 0
h 8230 -8239 0
h 8231 -8239 0
h 8232 -8239 0
h 8233 -8239 0
h 8234 -8239 0
h 8235 -8239 0
h 8236 -8239 0
h 8237 -8239 0
h 8238 -8239 0
h -77 -8239 0
h -76 -8239 0
h -8240 -141 84 0
h 141 8240 0
h -84 8240 0
h -8241 -140 83 0
h 140 8241 0
h -83 8241 0
h -8242 -139 82 0
h 139 8242 0
h -82 8242 0
h -8243 -138 81 0
h 138 8243 0
h -81 8243 0
h -8244 -137 80 0
h 137 8244 0
h -80 8244 0
h -8245 -136 79 0
h 136 8245 0
h -79 8245 0
h -8246 -135 78 0
h 135 8246 0
h -78 8246 0
h -8247 -134 77 0
h 134 8247 0
h -77 8247 0
h -8248 -133 76 0
h 133 8248 0
h -76 8248 0
h 8249 -85 -8240 -8241 -8242 -8243 -8244 -8245 -8246 -8247 -8248 132 131 0
h 85 -8249 0
h 8240 -8249 0
h 8241 -8249 0
h 8242 -8249 0
h 8243 -8249 0
h 8244 -8249 0
h 8245 -8249 0
h 8246 -8249 0
h 8247 -8249 0
h 8248 -8249 0
h -132 -8249 0
h -131 -8249 0
h 8250 -223 185 0
h 223 -8250 0
h -185 -8250 0
h 8251 -185 223 0
h 185 -8251 0
h -223 -8251 0
h 8252 -224 186 0
h 224 -8252 0
h -186 -8252 0
h 8253 -186 224 0
h 186 -8253 0
h -224 -8253 0
h 8254 -225 187 0
h 225 -8254 0
h -187 -8254 0
h 8255 -187 225 0
h 187 -8255 0
h -225 -8255 0
h 8256 -226 188 0
h 226 -8256 0
h -188 -8256 0
h 8257 -188 226 0
h 188 -8257 0
h -226 -8257 0
h -8258 -75 139 0
h 75 8258 0
h -139 8258 0
h -8259 -74 138 0
h 74 8259 0
h -138 8259 0
h -8260 -73 137 0
h 73 8260 0
h -137 8260 0
h -8261 -72 136 0
h 72 8261 0
h -136 8261 0
h -8262 -71 135 0
h 71 8262 0
h -135 8262 0
h -8263 -70 134 0
h 70 8263 0
h -134 8263 0
h -8264 -69 133 0
h 69 8264 0
h -133 8264 0
h -8265 -68 132 0
h 68 8265 0
h -132 8265 0
h -8266 -67 131 0
h 67 8266 0
h -131 8266 0
h 8267 -140 -8258 -8259 -8260 -8261 -8262 -8263 -8264 -8265 -8266 66 65 0
h 140 -8267 0
h 8258 -8267 0
h 8259 -8267 0
h 8260 -8267 0
h 8261 -8267 0
h 8262 -8267 0
h 8263 -8267 0
h 8264 -8267 0
h 8265 -8267 0
h 8266 -8267 0
h -66 -8267 0
h -65 -8267 0
h -8268 -141 73 0
h 141 8268 0
h -73 8268 0
h -8269 -140 72 0
h 140 8269 0
h -72 8269 0
h -8270 -139 71 0
h 139 8270 0
h -71 8270 0
h -8271 -138 70 0
h 138 8271 0
h -70 8271 0
h -8272 -137 69 0
h 137 8272 0
h -69 8272 0
h -8273 -136 68 0
h 136 8273 0
h -68 8273 0
h -8274 -135 67 0
h 135 8274 0
h -67 8274 0
h -8275 -134 66 0
h 134 8275 0
h -66 8275 0
h -8276 -133 65 0
h 133 8276 0
h -65 8276 0
h 8277 -74 -8268 -8269 -8270 -8271 -8272 -8273 -8274 -8275 -8276 132 131 0
h 74 -8277 0
h 8268 -8277 0
h 8269 -8277 0
h 8270 -8277 0
h 8271 -8277 0
h 8272 -8277 0
h 8273 -8277 0
h 8274 -8277 0
h 8275 -8277 0
h 8276 -8277 0
h -132 -8277 0
h -131 -8277 0
h 8278 -223 177 0
h 223 -8278 0
h -177 -8278 0
h 8279 -177 223 0
h 177 -8279 0
h -223 -8279 0
h 8280 -224 178 0
h 224 -8280 0
h -178 -8280 0
h 8281 -178 224 0
h 178 -8281 0
h -224 -8281 0
h 8282 -225 179 0
h 225 -8282 0
h -179 -8282 0
h 8283 -179 225 0
h 179 -8283 0
h -225 -8283 0
h 8284 -226 180 0
h 226 -8284 0
h -180 -8284 0
h 8285 -180 226 0
h 180 -8285 0
h -226 -8285 0
h -8286 -203 277 0
h 203 8286 0
h -277 8286 0
h -8287 -202 276 0
h 202 8287 0
h -276 8287 0
h -8288 -201 275 0
h 201 8288 0
h -275 8288 0
h -8289 -200 274 0
h 200 8289 0
h -274 8289 0
h -8290 -199 273 0
h 199 8290 0
h -273 8290 0
h -8291 -198 272 0
h 198 8291 0
h -272 8291 0
h -8292 -197 271 0
h 197 8292 0
h -271 8292 0
h -8293 -196 270 0
h 196 8293 0
h -270 8293 0
h -8294 -195 269 0
h 195 8294 0
h -269 8294 0
h -8295 -194 268 0
h 194 8295 0
h -268 8295 0
h 8296 -278 -8286 -8287 -8288 -8289 -8290 -8291 -8292 -8293 -8294 -8295 193 0
h 278 -8296 0
h 8286 -8296 0
h 8287 -8296 0
h 8288 -8296 0
h 8289 -8296 0
h 8290 -8296 0
h 8291 -8296 0
h 8292 -8296 0
h 8293 -8296 0
h 8294 -8296 0
h 8295 -8296 0
h -193 -8296 0
h -8297 -278 200 0
h 278 8297 0
h -200 8297 0
h -8298 -277 199 0
h 277 8298 0
h -199 8298 0
h -8299 -276 198 0
h 276 8299 0
h -198 8299 0
h -8300 -275 197 0
h 275 8300 0
h -197 8300 0
h -8301 -274 196 0
h 274 8301 0
h -196 8301 0
h -8302 -273 195 0
h 273 8302 0
h -195 8302 0
h -8303 -272 194 0
h 272 8303 0
h -194 8303 0
h -8304 -271 193 0
h 271 8304 0
h -193 8304 0
h 8305 -201 -8297 -8298 -8299 -8300 -8301 -8302 -8303 -8304 270 269 268 0
h 201 -8305 0
h 8297 -8305 0
h 8298 -8305 0
h 8299 -8305 0
h 8300 -8305 0
h 8301 -8305 0
h 8302 -8305 0
h 8303 -8305 0
h 8304 -8305 0
h -270 -8305 0
h -269 -8305 0
h -268 -8305 0
h 8306 -42 342 0
h 42 -8306 0
h -342 -8306 0
h 8307 -342 42 0
h 342 -8307 0
h -42 -8307 0
h 8308 -43 343 0
h 43 -8308 0
h -343 -8308 0
h 8309 -343 43 0
h 343 -8309 0
h -43 -8309 0
h 8310 -44 344 0
h 44 -8310 0
h -344 -8310 0
h 8311 -344 44 0
h 344 -8311 0
h -44 -8311 0
h 8312 -45 345 0
h 45 -8312 0
h -345 -8312 0
h 8313 -345 45 0
h 345 -8313 0
h -45 -8313 0
h -8314 -218 277 0
h 218 8314 0
h -277 8314 0
h -8315 -217 276 0
h 217 8315 0
h -276 8315 0
h -8316 -216 275 0
h 216 8316 0
h -275 8316 0
h -8317 -215 274 0
h 215 8317 0
h -274 8317 0
h -8318 -214 273 0
h 214 8318 0
h -273 8318 0
h -8319 -213 272 0
h 213 8319 0
h -272 8319 0
h -8320 -212 271 0
h 212 8320 0
h -271 8320 0
h -8321 -211 270 0
h 211 8321 0
h -270 8321 0
h -8322 -210 269 0
h 210 8322 0
h -269 8322 0
h -8323 -209 268 0
h 209 8323 0
h -268 8323 0
h 8324 -278 -8314 -8315 -8316 -8317 -8318 -8319 -8320 -8321 -8322 -8323 208 0
h 278 -8324 0
h 8314 -8324 0
h 8315 -8324 0
h 8316 -8324 0
h 8317 -8324 0
h 8318 -8324 0
h 8319 -8324 0
h 8320 -8324 0
h 8321 -8324 0
h 8322 -8324 0
h 8323 -8324 0
h -208 -8324 0
h -8325 -278 215 0
h 278 8325 0
h -215 8325 0
h -8326 -277 214 0
h 277 8326 0
h -214 8326 0
h -8327 -276 213 0
h 276 8327 0
h -213 8327 0
h -8328 -275 212 0
h 275 8328 0
h -212 8328 0
h -8329 -274 211 0
h 274 8329 0
h -211 8329 0
h -8330 -273 210 0
h 273 8330 0
h -210 8330 0
h -8331 -272 209 0
h 272 8331 0
h -209 8331 0
h -8332 -271 208 0
h 271 8332 0
h -208 8332 0
h 8333 -216 -8325 -8326 -8327 -8328 -8329 -8330 -8331 -8332 270 269 268 0
h 216 -8333 0
h 8325 -8333 0
h 8326 -8333 0
h 8327 -8333 0
h 8328 -8333 0
h 8329 -8333 0
h 8330 -8333 0
h 8331 -8333 0
h 8332 -8333 0
h -270 -8333 0
h -269 -8333 0
h -268 -8333 0
h 8334 -42 327 0
h 42 -8334 0
h -327 -8334 0
h 8335 -327 42 0
h 327 -8335 0
h -42 -8335 0
h 8336 -43 328 0
h 43 -8336 0
h -328 -8336 0
h 8337 -328 43 0
h 328 -8337 0
h -43 -8337 0
h 8338 -44 329 0
h 44 -8338 0
h -329 -8338 0
h 8339 -329 44 0
h 329 -8339 0
h -44 -8339 0
h 8340 -45 330 0
h 45 -8340 0
h -330 -8340 0
h 8341 -330 45 0
h 330 -8341 0
h -45 -8341 0
h -8342 -203 299 0
h 203 8342 0
h -299 8342 0
h -8343 -202 298 0
h 202 8343 0
h -298 8343 0
h -8344 -201 297 0
h 201 8344 0
h -297 8344 0
h -8345 -200 296 0
h 200 8345 0
h -296 8345 0
h -8346 -199 295 0
h 199 8346 0
h -295 8346 0
h -8347 -198 294 0
h 198 8347 0
h -294 8347 0
h -8348 -197 293 0
h 197 8348 0
h -293 8348 0
h -8349 -196 292 0
h 196 8349 0
h -292 8349 0
h -8350 -195 291 0
h 195 8350 0
h -291 8350 0
h -8351 -194 290 0
h 194 8351 0
h -290 8351 0
h 8352 -300 -8342 -8343 -8344 -8345 -8346 -8347 -8348 -8349 -8350 -8351 193 0
h 300 -8352 0
h 8342 -8352 0
h 8343 -8352 0
h 8344 -8352 0
h 8345 -8352 0
h 8346 -8352 0
h 8347 -8352 0
h 8348 -8352 0
h 8349 -8352 0
h 8350 -8352 0
h 8351 -8352 0
h -193 -8352 0
h -8353 -300 200 0
h 300 8353 0
h -200 8353 0
h -8354 -299 199 0
h 299 8354 0
h -199 8354 0
h -8355 -298 198 0
h 298 8355 0
h -198 8355 0
h -8356 -297 197 0
h 297 8356 0
h -197 8356 0
h -8357 -296 196 0
h 296 8357 0
h -196 8357 0
h -8358 -295 195 0
h 295 8358 0
h -195 8358 0
h -8359 -294 194 0
h 294 8359 0
h -194 8359 0
h -8360 -293 193 0
h 293 8360 0
h -193 8360 0
h 8361 -201 -8353 -8354 -8355 -8356 -8357 -8358 -8359 -8360 292 291 290 0
h 201 -8361 0
h 8353 -8361 0
h 8354 -8361 0
h 8355 -8361 0
h 8356 -8361 0
h 8357 -8361 0
h 8358 -8361 0
h 8359 -8361 0
h 8360 -8361 0
h -292 -8361 0
h -291 -8361 0
h -290 -8361 0
h 8362 -61 342 0
h 61 -8362 0
h -342 -8362 0
h 8363 -342 61 0
h 342 -8363 0
h -61 -8363 0
h 8364 -62 343 0
h 62 -8364 0
h -343 -8364 0
h 8365 -343 62 0
h 343 -8365 0
h -62 -8365 0
h 8366 -63 344 0
h 63 -8366 0
h -344 -8366 0
h 8367 -344 63 0
h 344 -8367 0
h -63 -8367 0
h 8368 -64 345 0
h 64 -8368 0
h -345 -8368 0
h 8369 -345 64 0
h 345 -8369 0
h -64 -8369 0
h -8370 -218 299 0
h 218 8370 0
h -299 8370 0
h -8371 -217 298 0
h 217 8371 0
h -298 8371 0
h -8372 -216 297 0
h 216 8372 0
h -297 8372 0
h -8373 -215 296 0
h 215 8373 0
h -296 8373 0
h -8374 -214 295 0
h 214 8374 0
h -295 8374 0
h -8375 -213 294 0
h 213 8375 0
h -294 8375 0
h -8376 -212 293 0
h 212 8376 0
h -293 8376 0
h -8377 -211 292 0
h 211 8377 0
h -292 8377 0
h -8378 -210 291 0
h 210 8378 0
h -291 8378 0
h -8379 -209 290 0
h 209 8379 0
h -290 8379 0
h 8380 -300 -8370 -8371 -8372 -8373 -8374 -8375 -8376 -8377 -8378 -8379 208 0
h 300 -8380 0
h 8370 -8380 0
h 8371 -8380 0
h 8372 -8380 0
h 8373 -8380 0
h 8374 -8380 0
h 8375 -8380 0
h 8376 -8380 0
h 8377 -8380 0
h 8378 -8380 0
h 8379 -8380 0
h -208 -8380 0
h -8381 -300 215 0
h 300 8381 0
h -215 8381 0
h -8382 -299 214 0
h 299 8382 0
h -214 8382 0
h -8383 -298 213 0
h 298 8383 0
h -213 8383 0
h -8384 -297 212 0
h 297 8384 0
h -212 8384 0
h -8385 -296 211 0
h 296 8385 0
h -211 8385 0
h -8386 -295 210 0
h 295 8386 0
h -210 8386 0
h -8387 -294 209 0
h 294 8387 0
h -209 8387 0
h -8388 -293 208 0
h 293 8388 0
h -208 8388 0
h 8389 -216 -8381 -8382 -8383 -8384 -8385 -8386 -8387 -8388 292 291 290 0
h 216 -8389 0
h 8381 -8389 0
h 8382 -8389 0
h 8383 -8389 0
h 8384 -8389 0
h 8385 -8389 0
h 8386 -8389 0
h 8387 -8389 0
h 8388 -8389 0
h -292 -8389 0
h -291 -8389 0
h -290 -8389 0
h 8390 -61 327 0
h 61 -8390 0
h -327 -8390 0
h 8391 -327 61 0
h 327 -8391 0
h -61 -8391 0
h 8392 -62 328 0
h 62 -8392 0
h -328 -8392 0
h 8393 -328 62 0
h 328 -8393 0
h -62 -8393 0
h 8394 -63 329 0
h 63 -8394 0
h -329 -8394 0
h 8395 -329 63 0
h 329 -8395 0
h -63 -8395 0
h 8396 -64 330 0
h 64 -8396 0
h -330 -8396 0
h 8397 -330 64 0
h 330 -8397 0
h -64 -8397 0
h -8398 -203 288 0
h 203 8398 0
h -288 8398 0
h -8399 -202 287 0
h 202 8399 0
h -287 8399 0
h -8400 -201 286 0
h 201 8400 0
h -286 8400 0
h -8401 -200 285 0
h 200 8401 0
h -285 8401 0
h -8402 -199 284 0
h 199 8402 0
h -284 8402 0
h -8403 -198 283 0
h 198 8403 0
h -283 8403 0
h -8404 -197 282 0
h 197 8404 0
h -282 8404 0
h -8405 -196 281 0
h 196 8405 0
h -281 8405 0
h -8406 -195 280 0
h 195 8406 0
h -280 8406 0
h -8407 -194 279 0
h 194 8407 0
h -279 8407 0
h 8408 -289 -8398 -8399 -8400 -8401 -8402 -8403 -8404 -8405 -8406 -8407 193 0
h 289 -8408 0
h 8398 -8408 0
h 8399 -8408 0
h 8400 -8408 0
h 8401 -8408 0
h 8402 -8408 0
h 8403 -8408 0
h 8404 -8408 0
h 8405 -8408 0
h 8406 -8408 0
h 8407 -8408 0
h -193 -8408 0
h -8409 -289 200 0
h 289 8409 0
h -200 8409 0
h -8410 -288 199 0
h 288 8410 0
h -199 8410 0
h -8411 -287 198 0
h 287 8411 0
h -198 8411 0
h -8412 -286 197 0
h 286 8412 0
h -197 8412 0
h -8413 -285 196 0
h 285 8413 0
h -196 8413 0
h -8414 -284 195 0
h 284 8414 0
h -195 8414 0
h -8415 -283 194 0
h 283 8415 0
h -194 8415 0
h -8416 -282 193 0
h 282 8416 0
h -193 8416 0
h 8417 -201 -8409 -8410 -8411 -8412 -8413 -8414 -8415 -8416 281 280 279 0
h 201 -8417 0
h 8409 -8417 0
h 8410 -8417 0
h 8411 -8417 0
h 8412 -8417 0
h 8413 -8417 0
h 8414 -8417 0
h 8415 -8417 0
h 8416 -8417 0
h -281 -8417 0
h -280 -8417 0
h -279 -8417 0
h 8418 -57 342 0
h 57 -8418 0
h -342 -8418 0
h 8419 -342 57 0
h 342 -8419 0
h -57 -8419 0
h 8420 -58 343 0
h 58 -8420 0
h -343 -8420 0
h 8421 -343 58 0
h 343 -8421 0
h -58 -8421 0
h 8422 -59 344 0
h 59 -8422 0
h -344 -8422 0
h 8423 -344 59 0
h 344 -8423 0
h -59 -8423 0
h 8424 -60 345 0
h 60 -8424 0
h -345 -8424 0
h 8425 -345 60 0
h 345 -8425 0
h -60 -8425 0
h -8426 -218 288 0
h 218 8426 0
h -288 8426 0
h -8427 -217 287 0
h 217 8427 0
h -287 8427 0
h -8428 -216 286 0
h 216 8428 0
h -286 8428 0
h -8429 -215 285 0
h 215 8429 0
h -285 8429 0
h -8430 -214 284 0
h 214 8430 0
h -284 8430 0
h -8431 -213 283 0
h 213 8431 0
h -283 8431 0
h -8432 -212 282 0
h 212 8432 0
h -282 8432 0
h -8433 -211 281 0
h 211 8433 0
h -281 8433 0
h -8434 -210 280 0
h 210 8434 0
h -280 8434 0
h -8435 -209 279 0
h 209 8435 0
h -279 8435 0
h 8436 -289 -8426 -8427 -8428 -8429 -8430 -8431 -8432 -8433 -8434 -8435 208 0
h 289 -8436 0
h 8426 -8436 0
h 8427 -8436 0
h 8428 -8436 0
h 8429 -8436 0
h 8430 -8436 0
h 8431 -8436 0
h 8432 -8436 0
h 8433 -8436 0
h 8434 -8436 0
h 8435 -8436 0
h -208 -8436 0
h -8437 -289 215 0
h 289 8437 0
h -215 8437 0
h -8438 -288 214 0
h 288 8438 0
h -214 8438 0
h -8439 -287 213 0
h 287 8439 0
h -213 8439 0
h -8440 -286 212 0
h 286 8440 0
h -212 8440 0
h -8441 -285 211 0
h 285 8441 0
h -211 8441 0
h -8442 -284 210 0
h 284 8442 0
h -210 8442 0
h -8443 -283 209 0
h 283 8443 0
h -209 8443 0
h -8444 -282 208 0
h 282 8444 0
h -208 8444 0
h 8445 -216 -8437 -8438 -8439 -8440 -8441 -8442 -8443 -8444 281 280 279 0
h 216 -8445 0
h 8437 -8445 0
h 8438 -8445 0
h 8439 -8445 0
h 8440 -8445 0
h 8441 -8445 0
h 8442 -8445 0
h 8443 -8445 0
h 8444 -8445 0
h -281 -8445 0
h -280 -8445 0
h -279 -8445 0
h 8446 -57 327 0
h 57 -8446 0
h -327 -8446 0
h 8447 -327 57 0
h 327 -8447 0
h -57 -8447 0
h 8448 -58 328 0
h 58 -8448 0
h -328 -8448 0
h 8449 -328 58 0
h 328 -8449 0
h -58 -8449 0
h 8450 -59 329 0
h 59 -8450 0
h -329 -8450 0
h 8451 -329 59 0
h 329 -8451 0
h -59 -8451 0
h 8452 -60 330 0
h 60 -8452 0
h -330 -8452 0
h 8453 -330 60 0
h 330 -8453 0
h -60 -8453 0
h -8454 -86 277 0
h 86 8454 0
h -277 8454 0
h -8455 -85 276 0
h 85 8455 0
h -276 8455 0
h -8456 -84 275 0
h 84 8456 0
h -275 8456 0
h -8457 -83 274 0
h 83 8457 0
h -274 8457 0
h -8458 -82 273 0
h 82 8458 0
h -273 8458 0
h -8459 -81 272 0
h 81 8459 0
h -272 8459 0
h -8460 -80 271 0
h 80 8460 0
h -271 8460 0
h -8461 -79 270 0
h 79 8461 0
h -270 8461 0
h -8462 -78 269 0
h 78 8462 0
h -269 8462 0
h -8463 -77 268 0
h 77 8463 0
h -268 8463 0
h 8464 -278 -8454 -8455 -8456 -8457 -8458 -8459 -8460 -8461 -8462 -8463 76 0
h 278 -8464 0
h 8454 -8464 0
h 8455 -8464 0
h 8456 -8464 0
h 8457 -8464 0
h 8458 -8464 0
h 8459 -8464 0
h 8460 -8464 0
h 8461 -8464 0
h 8462 -8464 0
h 8463 -8464 0
h -76 -8464 0
h -8465 -278 84 0
h 278 8465 0
h -84 8465 0
h -8466 -277 83 0
h 277 8466 0
h -83 8466 0
h -8467 -276 82 0
h 276 8467 0
h -82 8467 0
h -8468 -275 81 0
h 275 8468 0
h -81 8468 0
h -8469 -274 80 0
h 274 8469 0
h -80 8469 0
h -8470 -273 79 0
h 273 8470 0
h -79 8470 0
h -8471 -272 78 0
h 272 8471 0
h -78 8471 0
h -8472 -271 77 0
h 271 8472 0
h -77 8472 0
h -8473 -270 76 0
h 270 8473 0
h -76 8473 0
h 8474 -85 -8465 -8466 -8467 -8468 -8469 -8470 -8471 -8472 -8473 269 268 0
h 85 -8474 0
h 8465 -8474 0
h 8466 -8474 0
h 8467 -8474 0
h 8468 -8474 0
h 8469 -8474 0
h 8470 -8474 0
h 8471 -8474 0
h 8472 -8474 0
h 8473 -8474 0
h -269 -8474 0
h -268 -8474 0
h 8475 -42 185 0
h 42 -8475 0
h -185 -8475 0
h 8476 -185 42 0
h 185 -8476 0
h -42 -8476 0
h 8477 -43 186 0
h 43 -8477 0
h -186 -8477 0
h 8478 -186 43 0
h 186 -8478 0
h -43 -8478 0
h 8479 -44 187 0
h 44 -8479 0
h -187 -8479 0
h 8480 -187 44 0
h 187 -8480 0
h -44 -8480 0
h 8481 -45 188 0
h 45 -8481 0
h -188 -8481 0
h 8482 -188 45 0
h 188 -8482 0
h -45 -8482 0
h -8483 -75 277 0
h 75 8483 0
h -277 8483 0
h -8484 -74 276 0
h 74 8484 0
h -276 8484 0
h -8485 -73 275 0
h 73 8485 0
h -275 8485 0
h -8486 -72 274 0
h 72 8486 0
h -274 8486 0
h -8487 -71 273 0
h 71 8487 0
h -273 8487 0
h -8488 -70 272 0
h 70 8488 0
h -272 8488 0
h -8489 -69 271 0
h 69 8489 0
h -271 8489 0
h -8490 -68 270 0
h 68 8490 0
h -270 8490 0
h -8491 -67 269 0
h 67 8491 0
h -269 8491 0
h -8492 -66 268 0
h 66 8492 0
h -268 8492 0
h 8493 -278 -8483 -8484 -8485 -8486 -8487 -8488 -8489 -8490 -8491 -8492 65 0
h 278 -8493 0
h 8483 -8493 0
h 8484 -8493 0
h 8485 -8493 0
h 8486 -8493 0
h 8487 -8493 0
h 8488 -8493 0
h 8489 -8493 0
h 8490 -8493 0
h 8491 -8493 0
h 8492 -8493 0
h -65 -8493 0
h -8494 -278 73 0
h 278 8494 0
h -73 8494 0
h -8495 -277 72 0
h 277 8495 0
h -72 8495 0
h -8496 -276 71 0
h 276 8496 0
h -71 8496 0
h -8497 -275 70 0
h 275 8497 0
h -70 8497 0
h -8498 -274 69 0
h 274 8498 0
h -69 8498 0
h -8499 -273 68 0
h 273 8499 0
h -68 8499 0
h -8500 -272 67 0
h 272 8500 0
h -67 8500 0
h -8501 -271 66 0
h 271 8501 0
h -66 8501 0
h -8502 -270 65 0
h 270 8502 0
h -65 8502 0
h 8503 -74 -8494 -8495 -8496 -8497 -8498 -8499 -8500 -8501 -8502 269 268 0
h 74 -8503 0
h 8494 -8503 0
h 8495 -8503 0
h 8496 -8503 0
h 8497 -8503 0
h 8498 -8503 0
h 8499 -8503 0
h 8500 -8503 0
h 8501 -8503 0
h 8502 -8503 0
h -269 -8503 0
h -268 -8503 0
h 8504 -42 177 0
h 42 -8504 0
h -177 -8504 0
h 8505 -177 42 0
h 177 -8505 0
h -42 -8505 0
h 8506 -43 178 0
h 43 -8506 0
h -178 -8506 0
h 8507 -178 43 0
h 178 -8507 0
h -43 -8507 0
h 8508 -44 179 0
h 44 -8508 0
h -179 -8508 0
h 8509 -179 44 0
h 179 -8509 0
h -44 -8509 0
h 8510 -45 180 0
h 45 -8510 0
h -180 -8510 0
h 8511 -180 45 0
h 180 -8511 0
h -45 -8511 0
h -8512 -86 299 0
h 86 8512 0
h -299 8512 0
h -8513 -85 298 0
h 85 8513 0
h -298 8513 0
h -8514 -84 297 0
h 84 8514 0
h -297 8514 0
h -8515 -83 296 0
h 83 8515 0
h -296 8515 0
h -8516 -82 295 0
h 82 8516 0
h -295 8516 0
h -8517 -81 294 0
h 81 8517 0
h -294 8517 0
h -8518 -80 293 0
h 80 8518 0
h -293 8518 0
h -8519 -79 292 0
h 79 8519 0
h -292 8519 0
h -8520 -78 291 0
h 78 8520 0
h -291 8520 0
h -8521 -77 290 0
h 77 8521 0
h -290 8521 0
h 8522 -300 -8512 -8513 -8514 -8515 -8516 -8517 -8518 -8519 -8520 -8521 76 0
h 300 -8522 0
h 8512 -8522 0
h 8513 -8522 0
h 8514 -8522 0
h 8515 -8522 0
h 8516 -8522 0
h 8517 -8522 0
h 8518 -8522 0
h 8519 -8522 0
h 8520 -8522 0
h 8521 -8522 0
h -76 -8522 0
h -8523 -300 84 0
h 300 8523 0
h -84 8523 0
h -8524 -299 83 0
h 299 8524 0
h -83 8524 0
h -8525 -298 82 0
h 298 8525 0
h -82 8525 0
h -8526 -297 81 0
h 297 8526 0
h -81 8526 0
h -8527 -296 80 0
h 296 8527 0
h -80 8527 0
h -8528 -295 79 0
h 295 8528 0
h -79 8528 0
h -8529 -294 78 0
h 294 8529 0
h -78 8529 0
h -8530 -293 77 0
h 293 8530 0
h -77 8530 0
h -8531 -292 76 0
h 292 8531 0
h -76 8531 0
h 8532 -85 -8523 -8524 -8525 -8526 -8527 -8528 -8529 -8530 -8531 291 290 0
h 85 -8532 0
h 8523 -8532 0
h 8524 -8532 0
h 8525 -8532 0
h 8526 -8532 0
h 8527 -8532 0
h 8528 -8532 0
h 8529 -8532 0
h 8530 -8532 0
h 8531 -8532 0
h -291 -8532 0
h -290 -8532 0
h 8533 -61 185 0
h 61 -8533 0
h -185 -8533 0
h 8534 -185 61 0
h 185 -8534 0
h -61 -8534 0
h 8535 -62 186 0
h 62 -8535 0
h -186 -8535 0
h 8536 -186 62 0
h 186 -8536 0
h -62 -8536 0
h 8537 -63 187 0
h 63 -8537 0
h -187 -8537 0
h 8538 -187 63 0
h 187 -8538 0
h -63 -8538 0
h 8539 -64 188 0
h 64 -8539 0
h -188 -8539 0
h 8540 -188 64 0
h 188 -8540 0
h -64 -8540 0
h -8541 -75 299 0
h 75 8541 0
h -299 8541 0
h -8542 -74 298 0
h 74 8542 0
h -298 8542 0
h -8543 -73 297 0
h 73 8543 0
h -297 8543 0
h -8544 -72 296 0
h 72 8544 0
h -296 8544 0
h -8545 -71 295 0
h 71 8545 0
h -295 8545 0
h -8546 -70 294 0
h 70 8546 0
h -294 8546 0
h -8547 -69 293 0
h 69 8547 0
h -293 8547 0
h -8548 -68 292 0
h 68 8548 0
h -292 8548 0
h -8549 -67 291 0
h 67 8549 0
h -291 8549 0
h -8550 -66 290 0
h 66 8550 0
h -290 8550 0
h 8551 -300 -8541 -8542 -8543 -8544 -8545 -8546 -8547 -8548 -8549 -8550 65 0
h 300 -8551 0
h 8541 -8551 0
h 8542 -8551 0
h 8543 -8551 0
h 8544 -8551 0
h 8545 -8551 0
h 8546 -8551 0
h 8547 -8551 0
h 8548 -8551 0
h 8549 -8551 0
h 8550 -8551 0
h -65 -8551 0
h -8552 -300 73 0
h 300 8552 0
h -73 8552 0
h -8553 -299 72 0
h 299 8553 0
h -72 8553 0
h -8554 -298 71 0
h 298 8554 0
h -71 8554 0
h -8555 -297 70 0
h 297 8555 0
h -70 8555 0
h -8556 -296 69 0
h 296 8556 0
h -69 8556 0
h -8557 -295 68 0
h 295 8557 0
h -68 8557 0
h -8558 -294 67 0
h 294 8558 0
h -67 8558 0
h -8559 -293 66 0
h 293 8559 0
h -66 8559 0
h -8560 -292 65 0
h 292 8560 0
h -65 8560 0
h 8561 -74 -8552 -8553 -8554 -8555 -8556 -8557 -8558 -8559 -8560 291 290 0
h 74 -8561 0
h 8552 -8561 0
h 8553 -8561 0
h 8554 -8561 0
h 8555 -8561 0
h 8556 -8561 0
h 8557 -8561 0
h 8558 -8561 0
h 8559 -8561 0
h 8560 -8561 0
h -291 -8561 0
h -290 -8561 0
h 8562 -61 177 0
h 61 -8562 0
h -177 -8562 0
h 8563 -177 61 0
h 177 -8563 0
h -61 -8563 0
h 8564 -62 178 0
h 62 -8564 0
h -178 -8564 0
h 8565 -178 62 0
h 178 -8565 0
h -62 -8565 0
h 8566 -63 179 0
h 63 -8566 0
h -179 -8566 0
h 8567 -179 63 0
h 179 -8567 0
h -63 -8567 0
h 8568 -64 180 0
h 64 -8568 0
h -180 -8568 0
h 8569 -180 64 0
h 180 -8569 0
h -64 -8569 0
h -8570 -86 288 0
h 86 8570 0
h -288 8570 0
h -8571 -85 287 0
h 85 8571 0
h -287 8571 0
h -8572 -84 286 0
h 84 8572 0
h -286 8572 0
h -8573 -83 285 0
h 83 8573 0
h -285 8573 0
h -8574 -82 284 0
h 82 8574 0
h -284 8574 0
h -8575 -81 283 0
h 81 8575 0
h -283 8575 0
h -8576 -80 282 0
h 80 8576 0
h -282 8576 0
h -8577 -79 281 0
h 79 8577 0
h -281 8577 0
h -8578 -78 280 0
h 78 8578 0
h -280 8578 0
h -8579 -77 279 0
h 77 8579 0
h -279 8579 0
h 8580 -289 -8570 -8571 -8572 -8573 -8574 -8575 -8576 -8577 -8578 -8579 76 0
h 289 -8580 0
h 8570 -8580 0
h 8571 -8580 0
h 8572 -8580 0
h 8573 -8580 0
h 8574 -8580 0
h 8575 -8580 0
h 8576 -8580 0
h 8577 -8580 0
h 8578 -8580 0
h 8579 -8580 0
h -76 -8580 0
h -8581 -289 84 0
h 289 8581 0
h -84 8581 0
h -8582 -288 83 0
h 288 8582 0
h -83 8582 0
h -8583 -287 82 0
h 287 8583 0
h -82 8583 0
h -8584 -286 81 0
h 286 8584 0
h -81 8584 0
h -8585 -285 80 0
h 285 8585 0
h -80 8585 0
h -8586 -284 79 0
h 284 8586 0
h -79 8586 0
h -8587 -283 78 0
h 283 8587 0
h -78 8587 0
h -8588 -282 77 0
h 282 8588 0
h -77 8588 0
h -8589 -281 76 0
h 281 8589 0
h -76 8589 0
h 8590 -85 -8581 -8582 -8583 -8584 -8585 -8586 -8587 -8588 -8589 280 279 0
h 85 -8590 0
h 8581 -8590 0
h 8582 -8590 0
h 8583 -8590 0
h 8584 -8590 0
h 8585 -8590 0
h 8586 -8590 0
h 8587 -8590 0
h 8588 -8590 0
h 8589 -8590 0
h -280 -8590 0
h -279 -8590 0
h 8591 -57 185 0
h 57 -8591 0
h -185 -8591 0
h 8592 -185 57 0
h 185 -8592 0
h -57 -8592 0
h 8593 -58 186 0
h 58 -8593 0
h -186 -8593 0
h 8594 -186 58 0
h 186 -8594 0
h -58 -8594 0
h 8595 -59 187 0
h 59 -8595 0
h -187 -8595 0
h 8596 -187 59 0
h 187 -8596 0
h -59 -8596 0
h 8597 -60 188 0
h 60 -8597 0
h -188 -8597 0
h 8598 -188 60 0
h 188 -8598 0
h -60 -8598 0
h -8599 -75 288 0
h 75 8599 0
h -288 8599 0
h -8600 -74 287 0
h 74 8600 0
h -287 8600 0
h -8601 -73 286 0
h 73 8601 0
h -286 8601 0
h -8602 -72 285 0
h 72 8602 0
h -285 8602 0
h -8603 -71 284 0
h 71 8603 0
h -284 8603 0
h -8604 -70 283 0
h 70 8604 0
h -283 8604 0
h -8605 -69 282 0
h 69 8605 0
h -282 8605 0
h -8606 -68 281 0
h 68 8606 0
h -281 8606 0
h -8607 -67 280 0
h 67 8607 0
h -280 8607 0
h -8608 -66 279 0
h 66 8608 0
h -279 8608 0
h 8609 -289 -8599 -8600 -8601 -8602 -8603 -8604 -8605 -8606 -8607 -8608 65 0
h 289 -8609 0
h 8599 -8609 0
h 8600 -8609 0
h 8601 -8609 0
h 8602 -8609 0
h 8603 -8609 0
h 8604 -8609 0
h 8605 -8609 0
h 8606 -8609 0
h 8607 -8609 0
h 8608 -8609 0
h -65 -8609 0
h -8610 -289 73 0
h 289 8610 0
h -73 8610 0
h -8611 -288 72 0
h 288 8611 0
h -72 8611 0
h -8612 -287 71 0
h 287 8612 0
h -71 8612 0
h -8613 -286 70 0
h 286 8613 0
h -70 8613 0
h -8614 -285 69 0
h 285 8614 0
h -69 8614 0
h -8615 -284 68 0
h 284 8615 0
h -68 8615 0
h -8616 -283 67 0
h 283 8616 0
h -67 8616 0
h -8617 -282 66 0
h 282 8617 0
h -66 8617 0
h -8618 -281 65 0
h 281 8618 0
h -65 8618 0
h 8619 -74 -8610 -8611 -8612 -8613 -8614 -8615 -8616 -8617 -8618 280 279 0
h 74 -8619 0
h 8610 -8619 0
h 8611 -8619 0
h 8612 -8619 0
h 8613 -8619 0
h 8614 -8619 0
h 8615 -8619 0
h 8616 -8619 0
h 8617 -8619 0
h 8618 -8619 0
h -280 -8619 0
h -279 -8619 0
h 8620 -57 177 0
h 57 -8620 0
h -177 -8620 0
h 8621 -177 57 0
h 177 -8621 0
h -57 -8621 0
h 8622 -58 178 0
h 58 -8622 0
h -178 -8622 0
h 8623 -178 58 0
h 178 -8623 0
h -58 -8623 0
h 8624 -59 179 0
h 59 -8624 0
h -179 -8624 0
h 8625 -179 59 0
h 179 -8625 0
h -59 -8625 0
h 8626 -60 180 0
h 60 -8626 0
h -180 -8626 0
h 8627 -180 60 0
h 180 -8627 0
h -60 -8627 0
h -8628 -252 95 0
h 252 8628 0
h -95 8628 0
h -8629 -251 94 0
h 251 8629 0
h -94 8629 0
h -8630 -250 93 0
h 250 8630 0
h -93 8630 0
h -8631 -249 92 0
h 249 8631 0
h -92 8631 0
h -8632 -248 91 0
h 248 8632 0
h -91 8632 0
h -8633 -247 90 0
h 247 8633 0
h -90 8633 0
h -8634 -246 89 0
h 246 8634 0
h -89 8634 0
h -8635 -245 88 0
h 245 8635 0
h -88 8635 0
h -8636 -244 87 0
h 244 8636 0
h -87 8636 0
h 8637 -96 -8628 -8629 -8630 -8631 -8632 -8633 -8634 -8635 -8636 243 242 0
h 96 -8637 0
h 8628 -8637 0
h 8629 -8637 0
h 8630 -8637 0
h 8631 -8637 0
h 8632 -8637 0
h 8633 -8637 0
h 8634 -8637 0
h 8635 -8637 0
h 8636 -8637 0
h -243 -8637 0
h -242 -8637 0
h -8638 -97 249 0
h 97 8638 0
h -249 8638 0
h -8639 -96 248 0
h 96 8639 0
h -248 8639 0
h -8640 -95 247 0
h 95 8640 0
h -247 8640 0
h -8641 -94 246 0
h 94 8641 0
h -246 8641 0
h -8642 -93 245 0
h 93 8642 0
h -245 8642 0
h -8643 -92 244 0
h 92 8643 0
h -244 8643 0
h -8644 -91 243 0
h 91 8644 0
h -243 8644 0
h -8645 -90 242 0
h 90 8645 0
h -242 8645 0
h 8646 -250 -8638 -8639 -8640 -8641 -8642 -8643 -8644 -8645 89 88 87 0
h 250 -8646 0
h 8638 -8646 0
h 8639 -8646 0
h 8640 -8646 0
h 8641 -8646 0
h 8642 -8646 0
h 8643 -8646 0
h 8644 -8646 0
h 8645 -8646 0
h -89 -8646 0
h -88 -8646 0
h -87 -8646 0
h 8647 -238 1 0
h 238 -8647 0
h -1 -8647 0
h 8648 -1 238 0
h 1 -8648 0
h -238 -8648 0
h 8649 -239 2 0
h 239 -8649 0
h -2 -8649 0
h 8650 -2 239 0
h 2 -8650 0
h -239 -8650 0
h 8651 -240 3 0
h 240 -8651 0
h -3 -8651 0
h 8652 -3 240 0
h 3 -8652 0
h -240 -8652 0
h 8653 -241 4 0
h 241 -8653 0
h -4 -8653 0
h 8654 -4 241 0
h 4 -8654 0
h -241 -8654 0
h -8655 -237 95 0
h 237 8655 0
h -95 8655 0
h -8656 -236 94 0
h 236 8656 0
h -94 8656 0
h -8657 -235 93 0
h 235 8657 0
h -93 8657 0
h -8658 -234 92 0
h 234 8658 0
h -92 8658 0
h -8659 -233 91 0
h 233 8659 0
h -91 8659 0
h -8660 -232 90 0
h 232 8660 0
h -90 8660 0
h -8661 -231 89 0
h 231 8661 0
h -89 8661 0
h -8662 -230 88 0
h 230 8662 0
h -88 8662 0
h -8663 -229 87 0
h 229 8663 0
h -87 8663 0
h 8664 -96 -8655 -8656 -8657 -8658 -8659 -8660 -8661 -8662 -8663 228 227 0
h 96 -8664 0
h 8655 -8664 0
h 8656 -8664 0
h 8657 -8664 0
h 8658 -8664 0
h 8659 -8664 0
h 8660 -8664 0
h 8661 -8664 0
h 8662 -8664 0
h 8663 -8664 0
h -228 -8664 0
h -227 -8664 0
h -8665 -97 234 0
h 97 8665 0
h -234 8665 0
h -8666 -96 233 0
h 96 8666 0
h -233 8666 0
h -8667 -95 232 0
h 95 8667 0
h -232 8667 0
h -8668 -94 231 0
h 94 8668 0
h -231 8668 0
h -8669 -93 230 0
h 93 8669 0
h -230 8669 0
h -8670 -92 229 0
h 92 8670 0
h -229 8670 0
h -8671 -91 228 0
h 91 8671 0
h -228 8671 0
h -8672 -90 227 0
h 90 8672 0
h -227 8672 0
h 8673 -235 -8665 -8666 -8667 -8668 -8669 -8670 -8671 -8672 89 88 87 0
h 235 -8673 0
h 8665 -8673 0
h 8666 -8673 0
h 8667 -8673 0
h 8668 -8673 0
h 8669 -8673 0
h 8670 -8673 0
h 8671 -8673 0
h 8672 -8673 0
h -89 -8673 0
h -88 -8673 0
h -87 -8673 0
h 8674 -238 357 0
h 238 -8674 0
h -357 -8674 0
h 8675 -357 238 0
h 357 -8675 0
h -238 -8675 0
h 8676 -239 358 0
h 239 -8676 0
h -358 -8676 0
h 8677 -358 239 0
h 358 -8677 0
h -239 -8677 0
h 8678 -240 359 0
h 240 -8678 0
h -359 -8678 0
h 8679 -359 240 0
h 359 -8679 0
h -240 -8679 0
h 8680 -241 360 0
h 241 -8680 0
h -360 -8680 0
h 8681 -360 241 0
h 360 -8681 0
h -241 -8681 0
h -8682 -252 117 0
h 252 8682 0
h -117 8682 0
h -8683 -251 116 0
h 251 8683 0
h -116 8683 0
h -8684 -250 115 0
h 250 8684 0
h -115 8684 0
h -8685 -249 114 0
h 249 8685 0
h -114 8685 0
h -8686 -248 113 0
h 248 8686 0
h -113 8686 0
h -8687 -247 112 0
h 247 8687 0
h -112 8687 0
h -8688 -246 111 0
h 246 8688 0
h -111 8688 0
h -8689 -245 110 0
h 245 8689 0
h -110 8689 0
h -8690 -244 109 0
h 244 8690 0
h -109 8690 0
h 8691 -118 -8682 -8683 -8684 -8685 -8686 -8687 -8688 -8689 -8690 243 242 0
h 118 -8691 0
h 8682 -8691 0
h 8683 -8691 0
h 8684 -8691 0
h 8685 -8691 0
h 8686 -8691 0
h 8687 -8691 0
h 8688 -8691 0
h 8689 -8691 0
h 8690 -8691 0
h -243 -8691 0
h -242 -8691 0
h -8692 -119 249 0
h 119 8692 0
h -249 8692 0
h -8693 -118 248 0
h 118 8693 0
h -248 8693 0
h -8694 -117 247 0
h 117 8694 0
h -247 8694 0
h -8695 -116 246 0
h 116 8695 0
h -246 8695 0
h -8696 -115 245 0
h 115 8696 0
h -245 8696 0
h -8697 -114 244 0
h 114 8697 0
h -244 8697 0
h -8698 -113 243 0
h 113 8698 0
h -243 8698 0
h -8699 -112 242 0
h 112 8699 0
h -242 8699 0
h 8700 -250 -8692 -8693 -8694 -8695 -8696 -8697 -8698 -8699 111 110 109 0
h 250 -8700 0
h 8692 -8700 0
h 8693 -8700 0
h 8694 -8700 0
h 8695 -8700 0
h 8696 -8700 0
h 8697 -8700 0
h 8698 -8700 0
h 8699 -8700 0
h -111 -8700 0
h -110 -8700 0
h -109 -8700 0
h 8701 -253 1 0
h 253 -8701 0
h -1 -8701 0
h 8702 -1 253 0
h 1 -8702 0
h -253 -8702 0
h 8703 -254 2 0
h 254 -8703 0
h -2 -8703 0
h 8704 -2 254 0
h 2 -8704 0
h -254 -8704 0
h 8705 -255 3 0
h 255 -8705 0
h -3 -8705 0
h 8706 -3 255 0
h 3 -8706 0
h -255 -8706 0
h 8707 -256 4 0
h 256 -8707 0
h -4 -8707 0
h 8708 -4 256 0
h 4 -8708 0
h -256 -8708 0
h -8709 -237 117 0
h 237 8709 0
h -117 8709 0
h -8710 -236 116 0
h 236 8710 0
h -116 8710 0
h -8711 -235 115 0
h 235 8711 0
h -115 8711 0
h -8712 -234 114 0
h 234 8712 0
h -114 8712 0
h -8713 -233 113 0
h 233 8713 0
h -113 8713 0
h -8714 -232 112 0
h 232 8714 0
h -112 8714 0
h -8715 -231 111 0
h 231 8715 0
h -111 8715 0
h -8716 -230 110 0
h 230 8716 0
h -110 8716 0
h -8717 -229 109 0
h 229 8717 0
h -109 8717 0
h 8718 -118 -8709 -8710 -8711 -8712 -8713 -8714 -8715 -8716 -8717 228 227 0
h 118 -8718 0
h 8709 -8718 0
h 8710 -8718 0
h 8711 -8718 0
h 8712 -8718 0
h 8713 -8718 0
h 8714 -8718 0
h 8715 -8718 0
h 8716 -8718 0
h 8717 -8718 0
h -228 -8718 0
h -227 -8718 0
h -8719 -119 234 0
h 119 8719 0
h -234 8719 0
h -8720 -118 233 0
h 118 8720 0
h -233 8720 0
h -8721 -117 232 0
h 117 8721 0
h -232 8721 0
h -8722 -116 231 0
h 116 8722 0
h -231 8722 0
h -8723 -115 230 0
h 115 8723 0
h -230 8723 0
h -8724 -114 229 0
h 114 8724 0
h -229 8724 0
h -8725 -113 228 0
h 113 8725 0
h -228 8725 0
h -8726 -112 227 0
h 112 8726 0
h -227 8726 0
h 8727 -235 -8719 -8720 -8721 -8722 -8723 -8724 -8725 -8726 111 110 109 0
h 235 -8727 0
h 8719 -8727 0
h 8720 -8727 0
h 8721 -8727 0
h 8722 -8727 0
h 8723 -8727 0
h 8724 -8727 0
h 8725 -8727 0
h 8726 -8727 0
h -111 -8727 0
h -110 -8727 0
h -109 -8727 0
h 8728 -253 357 0
h 253 -8728 0
h -357 -8728 0
h 8729 -357 253 0
h 357 -8729 0
h -253 -8729 0
h 8730 -254 358 0
h 254 -8730 0
h -358 -8730 0
h 8731 -358 254 0
h 358 -8731 0
h -254 -8731 0
h 8732 -255 359 0
h 255 -8732 0
h -359 -8732 0
h 8733 -359 255 0
h 359 -8733 0
h -255 -8733 0
h 8734 -256 360 0
h 256 -8734 0
h -360 -8734 0
h 8735 -360 256 0
h 360 -8735 0
h -256 -8735 0
h -8736 -130 95 0
h 130 8736 0
h -95 8736 0
h -8737 -129 94 0
h 129 8737 0
h -94 8737 0
h -8738 -128 93 0
h 128 8738 0
h -93 8738 0
h -8739 -127 92 0
h 127 8739 0
h -92 8739 0
h -8740 -126 91 0
h 126 8740 0
h -91 8740 0
h -8741 -125 90 0
h 125 8741 0
h -90 8741 0
h -8742 -124 89 0
h 124 8742 0
h -89 8742 0
h -8743 -123 88 0
h 123 8743 0
h -88 8743 0
h -8744 -122 87 0
h 122 8744 0
h -87 8744 0
h 8745 -96 -8736 -8737 -8738 -8739 -8740 -8741 -8742 -8743 -8744 121 120 0
h 96 -8745 0
h 8736 -8745 0
h 8737 -8745 0
h 8738 -8745 0
h 8739 -8745 0
h 8740 -8745 0
h 8741 -8745 0
h 8742 -8745 0
h 8743 -8745 0
h 8744 -8745 0
h -121 -8745 0
h -120 -8745 0
h -8746 -97 128 0
h 97 8746 0
h -128 8746 0
h -8747 -96 127 0
h 96 8747 0
h -127 8747 0
h -8748 -95 126 0
h 95 8748 0
h -126 8748 0
h -8749 -94 125 0
h 94 8749 0
h -125 8749 0
h -8750 -93 124 0
h 93 8750 0
h -124 8750 0
h -8751 -92 123 0
h 92 8751 0
h -123 8751 0
h -8752 -91 122 0
h 91 8752 0
h -122 8752 0
h -8753 -90 121 0
h 90 8753 0
h -121 8753 0
h -8754 -89 120 0
h 89 8754 0
h -120 8754 0
h 8755 -129 -8746 -8747 -8748 -8749 -8750 -8751 -8752 -8753 -8754 88 87 0
h 129 -8755 0
h 8746 -8755 0
h 8747 -8755 0
h 8748 -8755 0
h 8749 -8755 0
h 8750 -8755 0
h 8751 -8755 0
h 8752 -8755 0
h 8753 -8755 0
h 8754 -8755 0
h -88 -8755 0
h -87 -8755 0
h 8756 -238 219 0
h 238 -8756 0
h -219 -8756 0
h 8757 -219 238 0
h 219 -8757 0
h -238 -8757 0
h 8758 -239 220 0
h 239 -8758 0
h -220 -8758 0
h 8759 -220 239 0
h 220 -8759 0
h -239 -8759 0
h 8760 -240 221 0
h 240 -8760 0
h -221 -8760 0
h 8761 -221 240 0
h 221 -8761 0
h -240 -8761 0
h 8762 -241 222 0
h 241 -8762 0
h -222 -8762 0
h 8763 -222 241 0
h 222 -8763 0
h -241 -8763 0
h -8764 -108 95 0
h 108 8764 0
h -95 8764 0
h -8765 -107 94 0
h 107 8765 0
h -94 8765 0
h -8766 -106 93 0
h 106 8766 0
h -93 8766 0
h -8767 -105 92 0
h 105 8767 0
h -92 8767 0
h -8768 -104 91 0
h 104 8768 0
h -91 8768 0
h -8769 -103 90 0
h 103 8769 0
h -90 8769 0
h -8770 -102 89 0
h 102 8770 0
h -89 8770 0
h -8771 -101 88 0
h 101 8771 0
h -88 8771 0
h -8772 -100 87 0
h 100 8772 0
h -87 8772 0
h 8773 -96 -8764 -8765 -8766 -8767 -8768 -8769 -8770 -8771 -8772 99 98 0
h 96 -8773 0
h 8764 -8773 0
h 8765 -8773 0
h 8766 -8773 0
h 8767 -8773 0
h 8768 -8773 0
h 8769 -8773 0
h 8770 -8773 0
h 8771 -8773 0
h 8772 -8773 0
h -99 -8773 0
h -98 -8773 0
h -8774 -97 106 0
h 97 8774 0
h -106 8774 0
h -8775 -96 105 0
h 96 8775 0
h -105 8775 0
h -8776 -95 104 0
h 95 8776 0
h -104 8776 0
h -8777 -94 103 0
h 94 8777 0
h -103 8777 0
h -8778 -93 102 0
h 93 8778 0
h -102 8778 0
h -8779 -92 101 0
h 92 8779 0
h -101 8779 0
h -8780 -91 100 0
h 91 8780 0
h -100 8780 0
h -8781 -90 99 0
h 90 8781 0
h -99 8781 0
h -8782 -89 98 0
h 89 8782 0
h -98 8782 0
h 8783 -107 -8774 -8775 -8776 -8777 -8778 -8779 -8780 -8781 -8782 88 87 0
h 107 -8783 0
h 8774 -8783 0
h 8775 -8783 0
h 8776 -8783 0
h 8777 -8783 0
h 8778 -8783 0
h 8779 -8783 0
h 8780 -8783 0
h 8781 -8783 0
h 8782 -8783 0
h -88 -8783 0
h -87 -8783 0
h 8784 -238 204 0
h 238 -8784 0
h -204 -8784 0
h 8785 -204 238 0
h 204 -8785 0
h -238 -8785 0
h 8786 -239 205 0
h 239 -8786 0
h -205 -8786 0
h 8787 -205 239 0
h 205 -8787 0
h -239 -8787 0
h 8788 -240 206 0
h 240 -8788 0
h -206 -8788 0
h 8789 -206 240 0
h 206 -8789 0
h -240 -8789 0
h 8790 -241 207 0
h 241 -8790 0
h -207 -8790 0
h 8791 -207 241 0
h 207 -8791 0
h -241 -8791 0
h -8792 -130 117 0
h 130 8792 0
h -117 8792 0
h -8793 -129 116 0
h 129 8793 0
h -116 8793 0
h -8794 -128 115 0
h 128 8794 0
h -115 8794 0
h -8795 -127 114 0
h 127 8795 0
h -114 8795 0
h -8796 -126 113 0
h 126 8796 0
h -113 8796 0
h -8797 -125 112 0
h 125 8797 0
h -112 8797 0
h -8798 -124 111 0
h 124 8798 0
h -111 8798 0
h -8799 -123 110 0
h 123 8799 0
h -110 8799 0
h -8800 -122 109 0
h 122 8800 0
h -109 8800 0
h 8801 -118 -8792 -8793 -8794 -8795 -8796 -8797 -8798 -8799 -8800 121 120 0
h 118 -8801 0
h 8792 -8801 0
h 8793 -8801 0
h 8794 -8801 0
h 8795 -8801 0
h 8796 -8801 0
h 8797 -8801 0
h 8798 -8801 0
h 8799 -8801 0
h 8800 -8801 0
h -121 -8801 0
h -120 -8801 0
h -8802 -119 128 0
h 119 8802 0
h -128 8802 0
h -8803 -118 127 0
h 118 8803 0
h -127 8803 0
h -8804 -117 126 0
h 117 8804 0
h -126 8804 0
h -8805 -116 125 0
h 116 8805 0
h -125 8805 0
h -8806 -115 124 0
h 115 8806 0
h -124 8806 0
h -8807 -114 123 0
h 114 8807 0
h -123 8807 0
h -8808 -113 122 0
h 113 8808 0
h -122 8808 0
h -8809 -112 121 0
h 112 8809 0
h -121 8809 0
h -8810 -111 120 0
h 111 8810 0
h -120 8810 0
h 8811 -129 -8802 -8803 -8804 -8805 -8806 -8807 -8808 -8809 -8810 110 109 0
h 129 -8811 0
h 8802 -8811 0
h 8803 -8811 0
h 8804 -8811 0
h 8805 -8811 0
h 8806 -8811 0
h 8807 -8811 0
h 8808 -8811 0
h 8809 -8811 0
h 8810 -8811 0
h -110 -8811 0
h -109 -8811 0
h 8812 -253 219 0
h 253 -8812 0
h -219 -8812 0
h 8813 -219 253 0
h 219 -8813 0
h -253 -8813 0
h 8814 -254 220 0
h 254 -8814 0
h -220 -8814 0
h 8815 -220 254 0
h 220 -8815 0
h -254 -8815 0
h 8816 -255 221 0
h 255 -8816 0
h -221 -8816 0
h 8817 -221 255 0
h 221 -8817 0
h -255 -8817 0
h 8818 -256 222 0
h 256 -8818 0
h -222 -8818 0
h 8819 -222 256 0
h 222 -8819 0
h -256 -8819 0
h -8820 -108 117 0
h 108 8820 0
h -117 8820 0
h -8821 -107 116 0
h 107 8821 0
h -116 8821 0
h -8822 -106 115 0
h 106 8822 0
h -115 8822 0
h -8823 -105 114 0
h 105 8823 0
h -114 8823 0
h -8824 -104 113 0
h 104 8824 0
h -113 8824 0
h -8825 -103 112 0
h 103 8825 0
h -112 8825 0
h -8826 -102 111 0
h 102 8826 0
h -111 8826 0
h -8827 -101 110 0
h 101 8827 0
h -110 8827 0
h -8828 -100 109 0
h 100 8828 0
h -109 8828 0
h 8829 -118 -8820 -8821 -8822 -8823 -8824 -8825 -8826 -8827 -8828 99 98 0
h 118 -8829 0
h 8820 -8829 0
h 8821 -8829 0
h 8822 -8829 0
h 8823 -8829 0
h 8824 -8829 0
h 8825 -8829 0
h 8826 -8829 0
h 8827 -8829 0
h 8828 -8829 0
h -99 -8829 0
h -98 -8829 0
h -8830 -119 106 0
h 119 8830 0
h -106 8830 0
h -8831 -118 105 0
h 118 8831 0
h -105 8831 0
h -8832 -117 104 0
h 117 8832 0
h -104 8832 0
h -8833 -116 103 0
h 116 8833 0
h -103 8833 0
h -8834 -115 102 0
h 115 8834 0
h -102 8834 0
h -8835 -114 101 0
h 114 8835 0
h -101 8835 0
h -8836 -113 100 0
h 113 8836 0
h -100 8836 0
h -8837 -112 99 0
h 112 8837 0
h -99 8837 0
h -8838 -111 98 0
h 111 8838 0
h -98 8838 0
h 8839 -107 -8830 -8831 -8832 -8833 -8834 -8835 -8836 -8837 -8838 110 109 0
h 107 -8839 0
h 8830 -8839 0
h 8831 -8839 0
h 8832 -8839 0
h 8833 -8839 0
h 8834 -8839 0
h 8835 -8839 0
h 8836 -8839 0
h 8837 -8839 0
h 8838 -8839 0
h -110 -8839 0
h -109 -8839 0
h 8840 -253 204 0
h 253 -8840 0
h -204 -8840 0
h 8841 -204 253 0
h 204 -8841 0
h -253 -8841 0
h 8842 -254 205 0
h 254 -8842 0
h -205 -8842 0
h 8843 -205 254 0
h 205 -8843 0
h -254 -8843 0
h 8844 -255 206 0
h 255 -8844 0
h -206 -8844 0
h 8845 -206 255 0
h 206 -8845 0
h -255 -8845 0
h 8846 -256 207 0
h 256 -8846 0
h -207 -8846 0
h 8847 -207 256 0
h 207 -8847 0
h -256 -8847 0
h -8848 -252 139 0
h 252 8848 0
h -139 8848 0
h -8849 -251 138 0
h 251 8849 0
h -138 8849 0
h -8850 -250 137 0
h 250 8850 0
h -137 8850 0
h -8851 -249 136 0
h 249 8851 0
h -136 8851 0
h -8852 -248 135 0
h 248 8852 0
h -135 8852 0
h -8853 -247 134 0
h 247 8853 0
h -134 8853 0
h -8854 -246 133 0
h 246 8854 0
h -133 8854 0
h -8855 -245 132 0
h 245 8855 0
h -132 8855 0
h -8856 -244 131 0
h 244 8856 0
h -131 8856 0
h 8857 -140 -8848 -8849 -8850 -8851 -8852 -8853 -8854 -8855 -8856 243 242 0
h 140 -8857 0
h 8848 -8857 0
h 8849 -8857 0
h 8850 -8857 0
h 8851 -8857 0
h 8852 -8857 0
h 8853 -8857 0
h 8854 -8857 0
h 8855 -8857 0
h 8856 -8857 0
h -243 -8857 0
h -242 -8857 0
h -8858 -141 249 0
h 141 8858 0
h -249 8858 0
h -8859 -140 248 0
h 140 8859 0
h -248 8859 0
h -8860 -139 247 0
h 139 8860 0
h -247 8860 0
h -8861 -138 246 0
h 138 8861 0
h -246 8861 0
h -8862 -137 245 0
h 137 8862 0
h -245 8862 0
h -8863 -136 244 0
h 136 8863 0
h -244 8863 0
h -8864 -135 243 0
h 135 8864 0
h -243 8864 0
h -8865 -134 242 0
h 134 8865 0
h -242 8865 0
h 8866 -250 -8858 -8859 -8860 -8861 -8862 -8863 -8864 -8865 133 132 131 0
h 250 -8866 0
h 8858 -8866 0
h 8859 -8866 0
h 8860 -8866 0
h 8861 -8866 0
h 8862 -8866 0
h 8863 -8866 0
h 8864 -8866 0
h 8865 -8866 0
h -133 -8866 0
h -132 -8866 0
h -131 -8866 0
h 8867 -223 1 0
h 223 -8867 0
h -1 -8867 0
h 8868 -1 223 0
h 1 -8868 0
h -223 -8868 0
h 8869 -224 2 0
h 224 -8869 0
h -2 -8869 0
h 8870 -2 224 0
h 2 -8870 0
h -224 -8870 0
h 8871 -225 3 0
h 225 -8871 0
h -3 -8871 0
h 8872 -3 225 0
h 3 -8872 0
h -225 -8872 0
h 8873 -226 4 0
h 226 -8873 0
h -4 -8873 0
h 8874 -4 226 0
h 4 -8874 0
h -226 -8874 0
h -8875 -237 139 0
h 237 8875 0
h -139 8875 0
h -8876 -236 138 0
h 236 8876 0
h -138 8876 0
h -8877 -235 137 0
h 235 8877 0
h -137 8877 0
h -8878 -234 136 0
h 234 8878 0
h -136 8878 0
h -8879 -233 135 0
h 233 8879 0
h -135 8879 0
h -8880 -232 134 0
h 232 8880 0
h -134 8880 0
h -8881 -231 133 0
h 231 8881 0
h -133 8881 0
h -8882 -230 132 0
h 230 8882 0
h -132 8882 0
h -8883 -229 131 0
h 229 8883 0
h -131 8883 0
h 8884 -140 -8875 -8876 -8877 -8878 -8879 -8880 -8881 -8882 -8883 228 227 0
h 140 -8884 0
h 8875 -8884 0
h 8876 -8884 0
h 8877 -8884 0
h 8878 -8884 0
h 8879 -8884 0
h 8880 -8884 0
h 8881 -8884 0
h 8882 -8884 0
h 8883 -8884 0
h -228 -8884 0
h -227 -8884 0
h -8885 -141 234 0
h 141 8885 0
h -234 8885 0
h -8886 -140 233 0
h 140 8886 0
h -233 8886 0
h -8887 -139 232 0
h 139 8887 0
h -232 8887 0
h -8888 -138 231 0
h 138 8888 0
h -231 8888 0
h -8889 -137 230 0
h 137 8889 0
h -230 8889 0
h -8890 -136 229 0
h 136 8890 0
h -229 8890 0
h -8891 -135 228 0
h 135 8891 0
h -228 8891 0
h -8892 -134 227 0
h 134 8892 0
h -227 8892 0
h 8893 -235 -8885 -8886 -8887 -8888 -8889 -8890 -8891 -8892 133 132 131 0
h 235 -8893 0
h 8885 -8893 0
h 8886 -8893 0
h 8887 -8893 0
h 8888 -8893 0
h 8889 -8893 0
h 8890 -8893 0
h 8891 -8893 0
h 8892 -8893 0
h -133 -8893 0
h -132 -8893 0
h -131 -8893 0
h 8894 -223 357 0
h 223 -8894 0
h -357 -8894 0
h 8895 -357 223 0
h 357 -8895 0
h -223 -8895 0
h 8896 -224 358 0
h 224 -8896 0
h -358 -8896 0
h 8897 -358 224 0
h 358 -8897 0
h -224 -8897 0
h 8898 -225 359 0
h 225 -8898 0
h -359 -8898 0
h 8899 -359 225 0
h 359 -8899 0
h -225 -8899 0
h 8900 -226 360 0
h 226 -8900 0
h -360 -8900 0
h 8901 -360 226 0
h 360 -8901 0
h -226 -8901 0
h -8902 -130 139 0
h 130 8902 0
h -139 8902 0
h -8903 -129 138 0
h 129 8903 0
h -138 8903 0
h -8904 -128 137 0
h 128 8904 0
h -137 8904 0
h -8905 -127 136 0
h 127 8905 0
h -136 8905 0
h -8906 -126 135 0
h 126 8906 0
h -135 8906 0
h -8907 -125 134 0
h 125 8907 0
h -134 8907 0
h -8908 -124 133 0
h 124 8908 0
h -133 8908 0
h -8909 -123 132 0
h 123 8909 0
h -132 8909 0
h -8910 -122 131 0
h 122 8910 0
h -131 8910 0
h 8911 -140 -8902 -8903 -8904 -8905 -8906 -8907 -8908 -8909 -8910 121 120 0
h 140 -8911 0
h 8902 -8911 0
h 8903 -8911 0
h 8904 -8911 0
h 8905 -8911 0
h 8906 -8911 0
h 8907 -8911 0
h 8908 -8911 0
h 8909 -8911 0
h 8910 -8911 0
h -121 -8911 0
h -120 -8911 0
h -8912 -141 128 0
h 141 8912 0
h -128 8912 0
h -8913 -140 127 0
h 140 8913 0
h -127 8913 0
h -8914 -139 126 0
h 139 8914 0
h -126 8914 0
h -8915 -138 125 0
h 138 8915 0
h -125 8915 0
h -8916 -137 124 0
h 137 8916 0
h -124 8916 0
h -8917 -136 123 0
h 136 8917 0
h -123 8917 0
h -8918 -135 122 0
h 135 8918 0
h -122 8918 0
h -8919 -134 121 0
h 134 8919 0
h -121 8919 0
h -8920 -133 120 0
h 133 8920 0
h -120 8920 0
h 8921 -129 -8912 -8913 -8914 -8915 -8916 -8917 -8918 -8919 -8920 132 131 0
h 129 -8921 0
h 8912 -8921 0
h 8913 -8921 0
h 8914 -8921 0
h 8915 -8921 0
h 8916 -8921 0
h 8917 -8921 0
h 8918 -8921 0
h 8919 -8921 0
h 8920 -8921 0
h -132 -8921 0
h -131 -8921 0
h 8922 -223 219 0
h 223 -8922 0
h -219 -8922 0
h 8923 -219 223 0
h 219 -8923 0
h -223 -8923 0
h 8924 -224 220 0
h 224 -8924 0
h -220 -8924 0
h 8925 -220 224 0
h 220 -8925 0
h -224 -8925 0
h 8926 -225 221 0
h 225 -8926 0
h -221 -8926 0
h 8927 -221 225 0
h 221 -8927 0
h -225 -8927 0
h 8928 -226 222 0
h 226 -8928 0
h -222 -8928 0
h 8929 -222 226 0
h 222 -8929 0
h -226 -8929 0
h -8930 -108 139 0
h 108 8930 0
h -139 8930 0
h -8931 -107 138 0
h 107 8931 0
h -138 8931 0
h -8932 -106 137 0
h 106 8932 0
h -137 8932 0
h -8933 -105 136 0
h 105 8933 0
h -136 8933 0
h -8934 -104 135 0
h 104 8934 0
h -135 8934 0
h -8935 -103 134 0
h 103 8935 0
h -134 8935 0
h -8936 -102 133 0
h 102 8936 0
h -133 8936 0
h -8937 -101 132 0
h 101 8937 0
h -132 8937 0
h -8938 -100 131 0
h 100 8938 0
h -131 8938 0
h 8939 -140 -8930 -8931 -8932 -8933 -8934 -8935 -8936 -8937 -8938 99 98 0
h 140 -8939 0
h 8930 -8939 0
h 8931 -8939 0
h 8932 -8939 0
h 8933 -8939 0
h 8934 -8939 0
h 8935 -8939 0
h 8936 -8939 0
h 8937 -8939 0
h 8938 -8939 0
h -99 -8939 0
h -98 -8939 0
h -8940 -141 106 0
h 141 8940 0
h -106 8940 0
h -8941 -140 105 0
h 140 8941 0
h -105 8941 0
h -8942 -139 104 0
h 139 8942 0
h -104 8942 0
h -8943 -138 103 0
h 138 8943 0
h -103 8943 0
h -8944 -137 102 0
h 137 8944 0
h -102 8944 0
h -8945 -136 101 0
h 136 8945 0
h -101 8945 0
h -8946 -135 100 0
h 135 8946 0
h -100 8946 0
h -8947 -134 99 0
h 134 8947 0
h -99 8947 0
h -8948 -133 98 0
h 133 8948 0
h -98 8948 0
h 8949 -107 -8940 -8941 -8942 -8943 -8944 -8945 -8946 -8947 -8948 132 131 0
h 107 -8949 0
h 8940 -8949 0
h 8941 -8949 0
h 8942 -8949 0
h 8943 -8949 0
h 8944 -8949 0
h 8945 -8949 0
h 8946 -8949 0
h 8947 -8949 0
h 8948 -8949 0
h -132 -8949 0
h -131 -8949 0
h 8950 -223 204 0
h 223 -8950 0
h -204 -8950 0
h 8951 -204 223 0
h 204 -8951 0
h -223 -8951 0
h 8952 -224 205 0
h 224 -8952 0
h -205 -8952 0
h 8953 -205 224 0
h 205 -8953 0
h -224 -8953 0
h 8954 -225 206 0
h 225 -8954 0
h -206 -8954 0
h 8955 -206 225 0
h 206 -8955 0
h -225 -8955 0
h 8956 -226 207 0
h 226 -8956 0
h -207 -8956 0
h 8957 -207 226 0
h 207 -8957 0
h -226 -8957 0
h -8958 -252 277 0
h 252 8958 0
h -277 8958 0
h -8959 -251 276 0
h 251 8959 0
h -276 8959 0
h -8960 -250 275 0
h 250 8960 0
h -275 8960 0
h -8961 -249 274 0
h 249 8961 0
h -274 8961 0
h -8962 -248 273 0
h 248 8962 0
h -273 8962 0
h -8963 -247 272 0
h 247 8963 0
h -272 8963 0
h -8964 -246 271 0
h 246 8964 0
h -271 8964 0
h -8965 -245 270 0
h 245 8965 0
h -270 8965 0
h -8966 -244 269 0
h 244 8966 0
h -269 8966 0
h -8967 -243 268 0
h 243 8967 0
h -268 8967 0
h 8968 -278 -8958 -8959 -8960 -8961 -8962 -8963 -8964 -8965 -8966 -8967 242 0
h 278 -8968 0
h 8958 -8968 0
h 8959 -8968 0
h 8960 -8968 0
h 8961 -8968 0
h 8962 -8968 0
h 8963 -8968 0
h 8964 -8968 0
h 8965 -8968 0
h 8966 -8968 0
h 8967 -8968 0
h -242 -8968 0
h -8969 -278 249 0
h 278 8969 0
h -249 8969 0
h -8970 -277 248 0
h 277 8970 0
h -248 8970 0
h -8971 -276 247 0
h 276 8971 0
h -247 8971 0
h -8972 -275 246 0
h 275 8972 0
h -246 8972 0
h -8973 -274 245 0
h 274 8973 0
h -245 8973 0
h -8974 -273 244 0
h 273 8974 0
h -244 8974 0
h -8975 -272 243 0
h 272 8975 0
h -243 8975 0
h -8976 -271 242 0
h 271 8976 0
h -242 8976 0
h 8977 -250 -8969 -8970 -8971 -8972 -8973 -8974 -8975 -8976 270 269 268 0
h 250 -8977 0
h 8969 -8977 0
h 8970 -8977 0
h 8971 -8977 0
h 8972 -8977 0
h 8973 -8977 0
h 8974 -8977 0
h 8975 -8977 0
h 8976 -8977 0
h -270 -8977 0
h -269 -8977 0
h -268 -8977 0
h 8978 -42 1 0
h 42 -8978 0
h -1 -8978 0
h 8979 -1 42 0
h 1 -8979 0
h -42 -8979 0
h 8980 -43 2 0
h 43 -8980 0
h -2 -8980 0
h 8981 -2 43 0
h 2 -8981 0
h -43 -8981 0
h 8982 -44 3 0
h 44 -8982 0
h -3 -8982 0
h 8983 -3 44 0
h 3 -8983 0
h -44 -8983 0
h 8984 -45 4 0
h 45 -8984 0
h -4 -8984 0
h 8985 -4 45 0
h 4 -8985 0
h -45 -8985 0
h -8986 -237 277 0
h 237 8986 0
h -277 8986 0
h -8987 -236 276 0
h 236 8987 0
h -276 8987 0
h -8988 -235 275 0
h 235 8988 0
h -275 8988 0
h -8989 -234 274 0
h 234 8989 0
h -274 8989 0
h -8990 -233 273 0
h 233 8990 0
h -273 8990 0
h -8991 -232 272 0
h 232 8991 0
h -272 8991 0
h -8992 -231 271 0
h 231 8992 0
h -271 8992 0
h -8993 -230 270 0
h 230 8993 0
h -270 8993 0
h -8994 -229 269 0
h 229 8994 0
h -269 8994 0
h -8995 -228 268 0
h 228 8995 0
h -268 8995 0
h 8996 -278 -8986 -8987 -8988 -8989 -8990 -8991 -8992 -8993 -8994 -8995 227 0
h 278 -8996 0
h 8986 -8996 0
h 8987 -8996 0
h 8988 -8996 0
h 8989 -8996 0
h 8990 -8996 0
h 8991 -8996 0
h 8992 -8996 0
h 8993 -8996 0
h 8994 -8996 0
h 8995 -8996 0
h -227 -8996 0
h -8997 -278 234 0
h 278 8997 0
h -234 8997 0
h -8998 -277 233 0
h 277 8998 0
h -233 8998 0
h -8999 -276 232 0
h 276 8999 0
h -232 8999 0
h -9000 -275 231 0
h 275 9000 0
h -231 9000 0
h -9001 -274 230 0
h 274 9001 0
h -230 9001 0
h -9002 -273 229 0
h 273 9002 0
h -229 9002 0
h -9003 -272 228 0
h 272 9003 0
h -228 9003 0
h -9004 -271 227 0
h 271 9004 0
h -227 9004 0
h 9005 -235 -8997 -8998 -8999 -9000 -9001 -9002 -9003 -9004 270 269 268 0
h 235 -9005 0
h 8997 -9005 0
h 8998 -9005 0
h 8999 -9005 0
h 9000 -9005 0
h 9001 -9005 0
h 9002 -9005 0
h 9003 -9005 0
h 9004 -9005 0
h -270 -9005 0
h -269 -9005 0
h -268 -9005 0
h 9006 -42 357 0
h 42 -9006 0
h -357 -9006 0
h 9007 -357 42 0
h 357 -9007 0
h -42 -9007 0
h 9008 -43 358 0
h 43 -9008 0
h -358 -9008 0
h 9009 -358 43 0
h 358 -9009 0
h -43 -9009 0
h 9010 -44 359 0
h 44 -9010 0
h -359 -9010 0
h 9011 -359 44 0
h 359 -9011 0
h -44 -9011 0
h 9012 -45 360 0
h 45 -9012 0
h -360 -9012 0
h 9013 -360 45 0
h 360 -9013 0
h -45 -9013 0
h -9014 -252 299 0
h 252 9014 0
h -299 9014 0
h -9015 -251 298 0
h 251 9015 0
h -298 9015 0
h -9016 -250 297 0
h 250 9016 0
h -297 9016 0
h -9017 -249 296 0
h 249 9017 0
h -296 9017 0
h -9018 -248 295 0
h 248 9018 0
h -295 9018 0
h -9019 -247 294 0
h 247 9019 0
h -294 9019 0
h -9020 -246 293 0
h 246 9020 0
h -293 9020 0
h -9021 -245 292 0
h 245 9021 0
h -292 9021 0
h -9022 -244 291 0
h 244 9022 0
h -291 9022 0
h -9023 -243 290 0
h 243 9023 0
h -290 9023 0
h 9024 -300 -9014 -9015 -9016 -9017 -9018 -9019 -9020 -9021 -9022 -9023 242 0
h 300 -9024 0
h 9014 -9024 0
h 9015 -9024 0
h 9016 -9024 0
h 9017 -9024 0
h 9018 -9024 0
h 9019 -9024 0
h 9020 -9024 0
h 9021 -9024 0
h 9022 -9024 0
h 9023 -9024 0
h -242 -9024 0
h -9025 -300 249 0
h 300 9025 0
h -249 9025 0
h -9026 -299 248 0
h 299 9026 0
h -248 9026 0
h -9027 -298 247 0
h 298 9027 0
h -247 9027 0
h -9028 -297 246 0
h 297 9028 0
h -246 9028 0
h -9029 -296 245 0
h 296 9029 0
h -245 9029 0
h -9030 -295 244 0
h 295 9030 0
h -244 9030 0
h -9031 -294 243 0
h 294 9031 0
h -243 9031 0
h -9032 -293 242 0
h 293 9032 0
h -242 9032 0
h 9033 -250 -9025 -9026 -9027 -9028 -9029 -9030 -9031 -9032 292 291 290 0
h 250 -9033 0
h 9025 -9033 0
h 9026 -9033 0
h 9027 -9033 0
h 9028 -9033 0
h 9029 -9033 0
h 9030 -9033 0
h 9031 -9033 0
h 9032 -9033 0
h -292 -9033 0
h -291 -9033 0
h -290 -9033 0
h 9034 -61 1 0
h 61 -9034 0
h -1 -9034 0
h 9035 -1 61 0
h 1 -9035 0
h -61 -9035 0
h 9036 -62 2 0
h 62 -9036 0
h -2 -9036 0
h 9037 -2 62 0
h 2 -9037 0
h -62 -9037 0
h 9038 -63 3 0
h 63 -9038 0
h -3 -9038 0
h 9039 -3 63 0
h 3 -9039 0
h -63 -9039 0
h 9040 -64 4 0
h 64 -9040 0
h -4 -9040 0
h 9041 -4 64 0
h 4 -9041 0
h -64 -9041 0
h -9042 -237 299 0
h 237 9042 0
h -299 9042 0
h -9043 -236 298 0
h 236 9043 0
h -298 9043 0
h -9044 -235 297 0
h 235 9044 0
h -297 9044 0
h -9045 -234 296 0
h 234 9045 0
h -296 9045 0
h -9046 -233 295 0
h 233 9046 0
h -295 9046 0
h -9047 -232 294 0
h 232 9047 0
h -294 9047 0
h -9048 -231 293 0
h 231 9048 0
h -293 9048 0
h -9049 -230 292 0
h 230 9049 0
h -292 9049 0
h -9050 -229 291 0
h 229 9050 0
h -291 9050 0
h -9051 -228 290 0
h 228 9051 0
h -290 9051 0
h 9052 -300 -9042 -9043 -9044 -9045 -9046 -9047 -9048 -9049 -9050 -9051 227 0
h 300 -9052 0
h 9042 -9052 0
h 9043 -9052 0
h 9044 -9052 0
h 9045 -9052 0
h 9046 -9052 0
h 9047 -9052 0
h 9048 -9052 0
h 9049 -9052 0
h 9050 -9052 0
h 9051 -9052 0
h -227 -9052 0
h -9053 -300 234 0
h 300 9053 0
h -234 9053 0
h -9054 -299 233 0
h 299 9054 0
h -233 9054 0
h -9055 -298 232 0
h 298 9055 0
h -232 9055 0
h -9056 -297 231 0
h 297 9056 0
h -231 9056 0
h -9057 -296 230 0
h 296 9057 0
h -230 9057 0
h -9058 -295 229 0
h 295 9058 0
h -229 9058 0
h -9059 -294 228 0
h 294 9059 0
h -228 9059 0
h -9060 -293 227 0
h 293 9060 0
h -227 9060 0
h 9061 -235 -9053 -9054 -9055 -9056 -9057 -9058 -9059 -9060 292 291 290 0
h 235 -9061 0
h 9053 -9061 0
h 9054 -9061 0
h 9055 -9061 0
h 9056 -9061 0
h 9057 -9061 0
h 9058 -9061 0
h 9059 -9061 0
h 9060 -9061 0
h -292 -9061 0
h -291 -9061 0
h -290 -9061 0
h 9062 -61 357 0
h 61 -9062 0
h -357 -9062 0
h 9063 -357 61 0
h 357 -9063 0
h -61 -9063 0
h 9064 -62 358 0
h 62 -9064 0
h -358 -9064 0
h 9065 -358 62 0
h 358 -9065 0
h -62 -9065 0
h 9066 -63 359 0
h 63 -9066 0
h -359 -9066 0
h 9067 -359 63 0
h 359 -9067 0
h -63 -9067 0
h 9068 -64 360 0
h 64 -9068 0
h -360 -9068 0
h 9069 -360 64 0
h 360 -9069 0
h -64 -9069 0
h -9070 -252 288 0
h 252 9070 0
h -288 9070 0
h -9071 -251 287 0
h 251 9071 0
h -287 9071 0
h -9072 -250 286 0
h 250 9072 0
h -286 9072 0
h -9073 -249 285 0
h 249 9073 0
h -285 9073 0
h -9074 -248 284 0
h 248 9074 0
h -284 9074 0
h -9075 -247 283 0
h 247 9075 0
h -283 9075 0
h -9076 -246 282 0
h 246 9076 0
h -282 9076 0
h -9077 -245 281 0
h 245 9077 0
h -281 9077 0
h -9078 -244 280 0
h 244 9078 0
h -280 9078 0
h -9079 -243 279 0
h 243 9079 0
h -279 9079 0
h 9080 -289 -9070 -9071 -9072 -9073 -9074 -9075 -9076 -9077 -9078 -9079 242 0
h 289 -9080 0
h 9070 -9080 0
h 9071 -9080 0
h 9072 -9080 0
h 9073 -9080 0
h 9074 -9080 0
h 9075 -9080 0
h 9076 -9080 0
h 9077 -9080 0
h 9078 -9080 0
h 9079 -9080 0
h -242 -9080 0
h -9081 -289 249 0
h 289 9081 0
h -249 9081 0
h -9082 -288 248 0
h 288 9082 0
h -248 9082 0
h -9083 -287 247 0
h 287 9083 0
h -247 9083 0
h -9084 -286 246 0
h 286 9084 0
h -246 9084 0
h -9085 -285 245 0
h 285 9085 0
h -245 9085 0
h -9086 -284 244 0
h 284 9086 0
h -244 9086 0
h -9087 -283 243 0
h 283 9087 0
h -243 9087 0
h -9088 -282 242 0
h 282 9088 0
h -242 9088 0
h 9089 -250 -9081 -9082 -9083 -9084 -9085 -9086 -9087 -9088 281 280 279 0
h 250 -9089 0
h 9081 -9089 0
h 9082 -9089 0
h 9083 -9089 0
h 9084 -9089 0
h 9085 -9089 0
h 9086 -9089 0
h 9087 -9089 0
h 9088 -9089 0
h -281 -9089 0
h -280 -9089 0
h -279 -9089 0
h 9090 -57 1 0
h 57 -9090 0
h -1 -9090 0
h 9091 -1 57 0
h 1 -9091 0
h -57 -9091 0
h 9092 -58 2 0
h 58 -9092 0
h -2 -9092 0
h 9093 -2 58 0
h 2 -9093 0
h -58 -9093 0
h 9094 -59 3 0
h 59 -9094 0
h -3 -9094 0
h 9095 -3 59 0
h 3 -9095 0
h -59 -9095 0
h 9096 -60 4 0
h 60 -9096 0
h -4 -9096 0
h 9097 -4 60 0
h 4 -9097 0
h -60 -9097 0
h -9098 -237 288 0
h 237 9098 0
h -288 9098 0
h -9099 -236 287 0
h 236 9099 0
h -287 9099 0
h -9100 -235 286 0
h 235 9100 0
h -286 9100 0
h -9101 -234 285 0
h 234 9101 0
h -285 9101 0
h -9102 -233 284 0
h 233 9102 0
h -284 9102 0
h -9103 -232 283 0
h 232 9103 0
h -283 9103 0
h -9104 -231 282 0
h 231 9104 0
h -282 9104 0
h -9105 -230 281 0
h 230 9105 0
h -281 9105 0
h -9106 -229 280 0
h 229 9106 0
h -280 9106 0
h -9107 -228 279 0
h 228 9107 0
h -279 9107 0
h 9108 -289 -9098 -9099 -9100 -9101 -9102 -9103 -9104 -9105 -9106 -9107 227 0
h 289 -9108 0
h 9098 -9108 0
h 9099 -9108 0
h 9100 -9108 0
h 9101 -9108 0
h 9102 -9108 0
h 9103 -9108 0
h 9104 -9108 0
h 9105 -9108 0
h 9106 -9108 0
h 9107 -9108 0
h -227 -9108 0
h -9109 -289 234 0
h 289 9109 0
h -234 9109 0
h -9110 -288 233 0
h 288 9110 0
h -233 9110 0
h -9111 -287 232 0
h 287 9111 0
h -232 9111 0
h -9112 -286 231 0
h 286 9112 0
h -231 9112 0
h -9113 -285 230 0
h 285 9113 0
h -230 9113 0
h -9114 -284 229 0
h 284 9114 0
h -229 9114 0
h -9115 -283 228 0
h 283 9115 0
h -228 9115 0
h -9116 -282 227 0
h 282 9116 0
h -227 9116 0
h 9117 -235 -9109 -9110 -9111 -9112 -9113 -9114 -9115 -9116 281 280 279 0
h 235 -9117 0
h 9109 -9117 0
h 9110 -9117 0
h 9111 -9117 0
h 9112 -9117 0
h 9113 -9117 0
h 9114 -9117 0
h 9115 -9117 0
h 9116 -9117 0
h -281 -9117 0
h -280 -9117 0
h -279 -9117 0
h 9118 -57 357 0
h 57 -9118 0
h -357 -9118 0
h 9119 -357 57 0
h 357 -9119 0
h -57 -9119 0
h 9120 -58 358 0
h 58 -9120 0
h -358 -9120 0
h 9121 -358 58 0
h 358 -9121 0
h -58 -9121 0
h 9122 -59 359 0
h 59 -9122 0
h -359 -9122 0
h 9123 -359 59 0
h 359 -9123 0
h -59 -9123 0
h 9124 -60 360 0
h 60 -9124 0
h -360 -9124 0
h 9125 -360 60 0
h 360 -9125 0
h -60 -9125 0
h -9126 -130 277 0
h 130 9126 0
h -277 9126 0
h -9127 -129 276 0
h 129 9127 0
h -276 9127 0
h -9128 -128 275 0
h 128 9128 0
h -275 9128 0
h -9129 -127 274 0
h 127 9129 0
h -274 9129 0
h -9130 -126 273 0
h 126 9130 0
h -273 9130 0
h -9131 -125 272 0
h 125 9131 0
h -272 9131 0
h -9132 -124 271 0
h 124 9132 0
h -271 9132 0
h -9133 -123 270 0
h 123 9133 0
h -270 9133 0
h -9134 -122 269 0
h 122 9134 0
h -269 9134 0
h -9135 -121 268 0
h 121 9135 0
h -268 9135 0
h 9136 -278 -9126 -9127 -9128 -9129 -9130 -9131 -9132 -9133 -9134 -9135 120 0
h 278 -9136 0
h 9126 -9136 0
h 9127 -9136 0
h 9128 -9136 0
h 9129 -9136 0
h 9130 -9136 0
h 9131 -9136 0
h 9132 -9136 0
h 9133 -9136 0
h 9134 -9136 0
h 9135 -9136 0
h -120 -9136 0
h -9137 -278 128 0
h 278 9137 0
h -128 9137 0
h -9138 -277 127 0
h 277 9138 0
h -127 9138 0
h -9139 -276 126 0
h 276 9139 0
h -126 9139 0
h -9140 -275 125 0
h 275 9140 0
h -125 9140 0
h -9141 -274 124 0
h 274 9141 0
h -124 9141 0
h -9142 -273 123 0
h 273 9142 0
h -123 9142 0
h -9143 -272 122 0
h 272 9143 0
h -122 9143 0
h -9144 -271 121 0
h 271 9144 0
h -121 9144 0
h -9145 -270 120 0
h 270 9145 0
h -120 9145 0
h 9146 -129 -9137 -9138 -9139 -9140 -9141 -9142 -9143 -9144 -9145 269 268 0
h 129 -9146 0
h 9137 -9146 0
h 9138 -9146 0
h 9139 -9146 0
h 9140 -9146 0
h 9141 -9146 0
h 9142 -9146 0
h 9143 -9146 0
h 9144 -9146 0
h 9145 -9146 0
h -269 -9146 0
h -268 -9146 0
h 9147 -42 219 0
h 42 -9147 0
h -219 -9147 0
h 9148 -219 42 0
h 219 -9148 0
h -42 -9148 0
h 9149 -43 220 0
h 43 -9149 0
h -220 -9149 0
h 9150 -220 43 0
h 220 -9150 0
h -43 -9150 0
h 9151 -44 221 0
h 44 -9151 0
h -221 -9151 0
h 9152 -221 44 0
h 221 -9152 0
h -44 -9152 0
h 9153 -45 222 0
h 45 -9153 0
h -222 -9153 0
h 9154 -222 45 0
h 222 -9154 0
h -45 -9154 0
h -9155 -108 277 0
h 108 9155 0
h -277 9155 0
h -9156 -107 276 0
h 107 9156 0
h -276 9156 0
h -9157 -106 275 0
h 106 9157 0
h -275 9157 0
h -9158 -105 274 0
h 105 9158 0
h -274 9158 0
h -9159 -104 273 0
h 104 9159 0
h -273 9159 0
h -9160 -103 272 0
h 103 9160 0
h -272 9160 0
h -9161 -102 271 0
h 102 9161 0
h -271 9161 0
h -9162 -101 270 0
h 101 9162 0
h -270 9162 0
h -9163 -100 269 0
h 100 9163 0
h -269 9163 0
h -9164 -99 268 0
h 99 9164 0
h -268 9164 0
h 9165 -278 -9155 -9156 -9157 -9158 -9159 -9160 -9161 -9162 -9163 -9164 98 0
h 278 -9165 0
h 9155 -9165 0
h 9156 -9165 0
h 9157 -9165 0
h 9158 -9165 0
h 9159 -9165 0
h 9160 -9165 0
h 9161 -9165 0
h 9162 -9165 0
h 9163 -9165 0
h 9164 -9165 0
h -98 -9165 0
h -9166 -278 106 0
h 278 9166 0
h -106 9166 0
h -9167 -277 105 0
h 277 9167 0
h -105 9167 0
h -9168 -276 104 0
h 276 9168 0
h -104 9168 0
h -9169 -275 103 0
h 275 9169 0
h -103 9169 0
h -9170 -274 102 0
h 274 9170 0
h -102 9170 0
h -9171 -273 101 0
h 273 9171 0
h -101 9171 0
h -9172 -272 100 0
h 272 9172 0
h -100 9172 0
h -9173 -271 99 0
h 271 9173 0
h -99 9173 0
h -9174 -270 98 0
h 270 9174 0
h -98 9174 0
h 9175 -107 -9166 -9167 -9168 -9169 -9170 -9171 -9172 -9173 -9174 269 268 0
h 107 -9175 0
h 9166 -9175 0
h 9167 -9175 0
h 9168 -9175 0
h 9169 -9175 0
h 9170 -9175 0
h 9171 -9175 0
h 9172 -9175 0
h 9173 -9175 0
h 9174 -9175 0
h -269 -9175 0
h -268 -9175 0
h 9176 -42 204 0
h 42 -9176 0
h -204 -9176 0
h 9177 -204 42 0
h 204 -9177 0
h -42 -9177 0
h 9178 -43 205 0
h 43 -9178 0
h -205 -9178 0
h 9179 -205 43 0
h 205 -9179 0
h -43 -9179 0
h 9180 -44 206 0
h 44 -9180 0
h -206 -9180 0
h 9181 -206 44 0
h 206 -9181 0
h -44 -9181 0
h 9182 -45 207 0
h 45 -9182 0
h -207 -9182 0
h 9183 -207 45 0
h 207 -9183 0
h -45 -9183 0
h -9184 -130 299 0
h 130 9184 0
h -299 9184 0
h -9185 -129 298 0
h 129 9185 0
h -298 9185 0
h -9186 -128 297 0
h 128 9186 0
h -297 9186 0
h -9187 -127 296 0
h 127 9187 0
h -296 9187 0
h -9188 -126 295 0
h 126 9188 0
h -295 9188 0
h -9189 -125 294 0
h 125 9189 0
h -294 9189 0
h -9190 -124 293 0
h 124 9190 0
h -293 9190 0
h -9191 -123 292 0
h 123 9191 0
h -292 9191 0
h -9192 -122 291 0
h 122 9192 0
h -291 9192 0
h -9193 -121 290 0
h 121 9193 0
h -290 9193 0
h 9194 -300 -9184 -9185 -9186 -9187 -9188 -9189 -9190 -9191 -9192 -9193 120 0
h 300 -9194 0
h 9184 -9194 0
h 9185 -9194 0
h 9186 -9194 0
h 9187 -9194 0
h 9188 -9194 0
h 9189 -9194 0
h 9190 -9194 0
h 9191 -9194 0
h 9192 -9194 0
h 9193 -9194 0
h -120 -9194 0
h -9195 -300 128 0
h 300 9195 0
h -128 9195 0
h -9196 -299 127 0
h 299 9196 0
h -127 9196 0
h -9197 -298 126 0
h 298 9197 0
h -126 9197 0
h -9198 -297 125 0
h 297 9198 0
h -125 9198 0
h -9199 -296 124 0
h 296 9199 0
h -124 9199 0
h -9200 -295 123 0
h 295 9200 0
h -123 9200 0
h -9201 -294 122 0
h 294 9201 0
h -122 9201 0
h -9202 -293 121 0
h 293 9202 0
h -121 9202 0
h -9203 -292 120 0
h 292 9203 0
h -120 9203 0
h 9204 -129 -9195 -9196 -9197 -9198 -9199 -9200 -9201 -9202 -9203 291 290 0
h 129 -9204 0
h 9195 -9204 0
h 9196 -9204 0
h 9197 -9204 0
h 9198 -9204 0
h 9199 -9204 0
h 9200 -9204 0
h 9201 -9204 0
h 9202 -9204 0
h 9203 -9204 0
h -291 -9204 0
h -290 -9204 0
h 9205 -61 219 0
h 61 -9205 0
h -219 -9205 0
h 9206 -219 61 0
h 219 -9206 0
h -61 -9206 0
h 9207 -62 220 0
h 62 -9207 0
h -220 -9207 0
h 9208 -220 62 0
h 220 -9208 0
h -62 -9208 0
h 9209 -63 221 0
h 63 -9209 0
h -221 -9209 0
h 9210 -221 63 0
h 221 -9210 0
h -63 -9210 0
h 9211 -64 222 0
h 64 -9211 0
h -222 -9211 0
h 9212 -222 64 0
h 222 -9212 0
h -64 -9212 0
h -9213 -108 299 0
h 108 9213 0
h -299 9213 0
h -9214 -107 298 0
h 107 9214 0
h -298 9214 0
h -9215 -106 297 0
h 106 9215 0
h -297 9215 0
h -9216 -105 296 0
h 105 9216 0
h -296 9216 0
h -9217 -104 295 0
h 104 9217 0
h -295 9217 0
h -9218 -103 294 0
h 103 9218 0
h -294 9218 0
h -9219 -102 293 0
h 102 9219 0
h -293 9219 0
h -9220 -101 292 0
h 101 9220 0
h -292 9220 0
h -9221 -100 291 0
h 100 9221 0
h -291 9221 0
h -9222 -99 290 0
h 99 9222 0
h -290 9222 0
h 9223 -300 -9213 -9214 -9215 -9216 -9217 -9218 -9219 -9220 -9221 -9222 98 0
h 300 -9223 0
h 9213 -9223 0
h 9214 -9223 0
h 9215 -9223 0
h 9216 -9223 0
h 9217 -9223 0
h 9218 -9223 0
h 9219 -9223 0
h 9220 -9223 0
h 9221 -9223 0
h 9222 -9223 0
h -98 -9223 0
h -9224 -300 106 0
h 300 9224 0
h -106 9224 0
h -9225 -299 105 0
h 299 9225 0
h -105 9225 0
h -9226 -298 104 0
h 298 9226 0
h -104 9226 0
h -9227 -297 103 0
h 297 9227 0
h -103 9227 0
h -9228 -296 102 0
h 296 9228 0
h -102 9228 0
h -9229 -295 101 0
h 295 9229 0
h -101 9229 0
h -9230 -294 100 0
h 294 9230 0
h -100 9230 0
h -9231 -293 99 0
h 293 9231 0
h -99 9231 0
h -9232 -292 98 0
h 292 9232 0
h -98 9232 0
h 9233 -107 -9224 -9225 -9226 -9227 -9228 -9229 -9230 -9231 -9232 291 290 0
h 107 -9233 0
h 9224 -9233 0
h 9225 -9233 0
h 9226 -9233 0
h 9227 -9233 0
h 9228 -9233 0
h 9229 -9233 0
h 9230 -9233 0
h 9231 -9233 0
h 9232 -9233 0
h -291 -9233 0
h -290 -9233 0
h 9234 -61 204 0
h 61 -9234 0
h -204 -9234 0
h 9235 -204 61 0
h 204 -9235 0
h -61 -9235 0
h 9236 -62 205 0
h 62 -9236 0
h -205 -9236 0
h 9237 -205 62 0
h 205 -9237 0
h -62 -9237 0
h 9238 -63 206 0
h 63 -9238 0
h -206 -9238 0
h 9239 -206 63 0
h 206 -9239 0
h -63 -9239 0
h 9240 -64 207 0
h 64 -9240 0
h -207 -9240 0
h 9241 -207 64 0
h 207 -9241 0
h -64 -9241 0
h -9242 -130 288 0
h 130 9242 0
h -288 9242 0
h -9243 -129 287 0
h 129 9243 0
h -287 9243 0
h -9244 -128 286 0
h 128 9244 0
h -286 9244 0
h -9245 -127 285 0
h 127 9245 0
h -285 9245 0
h -9246 -126 284 0
h 126 9246 0
h -284 9246 0
h -9247 -125 283 0
h 125 9247 0
h -283 9247 0
h -9248 -124 282 0
h 124 9248 0
h -282 9248 0
h -9249 -123 281 0
h 123 9249 0
h -281 9249 0
h -9250 -122 280 0
h 122 9250 0
h -280 9250 0
h -9251 -121 279 0
h 121 9251 0
h -279 9251 0
h 9252 -289 -9242 -9243 -9244 -9245 -9246 -9247 -9248 -9249 -9250 -9251 120 0
h 289 -9252 0
h 9242 -9252 0
h 9243 -9252 0
h 9244 -9252 0
h 9245 -9252 0
h 9246 -9252 0
h 9247 -9252 0
h 9248 -9252 0
h 9249 -9252 0
h 9250 -9252 0
h 9251 -9252 0
h -120 -9252 0
h -9253 -289 128 0
h 289 9253 0
h -128 9253 0
h -9254 -288 127 0
h 288 9254 0
h -127 9254 0
h -9255 -287 126 0
h 287 9255 0
h -126 9255 0
h -9256 -286 125 0
h 286 9256 0
h -125 9256 0
h -9257 -285 124 0
h 285 9257 0
h -124 9257 0
h -9258 -284 123 0
h 284 9258 0
h -123 9258 0
h -9259 -283 122 0
h 283 9259 0
h -122 9259 0
h -9260 -282 121 0
h 282 9260 0
h -121 9260 0
h -9261 -281 120 0
h 281 9261 0
h -120 9261 0
h 9262 -129 -9253 -9254 -9255 -9256 -9257 -9258 -9259 -9260 -9261 280 279 0
h 129 -9262 0
h 9253 -9262 0
h 9254 -9262 0
h 9255 -9262 0
h 9256 -9262 0
h 9257 -9262 0
h 9258 -9262 0
h 9259 -9262 0
h 9260 -9262 0
h 9261 -9262 0
h -280 -9262 0
h -279 -9262 0
h 9263 -57 219 0
h 57 -9263 0
h -219 -9263 0
h 9264 -219 57 0
h 219 -9264 0
h -57 -9264 0
h 9265 -58 220 0
h 58 -9265 0
h -220 -9265 0
h 9266 -220 58 0
h 220 -9266 0
h -58 -9266 0
h 9267 -59 221 0
h 59 -9267 0
h -221 -9267 0
h 9268 -221 59 0
h 221 -9268 0
h -59 -9268 0
h 9269 -60 222 0
h 60 -9269 0
h -222 -9269 0
h 9270 -222 60 0
h 222 -9270 0
h -60 -9270 0
h -9271 -108 288 0
h 108 9271 0
h -288 9271 0
h -9272 -107 287 0
h 107 9272 0
h -287 9272 0
h -9273 -106 286 0
h 106 9273 0
h -286 9273 0
h -9274 -105 285 0
h 105 9274 0
h -285 9274 0
h -9275 -104 284 0
h 104 9275 0
h -284 9275 0
h -9276 -103 283 0
h 103 9276 0
h -283 9276 0
h -9277 -102 282 0
h 102 9277 0
h -282 9277 0
h -9278 -101 281 0
h 101 9278 0
h -281 9278 0
h -9279 -100 280 0
h 100 9279 0
h -280 9279 0
h -9280 -99 279 0
h 99 9280 0
h -279 9280 0
h 9281 -289 -9271 -9272 -9273 -9274 -9275 -9276 -9277 -9278 -9279 -9280 98 0
h 289 -9281 0
h 9271 -9281 0
h 9272 -9281 0
h 9273 -9281 0
h 9274 -9281 0
h 9275 -9281 0
h 9276 -9281 0
h 9277 -9281 0
h 9278 -9281 0
h 9279 -9281 0
h 9280 -9281 0
h -98 -9281 0
h -9282 -289 106 0
h 289 9282 0
h -106 9282 0
h -9283 -288 105 0
h 288 9283 0
h -105 9283 0
h -9284 -287 104 0
h 287 9284 0
h -104 9284 0
h -9285 -286 103 0
h 286 9285 0
h -103 9285 0
h -9286 -285 102 0
h 285 9286 0
h -102 9286 0
h -9287 -284 101 0
h 284 9287 0
h -101 9287 0
h -9288 -283 100 0
h 283 9288 0
h -100 9288 0
h -9289 -282 99 0
h 282 9289 0
h -99 9289 0
h -9290 -281 98 0
h 281 9290 0
h -98 9290 0
h 9291 -107 -9282 -9283 -9284 -9285 -9286 -9287 -9288 -9289 -9290 280 279 0
h 107 -9291 0
h 9282 -9291 0
h 9283 -9291 0
h 9284 -9291 0
h 9285 -9291 0
h 9286 -9291 0
h 9287 -9291 0
h 9288 -9291 0
h 9289 -9291 0
h 9290 -9291 0
h -280 -9291 0
h -279 -9291 0
h 9292 -57 204 0
h 57 -9292 0
h -204 -9292 0
h 9293 -204 57 0
h 204 -9293 0
h -57 -9293 0
h 9294 -58 205 0
h 58 -9294 0
h -205 -9294 0
h 9295 -205 58 0
h 205 -9295 0
h -58 -9295 0
h 9296 -59 206 0
h 59 -9296 0
h -206 -9296 0
h 9297 -206 59 0
h 206 -9297 0
h -59 -9297 0
h 9298 -60 207 0
h 60 -9298 0
h -207 -9298 0
h 9299 -207 60 0
h 207 -9299 0
h -60 -9299 0
h -9300 -56 139 0
h 56 9300 0
h -139 9300 0
h -9301 -55 138 0
h 55 9301 0
h -138 9301 0
h -9302 -54 137 0
h 54 9302 0
h -137 9302 0
h -9303 -53 136 0
h 53 9303 0
h -136 9303 0
h -9304 -52 135 0
h 52 9304 0
h -135 9304 0
h -9305 -51 134 0
h 51 9305 0
h -134 9305 0
h -9306 -50 133 0
h 50 9306 0
h -133 9306 0
h -9307 -49 132 0
h 49 9307 0
h -132 9307 0
h -9308 -48 131 0
h 48 9308 0
h -131 9308 0
h 9309 -140 -9300 -9301 -9302 -9303 -9304 -9305 -9306 -9307 -9308 47 46 0
h 140 -9309 0
h 9300 -9309 0
h 9301 -9309 0
h 9302 -9309 0
h 9303 -9309 0
h 9304 -9309 0
h 9305 -9309 0
h 9306 -9309 0
h 9307 -9309 0
h 9308 -9309 0
h -47 -9309 0
h -46 -9309 0
h -9310 -141 53 0
h 141 9310 0
h -53 9310 0
h -9311 -140 52 0
h 140 9311 0
h -52 9311 0
h -9312 -139 51 0
h 139 9312 0
h -51 9312 0
h -9313 -138 50 0
h 138 9313 0
h -50 9313 0
h -9314 -137 49 0
h 137 9314 0
h -49 9314 0
h -9315 -136 48 0
h 136 9315 0
h -48 9315 0
h -9316 -135 47 0
h 135 9316 0
h -47 9316 0
h -9317 -134 46 0
h 134 9317 0
h -46 9317 0
h 9318 -54 -9310 -9311 -9312 -9313 -9314 -9315 -9316 -9317 133 132 131 0
h 54 -9318 0
h 9310 -9318 0
h 9311 -9318 0
h 9312 -9318 0
h 9313 -9318 0
h 9314 -9318 0
h 9315 -9318 0
h 9316 -9318 0
h 9317 -9318 0
h -133 -9318 0
h -132 -9318 0
h -131 -9318 0
h 9319 -223 189 0
h 223 -9319 0
h -189 -9319 0
h 9320 -189 223 0
h 189 -9320 0
h -223 -9320 0
h 9321 -224 190 0
h 224 -9321 0
h -190 -9321 0
h 9322 -190 224 0
h 190 -9322 0
h -224 -9322 0
h 9323 -225 191 0
h 225 -9323 0
h -191 -9323 0
h 9324 -191 225 0
h 191 -9324 0
h -225 -9324 0
h 9325 -226 192 0
h 226 -9325 0
h -192 -9325 0
h 9326 -192 226 0
h 192 -9326 0
h -226 -9326 0
h -9327 -41 139 0
h 41 9327 0
h -139 9327 0
h -9328 -40 138 0
h 40 9328 0
h -138 9328 0
h -9329 -39 137 0
h 39 9329 0
h -137 9329 0
h -9330 -38 136 0
h 38 9330 0
h -136 9330 0
h -9331 -37 135 0
h 37 9331 0
h -135 9331 0
h -9332 -36 134 0
h 36 9332 0
h -134 9332 0
h -9333 -35 133 0
h 35 9333 0
h -133 9333 0
h -9334 -34 132 0
h 34 9334 0
h -132 9334 0
h -9335 -33 131 0
h 33 9335 0
h -131 9335 0
h 9336 -140 -9327 -9328 -9329 -9330 -9331 -9332 -9333 -9334 -9335 32 31 0
h 140 -9336 0
h 9327 -9336 0
h 9328 -9336 0
h 9329 -9336 0
h 9330 -9336 0
h 9331 -9336 0
h 9332 -9336 0
h 9333 -9336 0
h 9334 -9336 0
h 9335 -9336 0
h -32 -9336 0
h -31 -9336 0
h -9337 -141 40 0
h 141 9337 0
h -40 9337 0
h -9338 -140 39 0
h 140 9338 0
h -39 9338 0
h -9339 -139 38 0
h 139 9339 0
h -38 9339 0
h -9340 -138 37 0
h 138 9340 0
h -37 9340 0
h -9341 -137 36 0
h 137 9341 0
h -36 9341 0
h -9342 -136 35 0
h 136 9342 0
h -35 9342 0
h -9343 -135 34 0
h 135 9343 0
h -34 9343 0
h -9344 -134 33 0
h 134 9344 0
h -33 9344 0
h -9345 -133 32 0
h 133 9345 0
h -32 9345 0
h -9346 -132 31 0
h 132 9346 0
h -31 9346 0
h 9347 -41 -9337 -9338 -9339 -9340 -9341 -9342 -9343 -9344 -9345 -9346 131 0
h 41 -9347 0
h 9337 -9347 0
h 9338 -9347 0
h 9339 -9347 0
h 9340 -9347 0
h 9341 -9347 0
h 9342 -9347 0
h 9343 -9347 0
h 9344 -9347 0
h 9345 -9347 0
h 9346 -9347 0
h -131 -9347 0
h 9348 -223 181 0
h 223 -9348 0
h -181 -9348 0
h 9349 -181 223 0
h 181 -9349 0
h -223 -9349 0
h 9350 -224 182 0
h 224 -9350 0
h -182 -9350 0
h 9351 -182 224 0
h 182 -9351 0
h -224 -9351 0
h 9352 -225 183 0
h 225 -9352 0
h -183 -9352 0
h 9353 -183 225 0
h 183 -9353 0
h -225 -9353 0
h 9354 -226 184 0
h 226 -9354 0
h -184 -9354 0
h 9355 -184 226 0
h 184 -9355 0
h -226 -9355 0
h -9356 -56 95 0
h 56 9356 0
h -95 9356 0
h -9357 -55 94 0
h 55 9357 0
h -94 9357 0
h -9358 -54 93 0
h 54 9358 0
h -93 9358 0
h -9359 -53 92 0
h 53 9359 0
h -92 9359 0
h -9360 -52 91 0
h 52 9360 0
h -91 9360 0
h -9361 -51 90 0
h 51 9361 0
h -90 9361 0
h -9362 -50 89 0
h 50 9362 0
h -89 9362 0
h -9363 -49 88 0
h 49 9363 0
h -88 9363 0
h -9364 -48 87 0
h 48 9364 0
h -87 9364 0
h 9365 -96 -9356 -9357 -9358 -9359 -9360 -9361 -9362 -9363 -9364 47 46 0
h 96 -9365 0
h 9356 -9365 0
h 9357 -9365 0
h 9358 -9365 0
h 9359 -9365 0
h 9360 -9365 0
h 9361 -9365 0
h 9362 -9365 0
h 9363 -9365 0
h 9364 -9365 0
h -47 -9365 0
h -46 -9365 0
h -9366 -97 53 0
h 97 9366 0
h -53 9366 0
h -9367 -96 52 0
h 96 9367 0
h -52 9367 0
h -9368 -95 51 0
h 95 9368 0
h -51 9368 0
h -9369 -94 50 0
h 94 9369 0
h -50 9369 0
h -9370 -93 49 0
h 93 9370 0
h -49 9370 0
h -9371 -92 48 0
h 92 9371 0
h -48 9371 0
h -9372 -91 47 0
h 91 9372 0
h -47 9372 0
h -9373 -90 46 0
h 90 9373 0
h -46 9373 0
h 9374 -54 -9366 -9367 -9368 -9369 -9370 -9371 -9372 -9373 89 88 87 0
h 54 -9374 0
h 9366 -9374 0
h 9367 -9374 0
h 9368 -9374 0
h 9369 -9374 0
h 9370 -9374 0
h 9371 -9374 0
h 9372 -9374 0
h 9373 -9374 0
h -89 -9374 0
h -88 -9374 0
h -87 -9374 0
h 9375 -238 189 0
h 238 -9375 0
h -189 -9375 0
h 9376 -189 238 0
h 189 -9376 0
h -238 -9376 0
h 9377 -239 190 0
h 239 -9377 0
h -190 -9377 0
h 9378 -190 239 0
h 190 -9378 0
h -239 -9378 0
h 9379 -240 191 0
h 240 -9379 0
h -191 -9379 0
h 9380 -191 240 0
h 191 -9380 0
h -240 -9380 0
h 9381 -241 192 0
h 241 -9381 0
h -192 -9381 0
h 9382 -192 241 0
h 192 -9382 0
h -241 -9382 0
h -9383 -56 117 0
h 56 9383 0
h -117 9383 0
h -9384 -55 116 0
h 55 9384 0
h -116 9384 0
h -9385 -54 115 0
h 54 9385 0
h -115 9385 0
h -9386 -53 114 0
h 53 9386 0
h -114 9386 0
h -9387 -52 113 0
h 52 9387 0
h -113 9387 0
h -9388 -51 112 0
h 51 9388 0
h -112 9388 0
h -9389 -50 111 0
h 50 9389 0
h -111 9389 0
h -9390 -49 110 0
h 49 9390 0
h -110 9390 0
h -9391 -48 109 0
h 48 9391 0
h -109 9391 0
h 9392 -118 -9383 -9384 -9385 -9386 -9387 -9388 -9389 -9390 -9391 47 46 0
h 118 -9392 0
h 9383 -9392 0
h 9384 -9392 0
h 9385 -9392 0
h 9386 -9392 0
h 9387 -9392 0
h 9388 -9392 0
h 9389 -9392 0
h 9390 -9392 0
h 9391 -9392 0
h -47 -9392 0
h -46 -9392 0
h -9393 -119 53 0
h 119 9393 0
h -53 9393 0
h -9394 -118 52 0
h 118 9394 0
h -52 9394 0
h -9395 -117 51 0
h 117 9395 0
h -51 9395 0
h -9396 -116 50 0
h 116 9396 0
h -50 9396 0
h -9397 -115 49 0
h 115 9397 0
h -49 9397 0
h -9398 -114 48 0
h 114 9398 0
h -48 9398 0
h -9399 -113 47 0
h 113 9399 0
h -47 9399 0
h -9400 -112 46 0
h 112 9400 0
h -46 9400 0
h 9401 -54 -9393 -9394 -9395 -9396 -9397 -9398 -9399 -9400 111 110 109 0
h 54 -9401 0
h 9393 -9401 0
h 9394 -9401 0
h 9395 -9401 0
h 9396 -9401 0
h 9397 -9401 0
h 9398 -9401 0
h 9399 -9401 0
h 9400 -9401 0
h -111 -9401 0
h -110 -9401 0
h -109 -9401 0
h 9402 -253 189 0
h 253 -9402 0
h -189 -9402 0
h 9403 -189 253 0
h 189 -9403 0
h -253 -9403 0
h 9404 -254 190 0
h 254 -9404 0
h -190 -9404 0
h 9405 -190 254 0
h 190 -9405 0
h -254 -9405 0
h 9406 -255 191 0
h 255 -9406 0
h -191 -9406 0
h 9407 -191 255 0
h 191 -9407 0
h -255 -9407 0
h 9408 -256 192 0
h 256 -9408 0
h -192 -9408 0
h 9409 -192 256 0
h 192 -9409 0
h -256 -9409 0
h -9410 -41 95 0
h 41 9410 0
h -95 9410 0
h -9411 -40 94 0
h 40 9411 0
h -94 9411 0
h -9412 -39 93 0
h 39 9412 0
h -93 9412 0
h -9413 -38 92 0
h 38 9413 0
h -92 9413 0
h -9414 -37 91 0
h 37 9414 0
h -91 9414 0
h -9415 -36 90 0
h 36 9415 0
h -90 9415 0
h -9416 -35 89 0
h 35 9416 0
h -89 9416 0
h -9417 -34 88 0
h 34 9417 0
h -88 9417 0
h -9418 -33 87 0
h 33 9418 0
h -87 9418 0
h 9419 -96 -9410 -9411 -9412 -9413 -9414 -9415 -9416 -9417 -9418 32 31 0
h 96 -9419 0
h 9410 -9419 0
h 9411 -9419 0
h 9412 -9419 0
h 9413 -9419 0
h 9414 -9419 0
h 9415 -9419 0
h 9416 -9419 0
h 9417 -9419 0
h 9418 -9419 0
h -32 -9419 0
h -31 -9419 0
h -9420 -97 40 0
h 97 9420 0
h -40 9420 0
h -9421 -96 39 0
h 96 9421 0
h -39 9421 0
h -9422 -95 38 0
h 95 9422 0
h -38 9422 0
h -9423 -94 37 0
h 94 9423 0
h -37 9423 0
h -9424 -93 36 0
h 93 9424 0
h -36 9424 0
h -9425 -92 35 0
h 92 9425 0
h -35 9425 0
h -9426 -91 34 0
h 91 9426 0
h -34 9426 0
h -9427 -90 33 0
h 90 9427 0
h -33 9427 0
h -9428 -89 32 0
h 89 9428 0
h -32 9428 0
h -9429 -88 31 0
h 88 9429 0
h -31 9429 0
h 9430 -41 -9420 -9421 -9422 -9423 -9424 -9425 -9426 -9427 -9428 -9429 87 0
h 41 -9430 0
h 9420 -9430 0
h 9421 -9430 0
h 9422 -9430 0
h 9423 -9430 0
h 9424 -9430 0
h 9425 -9430 0
h 9426 -9430 0
h 9427 -9430 0
h 9428 -9430 0
h 9429 -9430 0
h -87 -9430 0
h 9431 -238 181 0
h 238 -9431 0
h -181 -9431 0
h 9432 -181 238 0
h 181 -9432 0
h -238 -9432 0
h 9433 -239 182 0
h 239 -9433 0
h -182 -9433 0
h 9434 -182 239 0
h 182 -9434 0
h -239 -9434 0
h 9435 -240 183 0
h 240 -9435 0
h -183 -9435 0
h 9436 -183 240 0
h 183 -9436 0
h -240 -9436 0
h 9437 -241 184 0
h 241 -9437 0
h -184 -9437 0
h 9438 -184 241 0
h 184 -9438 0
h -241 -9438 0
h -9439 -41 117 0
h 41 9439 0
h -117 9439 0
h -9440 -40 116 0
h 40 9440 0
h -116 9440 0
h -9441 -39 115 0
h 39 9441 0
h -115 9441 0
h -9442 -38 114 0
h 38 9442 0
h -114 9442 0
h -9443 -37 113 0
h 37 9443 0
h -113 9443 0
h -9444 -36 112 0
h 36 9444 0
h -112 9444 0
h -9445 -35 111 0
h 35 9445 0
h -111 9445 0
h -9446 -34 110 0
h 34 9446 0
h -110 9446 0
h -9447 -33 109 0
h 33 9447 0
h -109 9447 0
h 9448 -118 -9439 -9440 -9441 -9442 -9443 -9444 -9445 -9446 -9447 32 31 0
h 118 -9448 0
h 9439 -9448 0
h 9440 -9448 0
h 9441 -9448 0
h 9442 -9448 0
h 9443 -9448 0
h 9444 -9448 0
h 9445 -9448 0
h 9446 -9448 0
h 9447 -9448 0
h -32 -9448 0
h -31 -9448 0
h -9449 -119 40 0
h 119 9449 0
h -40 9449 0
h -9450 -118 39 0
h 118 9450 0
h -39 9450 0
h -9451 -117 38 0
h 117 9451 0
h -38 9451 0
h -9452 -116 37 0
h 116 9452 0
h -37 9452 0
h -9453 -115 36 0
h 115 9453 0
h -36 9453 0
h -9454 -114 35 0
h 114 9454 0
h -35 9454 0
h -9455 -113 34 0
h 113 9455 0
h -34 9455 0
h -9456 -112 33 0
h 112 9456 0
h -33 9456 0
h -9457 -111 32 0
h 111 9457 0
h -32 9457 0
h -9458 -110 31 0
h 110 9458 0
h -31 9458 0
h 9459 -41 -9449 -9450 -9451 -9452 -9453 -9454 -9455 -9456 -9457 -9458 109 0
h 41 -9459 0
h 9449 -9459 0
h 9450 -9459 0
h 9451 -9459 0
h 9452 -9459 0
h 9453 -9459 0
h 9454 -9459 0
h 9455 -9459 0
h 9456 -9459 0
h 9457 -9459 0
h 9458 -9459 0
h -109 -9459 0
h 9460 -253 181 0
h 253 -9460 0
h -181 -9460 0
h 9461 -181 253 0
h 181 -9461 0
h -253 -9461 0
h 9462 -254 182 0
h 254 -9462 0
h -182 -9462 0
h 9463 -182 254 0
h 182 -9463 0
h -254 -9463 0
h 9464 -255 183 0
h 255 -9464 0
h -183 -9464 0
h 9465 -183 255 0
h 183 -9465 0
h -255 -9465 0
h 9466 -256 184 0
h 256 -9466 0
h -184 -9466 0
h 9467 -184 256 0
h 184 -9467 0
h -256 -9467 0
h -9468 -56 277 0
h 56 9468 0
h -277 9468 0
h -9469 -55 276 0
h 55 9469 0
h -276 9469 0
h -9470 -54 275 0
h 54 9470 0
h -275 9470 0
h -9471 -53 274 0
h 53 9471 0
h -274 9471 0
h -9472 -52 273 0
h 52 9472 0
h -273 9472 0
h -9473 -51 272 0
h 51 9473 0
h -272 9473 0
h -9474 -50 271 0
h 50 9474 0
h -271 9474 0
h -9475 -49 270 0
h 49 9475 0
h -270 9475 0
h -9476 -48 269 0
h 48 9476 0
h -269 9476 0
h -9477 -47 268 0
h 47 9477 0
h -268 9477 0
h 9478 -278 -9468 -9469 -9470 -9471 -9472 -9473 -9474 -9475 -9476 -9477 46 0
h 278 -9478 0
h 9468 -9478 0
h 9469 -9478 0
h 9470 -9478 0
h 9471 -9478 0
h 9472 -9478 0
h 9473 -9478 0
h 9474 -9478 0
h 9475 -9478 0
h 9476 -9478 0
h 9477 -9478 0
h -46 -9478 0
h -9479 -278 53 0
h 278 9479 0
h -53 9479 0
h -9480 -277 52 0
h 277 9480 0
h -52 9480 0
h -9481 -276 51 0
h 276 9481 0
h -51 9481 0
h -9482 -275 50 0
h 275 9482 0
h -50 9482 0
h -9483 -274 49 0
h 274 9483 0
h -49 9483 0
h -9484 -273 48 0
h 273 9484 0
h -48 9484 0
h -9485 -272 47 0
h 272 9485 0
h -47 9485 0
h -9486 -271 46 0
h 271 9486 0
h -46 9486 0
h 9487 -54 -9479 -9480 -9481 -9482 -9483 -9484 -9485 -9486 270 269 268 0
h 54 -9487 0
h 9479 -9487 0
h 9480 -9487 0
h 9481 -9487 0
h 9482 -9487 0
h 9483 -9487 0
h 9484 -9487 0
h 9485 -9487 0
h 9486 -9487 0
h -270 -9487 0
h -269 -9487 0
h -268 -9487 0
h 9488 -42 189 0
h 42 -9488 0
h -189 -9488 0
h 9489 -189 42 0
h 189 -9489 0
h -42 -9489 0
h 9490 -43 190 0
h 43 -9490 0
h -190 -9490 0
h 9491 -190 43 0
h 190 -9491 0
h -43 -9491 0
h 9492 -44 191 0
h 44 -9492 0
h -191 -9492 0
h 9493 -191 44 0
h 191 -9493 0
h -44 -9493 0
h 9494 -45 192 0
h 45 -9494 0
h -192 -9494 0
h 9495 -192 45 0
h 192 -9495 0
h -45 -9495 0
h -9496 -56 299 0
h 56 9496 0
h -299 9496 0
h -9497 -55 298 0
h 55 9497 0
h -298 9497 0
h -9498 -54 297 0
h 54 9498 0
h -297 9498 0
h -9499 -53 296 0
h 53 9499 0
h -296 9499 0
h -9500 -52 295 0
h 52 9500 0
h -295 9500 0
h -9501 -51 294 0
h 51 9501 0
h -294 9501 0
h -9502 -50 293 0
h 50 9502 0
h -293 9502 0
h -9503 -49 292 0
h 49 9503 0
h -292 9503 0
h -9504 -48 291 0
h 48 9504 0
h -291 9504 0
h -9505 -47 290 0
h 47 9505 0
h -290 9505 0
h 9506 -300 -9496 -9497 -9498 -9499 -9500 -9501 -9502 -9503 -9504 -9505 46 0
h 300 -9506 0
h 9496 -9506 0
h 9497 -9506 0
h 9498 -9506 0
h 9499 -9506 0
h 9500 -9506 0
h 9501 -9506 0
h 9502 -9506 0
h 9503 -9506 0
h 9504 -9506 0
h 9505 -9506 0
h -46 -9506 0
h -9507 -300 53 0
h 300 9507 0
h -53 9507 0
h -9508 -299 52 0
h 299 9508 0
h -52 9508 0
h -9509 -298 51 0
h 298 9509 0
h -51 9509 0
h -9510 -297 50 0
h 297 9510 0
h -50 9510 0
h -9511 -296 49 0
h 296 9511 0
h -49 9511 0
h -9512 -295 48 0
h 295 9512 0
h -48 9512 0
h -9513 -294 47 0
h 294 9513 0
h -47 9513 0
h -9514 -293 46 0
h 293 9514 0
h -46 9514 0
h 9515 -54 -9507 -9508 -9509 -9510 -9511 -9512 -9513 -9514 292 291 290 0
h 54 -9515 0
h 9507 -9515 0
h 9508 -9515 0
h 9509 -9515 0
h 9510 -9515 0
h 9511 -9515 0
h 9512 -9515 0
h 9513 -9515 0
h 9514 -9515 0
h -292 -9515 0
h -291 -9515 0
h -290 -9515 0
h 9516 -61 189 0
h 61 -9516 0
h -189 -9516 0
h 9517 -189 61 0
h 189 -9517 0
h -61 -9517 0
h 9518 -62 190 0
h 62 -9518 0
h -190 -9518 0
h 9519 -190 62 0
h 190 -9519 0
h -62 -9519 0
h 9520 -63 191 0
h 63 -9520 0
h -191 -9520 0
h 9521 -191 63 0
h 191 -9521 0
h -63 -9521 0
h 9522 -64 192 0
h 64 -9522 0
h -192 -9522 0
h 9523 -192 64 0
h 192 -9523 0
h -64 -9523 0
h -9524 -56 288 0
h 56 9524 0
h -288 9524 0
h -9525 -55 287 0
h 55 9525 0
h -287 9525 0
h -9526 -54 286 0
h 54 9526 0
h -286 9526 0
h -9527 -53 285 0
h 53 9527 0
h -285 9527 0
h -9528 -52 284 0
h 52 9528 0
h -284 9528 0
h -9529 -51 283 0
h 51 9529 0
h -283 9529 0
h -9530 -50 282 0
h 50 9530 0
h -282 9530 0
h -9531 -49 281 0
h 49 9531 0
h -281 9531 0
h -9532 -48 280 0
h 48 9532 0
h -280 9532 0
h -9533 -47 279 0
h 47 9533 0
h -279 9533 0
h 9534 -289 -9524 -9525 -9526 -9527 -9528 -9529 -9530 -9531 -9532 -9533 46 0
h 289 -9534 0
h 9524 -9534 0
h 9525 -9534 0
h 9526 -9534 0
h 9527 -9534 0
h 9528 -9534 0
h 9529 -9534 0
h 9530 -9534 0
h 9531 -9534 0
h 9532 -9534 0
h 9533 -9534 0
h -46 -9534 0
h -9535 -289 53 0
h 289 9535 0
h -53 9535 0
h -9536 -288 52 0
h 288 9536 0
h -52 9536 0
h -9537 -287 51 0
h 287 9537 0
h -51 9537 0
h -9538 -286 50 0
h 286 9538 0
h -50 9538 0
h -9539 -285 49 0
h 285 9539 0
h -49 9539 0
h -9540 -284 48 0
h 284 9540 0
h -48 9540 0
h -9541 -283 47 0
h 283 9541 0
h -47 9541 0
h -9542 -282 46 0
h 282 9542 0
h -46 9542 0
h 9543 -54 -9535 -9536 -9537 -9538 -9539 -9540 -9541 -9542 281 280 279 0
h 54 -9543 0
h 9535 -9543 0
h 9536 -9543 0
h 9537 -9543 0
h 9538 -9543 0
h 9539 -9543 0
h 9540 -9543 0
h 9541 -9543 0
h 9542 -9543 0
h -281 -9543 0
h -280 -9543 0
h -279 -9543 0
h 9544 -57 189 0
h 57 -9544 0
h -189 -9544 0
h 9545 -189 57 0
h 189 -9545 0
h -57 -9545 0
h 9546 -58 190 0
h 58 -9546 0
h -190 -9546 0
h 9547 -190 58 0
h 190 -9547 0
h -58 -9547 0
h 9548 -59 191 0
h 59 -9548 0
h -191 -9548 0
h 9549 -191 59 0
h 191 -9549 0
h -59 -9549 0
h 9550 -60 192 0
h 60 -9550 0
h -192 -9550 0
h 9551 -192 60 0
h 192 -9551 0
h -60 -9551 0
h -9552 -41 277 0
h 41 9552 0
h -277 9552 0
h -9553 -40 276 0
h 40 9553 0
h -276 9553 0
h -9554 -39 275 0
h 39 9554 0
h -275 9554 0
h -9555 -38 274 0
h 38 9555 0
h -274 9555 0
h -9556 -37 273 0
h 37 9556 0
h -273 9556 0
h -9557 -36 272 0
h 36 9557 0
h -272 9557 0
h -9558 -35 271 0
h 35 9558 0
h -271 9558 0
h -9559 -34 270 0
h 34 9559 0
h -270 9559 0
h -9560 -33 269 0
h 33 9560 0
h -269 9560 0
h -9561 -32 268 0
h 32 9561 0
h -268 9561 0
h 9562 -278 -9552 -9553 -9554 -9555 -9556 -9557 -9558 -9559 -9560 -9561 31 0
h 278 -9562 0
h 9552 -9562 0
h 9553 -9562 0
h 9554 -9562 0
h 9555 -9562 0
h 9556 -9562 0
h 9557 -9562 0
h 9558 -9562 0
h 9559 -9562 0
h 9560 -9562 0
h 9561 -9562 0
h -31 -9562 0
h -9563 -278 40 0
h 278 9563 0
h -40 9563 0
h -9564 -277 39 0
h 277 9564 0
h -39 9564 0
h -9565 -276 38 0
h 276 9565 0
h -38 9565 0
h -9566 -275 37 0
h 275 9566 0
h -37 9566 0
h -9567 -274 36 0
h 274 9567 0
h -36 9567 0
h -9568 -273 35 0
h 273 9568 0
h -35 9568 0
h -9569 -272 34 0
h 272 9569 0
h -34 9569 0
h -9570 -271 33 0
h 271 9570 0
h -33 9570 0
h -9571 -270 32 0
h 270 9571 0
h -32 9571 0
h -9572 -269 31 0
h 269 9572 0
h -31 9572 0
h 9573 -41 -9563 -9564 -9565 -9566 -9567 -9568 -9569 -9570 -9571 -9572 268 0
h 41 -9573 0
h 9563 -9573 0
h 9564 -9573 0
h 9565 -9573 0
h 9566 -9573 0
h 9567 -9573 0
h 9568 -9573 0
h 9569 -9573 0
h 9570 -9573 0
h 9571 -9573 0
h 9572 -9573 0
h -268 -9573 0
h 9574 -42 181 0
h 42 -9574 0
h -181 -9574 0
h 9575 -181 42 0
h 181 -9575 0
h -42 -9575 0
h 9576 -43 182 0
h 43 -9576 0
h -182 -9576 0
h 9577 -182 43 0
h 182 -9577 0
h -43 -9577 0
h 9578 -44 183 0
h 44 -9578 0
h -183 -9578 0
h 9579 -183 44 0
h 183 -9579 0
h -44 -9579 0
h 9580 -45 184 0
h 45 -9580 0
h -184 -9580 0
h 9581 -184 45 0
h 184 -9581 0
h -45 -9581 0
h -9582 -41 299 0
h 41 9582 0
h -299 9582 0
h -9583 -40 298 0
h 40 9583 0
h -298 9583 0
h -9584 -39 297 0
h 39 9584 0
h -297 9584 0
h -9585 -38 296 0
h 38 9585 0
h -296 9585 0
h -9586 -37 295 0
h 37 9586 0
h -295 9586 0
h -9587 -36 294 0
h 36 9587 0
h -294 9587 0
h -9588 -35 293 0
h 35 9588 0
h -293 9588 0
h -9589 -34 292 0
h 34 9589 0
h -292 9589 0
h -9590 -33 291 0
h 33 9590 0
h -291 9590 0
h -9591 -32 290 0
h 32 9591 0
h -290 9591 0
h 9592 -300 -9582 -9583 -9584 -9585 -9586 -9587 -9588 -9589 -9590 -9591 31 0
h 300 -9592 0
h 9582 -9592 0
h 9583 -9592 0
h 9584 -9592 0
h 9585 -9592 0
h 9586 -9592 0
h 9587 -9592 0
h 9588 -9592 0
h 9589 -9592 0
h 9590 -9592 0
h 9591 -9592 0
h -31 -9592 0
h -9593 -300 40 0
h 300 9593 0
h -40 9593 0
h -9594 -299 39 0
h 299 9594 0
h -39 9594 0
h -9595 -298 38 0
h 298 9595 0
h -38 9595 0
h -9596 -297 37 0
h 297 9596 0
h -37 9596 0
h -9597 -296 36 0
h 296 9597 0
h -36 9597 0
h -9598 -295 35 0
h 295 9598 0
h -35 9598 0
h -9599 -294 34 0
h 294 9599 0
h -34 9599 0
h -9600 -293 33 0
h 293 9600 0
h -33 9600 0
h -9601 -292 32 0
h 292 9601 0
h -32 9601 0
h -9602 -291 31 0
h 291 9602 0
h -31 9602 0
h 9603 -41 -9593 -9594 -9595 -9596 -9597 -9598 -9599 -9600 -9601 -9602 290 0
h 41 -9603 0
h 9593 -9603 0
h 9594 -9603 0
h 9595 -9603 0
h 9596 -9603 0
h 9597 -9603 0
h 9598 -9603 0
h 9599 -9603 0
h 9600 -9603 0
h 9601 -9603 0
h 9602 -9603 0
h -290 -9603 0
h 9604 -61 181 0
h 61 -9604 0
h -181 -9604 0
h 9605 -181 61 0
h 181 -9605 0
h -61 -9605 0
h 9606 -62 182 0
h 62 -9606 0
h -182 -9606 0
h 9607 -182 62 0
h 182 -9607 0
h -62 -9607 0
h 9608 -63 183 0
h 63 -9608 0
h -183 -9608 0
h 9609 -183 63 0
h 183 -9609 0
h -63 -9609 0
h 9610 -64 184 0
h 64 -9610 0
h -184 -9610 0
h 9611 -184 64 0
h 184 -9611 0
h -64 -9611 0
h -9612 -41 288 0
h 41 9612 0
h -288 9612 0
h -9613 -40 287 0
h 40 9613 0
h -287 9613 0
h -9614 -39 286 0
h 39 9614 0
h -286 9614 0
h -9615 -38 285 0
h 38 9615 0
h -285 9615 0
h -9616 -37 284 0
h 37 9616 0
h -284 9616 0
h -9617 -36 283 0
h 36 9617 0
h -283 9617 0
h -9618 -35 282 0
h 35 9618 0
h -282 9618 0
h -9619 -34 281 0
h 34 9619 0
h -281 9619 0
h -9620 -33 280 0
h 33 9620 0
h -280 9620 0
h -9621 -32 279 0
h 32 9621 0
h -279 9621 0
h 9622 -289 -9612 -9613 -9614 -9615 -9616 -9617 -9618 -9619 -9620 -9621 31 0
h 289 -9622 0
h 9612 -9622 0
h 9613 -9622 0
h 9614 -9622 0
h 9615 -9622 0
h 9616 -9622 0
h 9617 -9622 0
h 9618 -9622 0
h 9619 -9622 0
h 9620 -9622 0
h 9621 -9622 0
h -31 -9622 0
h -9623 -289 40 0
h 289 9623 0
h -40 9623 0
h -9624 -288 39 0
h 288 9624 0
h -39 9624 0
h -9625 -287 38 0
h 287 9625 0
h -38 9625 0
h -9626 -286 37 0
h 286 9626 0
h -37 9626 0
h -9627 -285 36 0
h 285 9627 0
h -36 9627 0
h -9628 -284 35 0
h 284 9628 0
h -35 9628 0
h -9629 -283 34 0
h 283 9629 0
h -34 9629 0
h -9630 -282 33 0
h 282 9630 0
h -33 9630 0
h -9631 -281 32 0
h 281 9631 0
h -32 9631 0
h -9632 -280 31 0
h 280 9632 0
h -31 9632 0
h 9633 -41 -9623 -9624 -9625 -9626 -9627 -9628 -9629 -9630 -9631 -9632 279 0
h 41 -9633 0
h 9623 -9633 0
h 9624 -9633 0
h 9625 -9633 0
h 9626 -9633 0
h 9627 -9633 0
h 9628 -9633 0
h 9629 -9633 0
h 9630 -9633 0
h 9631 -9633 0
h 9632 -9633 0
h -279 -9633 0
h 9634 -57 181 0
h 57 -9634 0
h -181 -9634 0
h 9635 -181 57 0
h 181 -9635 0
h -57 -9635 0
h 9636 -58 182 0
h 58 -9636 0
h -182 -9636 0
h 9637 -182 58 0
h 182 -9637 0
h -58 -9637 0
h 9638 -59 183 0
h 59 -9638 0
h -183 -9638 0
h 9639 -183 59 0
h 183 -9639 0
h -59 -9639 0
h 9640 -60 184 0
h 60 -9640 0
h -184 -9640 0
h 9641 -184 60 0
h 184 -9641 0
h -60 -9641 0
h -9642 -30 95 0
h 30 9642 0
h -95 9642 0
h -9643 -29 94 0
h 29 9643 0
h -94 9643 0
h -9644 -28 93 0
h 28 9644 0
h -93 9644 0
h -9645 -27 92 0
h 27 9645 0
h -92 9645 0
h -9646 -26 91 0
h 26 9646 0
h -91 9646 0
h -9647 -25 90 0
h 25 9647 0
h -90 9647 0
h -9648 -24 89 0
h 24 9648 0
h -89 9648 0
h -9649 -23 88 0
h 23 9649 0
h -88 9649 0
h -9650 -22 87 0
h 22 9650 0
h -87 9650 0
h 9651 -96 -9642 -9643 -9644 -9645 -9646 -9647 -9648 -9649 -9650 21 20 0
h 96 -9651 0
h 9642 -9651 0
h 9643 -9651 0
h 9644 -9651 0
h 9645 -9651 0
h 9646 -9651 0
h 9647 -9651 0
h 9648 -9651 0
h 9649 -9651 0
h 9650 -9651 0
h -21 -9651 0
h -20 -9651 0
h -9652 -97 28 0
h 97 9652 0
h -28 9652 0
h -9653 -96 27 0
h 96 9653 0
h -27 9653 0
h -9654 -95 26 0
h 95 9654 0
h -26 9654 0
h -9655 -94 25 0
h 94 9655 0
h -25 9655 0
h -9656 -93 24 0
h 93 9656 0
h -24 9656 0
h -9657 -92 23 0
h 92 9657 0
h -23 9657 0
h -9658 -91 22 0
h 91 9658 0
h -22 9658 0
h -9659 -90 21 0
h 90 9659 0
h -21 9659 0
h -9660 -89 20 0
h 89 9660 0
h -20 9660 0
h 9661 -29 -9652 -9653 -9654 -9655 -9656 -9657 -9658 -9659 -9660 88 87 0
h 29 -9661 0
h 9652 -9661 0
h 9653 -9661 0
h 9654 -9661 0
h 9655 -9661 0
h 9656 -9661 0
h 9657 -9661 0
h 9658 -9661 0
h 9659 -9661 0
h 9660 -9661 0
h -88 -9661 0
h -87 -9661 0
h 9662 -238 162 0
h 238 -9662 0
h -162 -9662 0
h 9663 -162 238 0
h 162 -9663 0
h -238 -9663 0
h 9664 -239 163 0
h 239 -9664 0
h -163 -9664 0
h 9665 -163 239 0
h 163 -9665 0
h -239 -9665 0
h 9666 -240 164 0
h 240 -9666 0
h -164 -9666 0
h 9667 -164 240 0
h 164 -9667 0
h -240 -9667 0
h 9668 -241 165 0
h 241 -9668 0
h -165 -9668 0
h 9669 -165 241 0
h 165 -9669 0
h -241 -9669 0
h -9670 9651 9661 9662 9663 9664 9665 9666 9667 9668 9669 0
h -9651 9670 0
h -9661 9670 0
h -9662 9670 0
h -9663 9670 0
h -9664 9670 0
h -9665 9670 0
h -9666 9670 0
h -9667 9670 0
h -9668 9670 0
h -9669 9670 0
h -9671 -15 95 0
h 15 9671 0
h -95 9671 0
h -9672 -14 94 0
h 14 9672 0
h -94 9672 0
h -9673 -13 93 0
h 13 9673 0
h -93 9673 0
h -9674 -12 92 0
h 12 9674 0
h -92 9674 0
h -9675 -11 91 0
h 11 9675 0
h -91 9675 0
h -9676 -10 90 0
h 10 9676 0
h -90 9676 0
h -9677 -9 89 0
h 9 9677 0
h -89 9677 0
h -9678 -8 88 0
h 8 9678 0
h -88 9678 0
h -9679 -7 87 0
h 7 9679 0
h -87 9679 0
h 9680 -96 -9671 -9672 -9673 -9674 -9675 -9676 -9677 -9678 -9679 6 5 0
h 96 -9680 0
h 9671 -9680 0
h 9672 -9680 0
h 9673 -9680 0
h 9674 -9680 0
h 9675 -9680 0
h 9676 -9680 0
h 9677 -9680 0
h 9678 -9680 0
h 9679 -9680 0
h -6 -9680 0
h -5 -9680 0
h -9681 -97 13 0
h 97 9681 0
h -13 9681 0
h -9682 -96 12 0
h 96 9682 0
h -12 9682 0
h -9683 -95 11 0
h 95 9683 0
h -11 9683 0
h -9684 -94 10 0
h 94 9684 0
h -10 9684 0
h -9685 -93 9 0
h 93 9685 0
h -9 9685 0
h -9686 -92 8 0
h 92 9686 0
h -8 9686 0
h -9687 -91 7 0
h 91 9687 0
h -7 9687 0
h -9688 -90 6 0
h 90 9688 0
h -6 9688 0
h -9689 -89 5 0
h 89 9689 0
h -5 9689 0
h 9690 -14 -9681 -9682 -9683 -9684 -9685 -9686 -9687 -9688 -9689 88 87 0
h 14 -9690 0
h 9681 -9690 0
h 9682 -9690 0
h 9683 -9690 0
h 9684 -9690 0
h 9685 -9690 0
h 9686 -9690 0
h 9687 -9690 0
h 9688 -9690 0
h 9689 -9690 0
h -88 -9690 0
h -87 -9690 0
h 9691 -238 158 0
h 238 -9691 0
h -158 -9691 0
h 9692 -158 238 0
h 158 -9692 0
h -238 -9692 0
h 9693 -239 159 0
h 239 -9693 0
h -159 -9693 0
h 9694 -159 239 0
h 159 -9694 0
h -239 -9694 0
h 9695 -240 160 0
h 240 -9695 0
h -160 -9695 0
h 9696 -160 240 0
h 160 -9696 0
h -240 -9696 0
h 9697 -241 161 0
h 241 -9697 0
h -161 -9697 0
h 9698 -161 241 0
h 161 -9698 0
h -241 -9698 0
h -9699 9680 9690 9691 9692 9693 9694 9695 9696 9697 9698 0
h -9680 9699 0
h -9690 9699 0
h -9691 9699 0
h -9692 9699 0
h -9693 9699 0
h -9694 9699 0
h -9695 9699 0
h -9696 9699 0
h -9697 9699 0
h -9698 9699 0
h -9700 -30 117 0
h 30 9700 0
h -117 9700 0
h -9701 -29 116 0
h 29 9701 0
h -116 9701 0
h -9702 -28 115 0
h 28 9702 0
h -115 9702 0
h -9703 -27 114 0
h 27 9703 0
h -114 9703 0
h -9704 -26 113 0
h 26 9704 0
h -113 9704 0
h -9705 -25 112 0
h 25 9705 0
h -112 9705 0
h -9706 -24 111 0
h 24 9706 0
h -111 9706 0
h -9707 -23 110 0
h 23 9707 0
h -110 9707 0
h -9708 -22 109 0
h 22 9708 0
h -109 9708 0
h 9709 -118 -9700 -9701 -9702 -9703 -9704 -9705 -9706 -9707 -9708 21 20 0
h 118 -9709 0
h 9700 -9709 0
h 9701 -9709 0
h 9702 -9709 0
h 9703 -9709 0
h 9704 -9709 0
h 9705 -9709 0
h 9706 -9709 0
h 9707 -9709 0
h 9708 -9709 0
h -21 -9709 0
h -20 -9709 0
h -9710 -119 28 0
h 119 9710 0
h -28 9710 0
h -9711 -118 27 0
h 118 9711 0
h -27 9711 0
h -9712 -117 26 0
h 117 9712 0
h -26 9712 0
h -9713 -116 25 0
h 116 9713 0
h -25 9713 0
h -9714 -115 24 0
h 115 9714 0
h -24 9714 0
h -9715 -114 23 0
h 114 9715 0
h -23 9715 0
h -9716 -113 22 0
h 113 9716 0
h -22 9716 0
h -9717 -112 21 0
h 112 9717 0
h -21 9717 0
h -9718 -111 20 0
h 111 9718 0
h -20 9718 0
h 9719 -29 -9710 -9711 -9712 -9713 -9714 -9715 -9716 -9717 -9718 110 109 0
h 29 -9719 0
h 9710 -9719 0
h 9711 -9719 0
h 9712 -9719 0
h 9713 -9719 0
h 9714 -9719 0
h 9715 -9719 0
h 9716 -9719 0
h 9717 -9719 0
h 9718 -9719 0
h -110 -9719 0
h -109 -9719 0
h 9720 -253 162 0
h 253 -9720 0
h -162 -9720 0
h 9721 -162 253 0
h 162 -9721 0
h -253 -9721 0
h 9722 -254 163 0
h 254 -9722 0
h -163 -9722 0
h 9723 -163 254 0
h 163 -9723 0
h -254 -9723 0
h 9724 -255 164 0
h 255 -9724 0
h -164 -9724 0
h 9725 -164 255 0
h 164 -9725 0
h -255 -9725 0
h 9726 -256 165 0
h 256 -9726 0
h -165 -9726 0
h 9727 -165 256 0
h 165 -9727 0
h -256 -9727 0
h -9728 9709 9719 9720 9721 9722 9723 9724 9725 9726 9727 0
h -9709 9728 0
h -9719 9728 0
h -9720 9728 0
h -9721 9728 0
h -9722 9728 0
h -9723 9728 0
h -9724 9728 0
h -9725 9728 0
h -9726 9728 0
h -9727 9728 0
h -9729 -15 117 0
h 15 9729 0
h -117 9729 0
h -9730 -14 116 0
h 14 9730 0
h -116 9730 0
h -9731 -13 115 0
h 13 9731 0
h -115 9731 0
h -9732 -12 114 0
h 12 9732 0
h -114 9732 0
h -9733 -11 113 0
h 11 9733 0
h -113 9733 0
h -9734 -10 112 0
h 10 9734 0
h -112 9734 0
h -9735 -9 111 0
h 9 9735 0
h -111 9735 0
h -9736 -8 110 0
h 8 9736 0
h -110 9736 0
h -9737 -7 109 0
h 7 9737 0
h -109 9737 0
h 9738 -118 -9729 -9730 -9731 -9732 -9733 -9734 -9735 -9736 -9737 6 5 0
h 118 -9738 0
h 9729 -9738 0
h 9730 -9738 0
h 9731 -9738 0
h 9732 -9738 0
h 9733 -9738 0
h 9734 -9738 0
h 9735 -9738 0
h 9736 -9738 0
h 9737 -9738 0
h -6 -9738 0
h -5 -9738 0
h -9739 -119 13 0
h 119 9739 0
h -13 9739 0
h -9740 -118 12 0
h 118 9740 0
h -12 9740 0
h -9741 -117 11 0
h 117 9741 0
h -11 9741 0
h -9742 -116 10 0
h 116 9742 0
h -10 9742 0
h -9743 -115 9 0
h 115 9743 0
h -9 9743 0
h -9744 -114 8 0
h 114 9744 0
h -8 9744 0
h -9745 -113 7 0
h 113 9745 0
h -7 9745 0
h -9746 -112 6 0
h 112 9746 0
h -6 9746 0
h -9747 -111 5 0
h 111 9747 0
h -5 9747 0
h 9748 -14 -9739 -9740 -9741 -9742 -9743 -9744 -9745 -9746 -9747 110 109 0
h 14 -9748 0
h 9739 -9748 0
h 9740 -9748 0
h 9741 -9748 0
h 9742 -9748 0
h 9743 -9748 0
h 9744 -9748 0
h 9745 -9748 0
h 9746 -9748 0
h 9747 -9748 0
h -110 -9748 0
h -109 -9748 0
h 9749 -253 158 0
h 253 -9749 0
h -158 -9749 0
h 9750 -158 253 0
h 158 -9750 0
h -253 -9750 0
h 9751 -254 159 0
h 254 -9751 0
h -159 -9751 0
h 9752 -159 254 0
h 159 -9752 0
h -254 -9752 0
h 9753 -255 160 0
h 255 -9753 0
h -160 -9753 0
h 9754 -160 255 0
h 160 -9754 0
h -255 -9754 0
h 9755 -256 161 0
h 256 -9755 0
h -161 -9755 0
h 9756 -161 256 0
h 161 -9756 0
h -256 -9756 0
h -9757 9738 9748 9749 9750 9751 9752 9753 9754 9755 9756 0
h -9738 9757 0
h -9748 9757 0
h -9749 9757 0
h -9750 9757 0
h -9751 9757 0
h -9752 9757 0
h -9753 9757 0
h -9754 9757 0
h -9755 9757 0
h -9756 9757 0
h -9758 -30 139 0
h 30 9758 0
h -139 9758 0
h -9759 -29 138 0
h 29 9759 0
h -138 9759 0
h -9760 -28 137 0
h 28 9760 0
h -137 9760 0
h -9761 -27 136 0
h 27 9761 0
h -136 9761 0
h -9762 -26 135 0
h 26 9762 0
h -135 9762 0
h -9763 -25 134 0
h 25 9763 0
h -134 9763 0
h -9764 -24 133 0
h 24 9764 0
h -133 9764 0
h -9765 -23 132 0
h 23 9765 0
h -132 9765 0
h -9766 -22 131 0
h 22 9766 0
h -131 9766 0
h 9767 -140 -9758 -9759 -9760 -9761 -9762 -9763 -9764 -9765 -9766 21 20 0
h 140 -9767 0
h 9758 -9767 0
h 9759 -9767 0
h 9760 -9767 0
h 9761 -9767 0
h 9762 -9767 0
h 9763 -9767 0
h 9764 -9767 0
h 9765 -9767 0
h 9766 -9767 0
h -21 -9767 0
h -20 -9767 0
h -9768 -141 28 0
h 141 9768 0
h -28 9768 0
h -9769 -140 27 0
h 140 9769 0
h -27 9769 0
h -9770 -139 26 0
h 139 9770 0
h -26 9770 0
h -9771 -138 25 0
h 138 9771 0
h -25 9771 0
h -9772 -137 24 0
h 137 9772 0
h -24 9772 0
h -9773 -136 23 0
h 136 9773 0
h -23 9773 0
h -9774 -135 22 0
h 135 9774 0
h -22 9774 0
h -9775 -134 21 0
h 134 9775 0
h -21 9775 0
h -9776 -133 20 0
h 133 9776 0
h -20 9776 0
h 9777 -29 -9768 -9769 -9770 -9771 -9772 -9773 -9774 -9775 -9776 132 131 0
h 29 -9777 0
h 9768 -9777 0
h 9769 -9777 0
h 9770 -9777 0
h 9771 -9777 0
h 9772 -9777 0
h 9773 -9777 0
h 9774 -9777 0
h 9775 -9777 0
h 9776 -9777 0
h -132 -9777 0
h -131 -9777 0
h 9778 -223 162 0
h 223 -9778 0
h -162 -9778 0
h 9779 -162 223 0
h 162 -9779 0
h -223 -9779 0
h 9780 -224 163 0
h 224 -9780 0
h -163 -9780 0
h 9781 -163 224 0
h 163 -9781 0
h -224 -9781 0
h 9782 -225 164 0
h 225 -9782 0
h -164 -9782 0
h 9783 -164 225 0
h 164 -9783 0
h -225 -9783 0
h 9784 -226 165 0
h 226 -9784 0
h -165 -9784 0
h 9785 -165 226 0
h 165 -9785 0
h -226 -9785 0
h -9786 9767 9777 9778 9779 9780 9781 9782 9783 9784 9785 0
h -9767 9786 0
h -9777 9786 0
h -9778 9786 0
h -9779 9786 0
h -9780 9786 0
h -9781 9786 0
h -9782 9786 0
h -9783 9786 0
h -9784 9786 0
h -9785 9786 0
h -9787 -15 139 0
h 15 9787 0
h -139 9787 0
h -9788 -14 138 0
h 14 9788 0
h -138 9788 0
h -9789 -13 137 0
h 13 9789 0
h -137 9789 0
h -9790 -12 136 0
h 12 9790 0
h -136 9790 0
h -9791 -11 135 0
h 11 9791 0
h -135 9791 0
h -9792 -10 134 0
h 10 9792 0
h -134 9792 0
h -9793 -9 133 0
h 9 9793 0
h -133 9793 0
h -9794 -8 132 0
h 8 9794 0
h -132 9794 0
h -9795 -7 131 0
h 7 9795 0
h -131 9795 0
h 9796 -140 -9787 -9788 -9789 -9790 -9791 -9792 -9793 -9794 -9795 6 5 0
h 140 -9796 0
h 9787 -9796 0
h 9788 -9796 0
h 9789 -9796 0
h 9790 -9796 0
h 9791 -9796 0
h 9792 -9796 0
h 9793 -9796 0
h 9794 -9796 0
h 9795 -9796 0
h -6 -9796 0
h -5 -9796 0
h -9797 -141 13 0
h 141 9797 0
h -13 9797 0
h -9798 -140 12 0
h 140 9798 0
h -12 9798 0
h -9799 -139 11 0
h 139 9799 0
h -11 9799 0
h -9800 -138 10 0
h 138 9800 0
h -10 9800 0
h -9801 -137 9 0
h 137 9801 0
h -9 9801 0
h -9802 -136 8 0
h 136 9802 0
h -8 9802 0
h -9803 -135 7 0
h 135 9803 0
h -7 9803 0
h -9804 -134 6 0
h 134 9804 0
h -6 9804 0
h -9805 -133 5 0
h 133 9805 0
h -5 9805 0
h 9806 -14 -9797 -9798 -9799 -9800 -9801 -9802 -9803 -9804 -9805 132 131 0
h 14 -9806 0
h 9797 -9806 0
h 9798 -9806 0
h 9799 -9806 0
h 9800 -9806 0
h 9801 -9806 0
h 9802 -9806 0
h 9803 -9806 0
h 9804 -9806 0
h 9805 -9806 0
h -132 -9806 0
h -131 -9806 0
h 9807 -223 158 0
h 223 -9807 0
h -158 -9807 0
h 9808 -158 223 0
h 158 -9808 0
h -223 -9808 0
h 9809 -224 159 0
h 224 -9809 0
h -159 -9809 0
h 9810 -159 224 0
h 159 -9810 0
h -224 -9810 0
h 9811 -225 160 0
h 225 -9811 0
h -160 -9811 0
h 9812 -160 225 0
h 160 -9812 0
h -225 -9812 0
h 9813 -226 161 0
h 226 -9813 0
h -161 -9813 0
h 9814 -161 226 0
h 161 -9814 0
h -226 -9814 0
h -9815 9796 9806 9807 9808 9809 9810 9811 9812 9813 9814 0
h -9796 9815 0
h -9806 9815 0
h -9807 9815 0
h -9808 9815 0
h -9809 9815 0
h -9810 9815 0
h -9811 9815 0
h -9812 9815 0
h -9813 9815 0
h -9814 9815 0
h -9816 -30 277 0
h 30 9816 0
h -277 9816 0
h -9817 -29 276 0
h 29 9817 0
h -276 9817 0
h -9818 -28 275 0
h 28 9818 0
h -275 9818 0
h -9819 -27 274 0
h 27 9819 0
h -274 9819 0
h -9820 -26 273 0
h 26 9820 0
h -273 9820 0
h -9821 -25 272 0
h 25 9821 0
h -272 9821 0
h -9822 -24 271 0
h 24 9822 0
h -271 9822 0
h -9823 -23 270 0
h 23 9823 0
h -270 9823 0
h -9824 -22 269 0
h 22 9824 0
h -269 9824 0
h -9825 -21 268 0
h 21 9825 0
h -268 9825 0
h 9826 -278 -9816 -9817 -9818 -9819 -9820 -9821 -9822 -9823 -9824 -9825 20 0
h 278 -9826 0
h 9816 -9826 0
h 9817 -9826 0
h 9818 -9826 0
h 9819 -9826 0
h 9820 -9826 0
h 9821 -9826 0
h 9822 -9826 0
h 9823 -9826 0
h 9824 -9826 0
h 9825 -9826 0
h -20 -9826 0
h -9827 -278 28 0
h 278 9827 0
h -28 9827 0
h -9828 -277 27 0
h 277 9828 0
h -27 9828 0
h -9829 -276 26 0
h 276 9829 0
h -26 9829 0
h -9830 -275 25 0
h 275 9830 0
h -25 9830 0
h -9831 -274 24 0
h 274 9831 0
h -24 9831 0
h -9832 -273 23 0
h 273 9832 0
h -23 9832 0
h -9833 -272 22 0
h 272 9833 0
h -22 9833 0
h -9834 -271 21 0
h 271 9834 0
h -21 9834 0
h -9835 -270 20 0
h 270 9835 0
h -20 9835 0
h 9836 -29 -9827 -9828 -9829 -9830 -9831 -9832 -9833 -9834 -9835 269 268 0
h 29 -9836 0
h 9827 -9836 0
h 9828 -9836 0
h 9829 -9836 0
h 9830 -9836 0
h 9831 -9836 0
h 9832 -9836 0
h 9833 -9836 0
h 9834 -9836 0
h 9835 -9836 0
h -269 -9836 0
h -268 -9836 0
h 9837 -42 162 0
h 42 -9837 0
h -162 -9837 0
h 9838 -162 42 0
h 162 -9838 0
h -42 -9838 0
h 9839 -43 163 0
h 43 -9839 0
h -163 -9839 0
h 9840 -163 43 0
h 163 -9840 0
h -43 -9840 0
h 9841 -44 164 0
h 44 -9841 0
h -164 -9841 0
h 9842 -164 44 0
h 164 -9842 0
h -44 -9842 0
h 9843 -45 165 0
h 45 -9843 0
h -165 -9843 0
h 9844 -165 45 0
h 165 -9844 0
h -45 -9844 0
h -9845 9826 9836 9837 9838 9839 9840 9841 9842 9843 9844 0
h -9826 9845 0
h -9836 9845 0
h -9837 9845 0
h -9838 9845 0
h -9839 9845 0
h -9840 9845 0
h -9841 9845 0
h -9842 9845 0
h -9843 9845 0
h -9844 9845 0
h -9846 -15 277 0
h 15 9846 0
h -277 9846 0
h -9847 -14 276 0
h 14 9847 0
h -276 9847 0
h -9848 -13 275 0
h 13 9848 0
h -275 9848 0
h -9849 -12 274 0
h 12 9849 0
h -274 9849 0
h -9850 -11 273 0
h 11 9850 0
h -273 9850 0
h -9851 -10 272 0
h 10 9851 0
h -272 9851 0
h -9852 -9 271 0
h 9 9852 0
h -271 9852 0
h -9853 -8 270 0
h 8 9853 0
h -270 9853 0
h -9854 -7 269 0
h 7 9854 0
h -269 9854 0
h -9855 -6 268 0
h 6 9855 0
h -268 9855 0
h 9856 -278 -9846 -9847 -9848 -9849 -9850 -9851 -9852 -9853 -9854 -9855 5 0
h 278 -9856 0
h 9846 -9856 0
h 9847 -9856 0
h 9848 -9856 0
h 9849 -9856 0
h 9850 -9856 0
h 9851 -9856 0
h 9852 -9856 0
h 9853 -9856 0
h 9854 -9856 0
h 9855 -9856 0
h -5 -9856 0
h -9857 -278 13 0
h 278 9857 0
h -13 9857 0
h -9858 -277 12 0
h 277 9858 0
h -12 9858 0
h -9859 -276 11 0
h 276 9859 0
h -11 9859 0
h -9860 -275 10 0
h 275 9860 0
h -10 9860 0
h -9861 -274 9 0
h 274 9861 0
h -9 9861 0
h -9862 -273 8 0
h 273 9862 0
h -8 9862 0
h -9863 -272 7 0
h 272 9863 0
h -7 9863 0
h -9864 -271 6 0
h 271 9864 0
h -6 9864 0
h -9865 -270 5 0
h 270 9865 0
h -5 9865 0
h 9866 -14 -9857 -9858 -9859 -9860 -9861 -9862 -9863 -9864 -9865 269 268 0
h 14 -9866 0
h 9857 -9866 0
h 9858 -9866 0
h 9859 -9866 0
h 9860 -9866 0
h 9861 -9866 0
h 9862 -9866 0
h 9863 -9866 0
h 9864 -9866 0
h 9865 -9866 0
h -269 -9866 0
h -268 -9866 0
h 9867 -42 158 0
h 42 -9867 0
h -158 -9867 0
h 9868 -158 42 0
h 158 -9868 0
h -42 -9868 0
h 9869 -43 159 0
h 43 -9869 0
h -159 -9869 0
h 9870 -159 43 0
h 159 -9870 0
h -43 -9870 0
h 9871 -44 160 0
h 44 -9871 0
h -160 -9871 0
h 9872 -160 44 0
h 160 -9872 0
h -44 -9872 0
h 9873 -45 161 0
h 45 -9873 0
h -161 -9873 0
h 9874 -161 45 0
h 161 -9874 0
h -45 -9874 0
h -9875 9856 9866 9867 9868 9869 9870 9871 9872 9873 9874 0
h -9856 9875 0
h -9866 9875 0
h -9867 9875 0
h -9868 9875 0
h -9869 9875 0
h -9870 9875 0
h -9871 9875 0
h -9872 9875 0
h -9873 9875 0
h -9874 9875 0
h -9876 -30 299 0
h 30 9876 0
h -299 9876 0
h -9877 -29 298 0
h 29 9877 0
h -298 9877 0
h -9878 -28 297 0
h 28 9878 0
h -297 9878 0
h -9879 -27 296 0
h 27 9879 0
h -296 9879 0
h -9880 -26 295 0
h 26 9880 0
h -295 9880 0
h -9881 -25 294 0
h 25 9881 0
h -294 9881 0
h -9882 -24 293 0
h 24 9882 0
h -293 9882 0
h -9883 -23 292 0
h 23 9883 0
h -292 9883 0
h -9884 -22 291 0
h 22 9884 0
h -291 9884 0
h -9885 -21 290 0
h 21 9885 0
h -290 9885 0
h 9886 -300 -9876 -9877 -9878 -9879 -9880 -9881 -9882 -9883 -9884 -9885 20 0
h 300 -9886 0
h 9876 -9886 0
h 9877 -9886 0
h 9878 -9886 0
h 9879 -9886 0
h 9880 -9886 0
h 9881 -9886 0
h 9882 -9886 0
h 9883 -9886 0
h 9884 -9886 0
h 9885 -9886 0
h -20 -9886 0
h -9887 -300 28 0
h 300 9887 0
h -28 9887 0
h -9888 -299 27 0
h 299 9888 0
h -27 9888 0
h -9889 -298 26 0
h 298 9889 0
h -26 9889 0
h -9890 -297 25 0
h 297 9890 0
h -25 9890 0
h -9891 -296 24 0
h 296 9891 0
h -24 9891 0
h -9892 -295 23 0
h 295 9892 0
h -23 9892 0
h -9893 -294 22 0
h 294 9893 0
h -22 9893 0
h -9894 -293 21 0
h 293 9894 0
h -21 9894 0
h -9895 -292 20 0
h 292 9895 0
h -20 9895 0
h 9896 -29 -9887 -9888 -9889 -9890 -9891 -9892 -9893 -9894 -9895 291 290 0
h 29 -9896 0
h 9887 -9896 0
h 9888 -9896 0
h 9889 -9896 0
h 9890 -9896 0
h 9891 -9896 0
h 9892 -9896 0
h 9893 -9896 0
h 9894 -9896 0
h 9895 -9896 0
h -291 -9896 0
h -290 -9896 0
h 9897 -61 162 0
h 61 -9897 0
h -162 -9897 0
h 9898 -162 61 0
h 162 -9898 0
h -61 -9898 0
h 9899 -62 163 0
h 62 -9899 0
h -163 -9899 0
h 9900 -163 62 0
h 163 -9900 0
h -62 -9900 0
h 9901 -63 164 0
h 63 -9901 0
h -164 -9901 0
h 9902 -164 63 0
h 164 -9902 0
h -63 -9902 0
h 9903 -64 165 0
h 64 -9903 0
h -165 -9903 0
h 9904 -165 64 0
h 165 -9904 0
h -64 -9904 0
h -9905 9886 9896 9897 9898 9899 9900 9901 9902 9903 9904 0
h -9886 9905 0
h -9896 9905 0
h -9897 9905 0
h -9898 9905 0
h -9899 9905 0
h -9900 9905 0
h -9901 9905 0
h -9902 9905 0
h -9903 9905 0
h -9904 9905 0
h -9906 -15 299 0
h 15 9906 0
h -299 9906 0
h -9907 -14 298 0
h 14 9907 0
h -298 9907 0
h -9908 -13 297 0
h 13 9908 0
h -297 9908 0
h -9909 -12 296 0
h 12 9909 0
h -296 9909 0
h -9910 -11 295 0
h 11 9910 0
h -295 9910 0
h -9911 -10 294 0
h 10 9911 0
h -294 9911 0
h -9912 -9 293 0
h 9 9912 0
h -293 9912 0
h -9913 -8 292 0
h 8 9913 0
h -292 9913 0
h -9914 -7 291 0
h 7 9914 0
h -291 9914 0
h -9915 -6 290 0
h 6 9915 0
h -290 9915 0
h 9916 -300 -9906 -9907 -9908 -9909 -9910 -9911 -9912 -9913 -9914 -9915 5 0
h 300 -9916 0
h 9906 -9916 0
h 9907 -9916 0
h 9908 -9916 0
h 9909 -9916 0
h 9910 -9916 0
h 9911 -9916 0
h 9912 -9916 0
h 9913 -9916 0
h 9914 -9916 0
h 9915 -9916 0
h -5 -9916 0
h -9917 -300 13 0
h 300 9917 0
h -13 9917 0
h -9918 -299 12 0
h 299 9918 0
h -12 9918 0
h -9919 -298 11 0
h 298 9919 0
h -11 9919 0
h -9920 -297 10 0
h 297 9920 0
h -10 9920 0
h -9921 -296 9 0
h 296 9921 0
h -9 9921 0
h -9922 -295 8 0
h 295 9922 0
h -8 9922 0
h -9923 -294 7 0
h 294 9923 0
h -7 9923 0
h -9924 -293 6 0
h 293 9924 0
h -6 9924 0
h -9925 -292 5 0
h 292 9925 0
h -5 9925 0
h 9926 -14 -9917 -9918 -9919 -9920 -9921 -9922 -9923 -9924 -9925 291 290 0
h 14 -9926 0
h 9917 -9926 0
h 9918 -9926 0
h 9919 -9926 0
h 9920 -9926 0
h 9921 -9926 0
h 9922 -9926 0
h 9923 -9926 0
h 9924 -9926 0
h 9925 -9926 0
h -291 -9926 0
h -290 -9926 0
h 9927 -61 158 0
h 61 -9927 0
h -158 -9927 0
h 9928 -158 61 0
h 158 -9928 0
h -61 -9928 0
h 9929 -62 159 0
h 62 -9929 0
h -159 -9929 0
h 9930 -159 62 0
h 159 -9930 0
h -62 -9930 0
h 9931 -63 160 0
h 63 -9931 0
h -160 -9931 0
h 9932 -160 63 0
h 160 -9932 0
h -63 -9932 0
h 9933 -64 161 0
h 64 -9933 0
h -161 -9933 0
h 9934 -161 64 0
h 161 -9934 0
h -64 -9934 0
h -9935 9916 9926 9927 9928 9929 9930 9931 9932 9933 9934 0
h -9916 9935 0
h -9926 9935 0
h -9927 9935 0
h -9928 9935 0
h -9929 9935 0
h -9930 9935 0
h -9931 9935 0
h -9932 9935 0
h -9933 9935 0
h -9934 9935 0
h -9936 -30 288 0
h 30 9936 0
h -288 9936 0
h -9937 -29 287 0
h 29 9937 0
h -287 9937 0
h -9938 -28 286 0
h 28 9938 0
h -286 9938 0
h -9939 -27 285 0
h 27 9939 0
h -285 9939 0
h -9940 -26 284 0
h 26 9940 0
h -284 9940 0
h -9941 -25 283 0
h 25 9941 0
h -283 9941 0
h -9942 -24 282 0
h 24 9942 0
h -282 9942 0
h -9943 -23 281 0
h 23 9943 0
h -281 9943 0
h -9944 -22 280 0
h 22 9944 0
h -280 9944 0
h -9945 -21 279 0
h 21 9945 0
h -279 9945 0
h 9946 -289 -9936 -9937 -9938 -9939 -9940 -9941 -9942 -9943 -9944 -9945 20 0
h 289 -9946 0
h 9936 -9946 0
h 9937 -9946 0
h 9938 -9946 0
h 9939 -9946 0
h 9940 -9946 0
h 9941 -9946 0
h 9942 -9946 0
h 9943 -9946 0
h 9944 -9946 0
h 9945 -9946 0
h -20 -9946 0
h -9947 -289 28 0
h 289 9947 0
h -28 9947 0
h -9948 -288 27 0
h 288 9948 0
h -27 9948 0
h -9949 -287 26 0
h 287 9949 0
h -26 9949 0
h -9950 -286 25 0
h 286 9950 0
h -25 9950 0
h -9951 -285 24 0
h 285 9951 0
h -24 9951 0
h -9952 -284 23 0
h 284 9952 0
h -23 9952 0
h -9953 -283 22 0
h 283 9953 0
h -22 9953 0
h -9954 -282 21 0
h 282 9954 0
h -21 9954 0
h -9955 -281 20 0
h 281 9955 0
h -20 9955 0
h 9956 -29 -9947 -9948 -9949 -9950 -9951 -9952 -9953 -9954 -9955 280 279 0
h 29 -9956 0
h 9947 -9956 0
h 9948 -9956 0
h 9949 -9956 0
h 9950 -9956 0
h 9951 -9956 0
h 9952 -9956 0
h 9953 -9956 0
h 9954 -9956 0
h 9955 -9956 0
h -280 -9956 0
h -279 -9956 0
h 9957 -57 162 0
h 57 -9957 0
h -162 -9957 0
h 9958 -162 57 0
h 162 -9958 0
h -57 -9958 0
h 9959 -58 163 0
h 58 -9959 0
h -163 -9959 0
h 9960 -163 58 0
h 163 -9960 0
h -58 -9960 0
h 9961 -59 164 0
h 59 -9961 0
h -164 -9961 0
h 9962 -164 59 0
h 164 -9962 0
h -59 -9962 0
h 9963 -60 165 0
h 60 -9963 0
h -165 -9963 0
h 9964 -165 60 0
h 165 -9964 0
h -60 -9964 0
h -9965 9946 9956 9957 9958 9959 9960 9961 9962 9963 9964 0
h -9946 9965 0
h -9956 9965 0
h -9957 9965 0
h -9958 9965 0
h -9959 9965 0
h -9960 9965 0
h -9961 9965 0
h -9962 9965 0
h -9963 9965 0
h -9964 9965 0
h -9966 -15 288 0
h 15 9966 0
h -288 9966 0
h -9967 -14 287 0
h 14 9967 0
h -287 9967 0
h -9968 -13 286 0
h 13 9968 0
h -286 9968 0
h -9969 -12 285 0
h 12 9969 0
h -285 9969 0
h -9970 -11 284 0
h 11 9970 0
h -284 9970 0
h -9971 -10 283 0
h 10 9971 0
h -283 9971 0
h -9972 -9 282 0
h 9 9972 0
h -282 9972 0
h -9973 -8 281 0
h 8 9973 0
h -281 9973 0
h -9974 -7 280 0
h 7 9974 0
h -280 9974 0
h -9975 -6 279 0
h 6 9975 0
h -279 9975 0
h 9976 -289 -9966 -9967 -9968 -9969 -9970 -9971 -9972 -9973 -9974 -9975 5 0
h 289 -9976 0
h 9966 -9976 0
h 9967 -9976 0
h 9968 -9976 0
h 9969 -9976 0
h 9970 -9976 0
h 9971 -9976 0
h 9972 -9976 0
h 9973 -9976 0
h 9974 -9976 0
h 9975 -9976 0
h -5 -9976 0
h -9977 -289 13 0
h 289 9977 0
h -13 9977 0
h -9978 -288 12 0
h 288 9978 0
h -12 9978 0
h -9979 -287 11 0
h 287 9979 0
h -11 9979 0
h -9980 -286 10 0
h 286 9980 0
h -10 9980 0
h -9981 -285 9 0
h 285 9981 0
h -9 9981 0
h -9982 -284 8 0
h 284 9982 0
h -8 9982 0
h -9983 -283 7 0
h 283 9983 0
h -7 9983 0
h -9984 -282 6 0
h 282 9984 0
h -6 9984 0
h -9985 -281 5 0
h 281 9985 0
h -5 9985 0
h 9986 -14 -9977 -9978 -9979 -9980 -9981 -9982 -9983 -9984 -9985 280 279 0
h 14 -9986 0
h 9977 -9986 0
h 9978 -9986 0
h 9979 -9986 0
h 9980 -9986 0
h 9981 -9986 0
h 9982 -9986 0
h 9983 -9986 0
h 9984 -9986 0
h 9985 -9986 0
h -280 -9986 0
h -279 -9986 0
h 9987 -57 158 0
h 57 -9987 0
h -158 -9987 0
h 9988 -158 57 0
h 158 -9988 0
h -57 -9988 0
h 9989 -58 159 0
h 58 -9989 0
h -159 -9989 0
h 9990 -159 58 0
h 159 -9990 0
h -58 -9990 0
h 9991 -59 160 0
h 59 -9991 0
h -160 -9991 0
h 9992 -160 59 0
h 160 -9992 0
h -59 -9992 0
h 9993 -60 161 0
h 60 -9993 0
h -161 -9993 0
h 9994 -161 60 0
h 161 -9994 0
h -60 -9994 0
h -9995 9976 9986 9987 9988 9989 9990 9991 9992 9993 9994 0
h -9976 9995 0
h -9986 9995 0
h -9987 9995 0
h -9988 9995 0
h -9989 9995 0
h -9990 9995 0
h -9991 9995 0
h -9992 9995 0
h -9993 9995 0
h -9994 9995 0
h 9996 -9670 -9699 -9728 -9757 -9786 -9815 -9845 -9875 -9905 -9935 -9965 -9995 0
h 9670 -9996 0
h 9699 -9996 0
h 9728 -9996 0
h 9757 -9996 0
h 9786 -9996 0
h 9815 -9996 0
h 9845 -9996 0
h 9875 -9996 0
h 9905 -9996 0
h 9935 -9996 0
h 9965 -9996 0
h 9995 -9996 0
h 9997 -30 95 0
h 30 -9997 0
h -95 -9997 0
h 9998 -29 94 0
h 29 -9998 0
h -94 -9998 0
h 9999 -28 93 0
h 28 -9999 0
h -93 -9999 0
h 10000 -27 92 0
h 27 -10000 0
h -92 -10000 0
h 10001 -26 91 0
h 26 -10001 0
h -91 -10001 0
h 10002 -25 90 0
h 25 -10002 0
h -90 -10002 0
h 10003 -24 89 0
h 24 -10003 0
h -89 -10003 0
h 10004 -23 88 0
h 23 -10004 0
h -88 -10004 0
h 10005 -22 87 0
h 22 -10005 0
h -87 -10005 0
h -10006 -96 9997 9998 9999 10000 10001 10002 10003 10004 10005 21 20 0
h 96 10006 0
h -9997 10006 0
h -9998 10006 0
h -9999 10006 0
h -10000 10006 0
h -10001 10006 0
h -10002 10006 0
h -10003 10006 0
h -10004 10006 0
h -10005 10006 0
h -21 10006 0
h -20 10006 0
h 10007 -97 28 0
h 97 -10007 0
h -28 -10007 0
h 10008 -96 27 0
h 96 -10008 0
h -27 -10008 0
h 10009 -95 26 0
h 95 -10009 0
h -26 -10009 0
h 10010 -94 25 0
h 94 -10010 0
h -25 -10010 0
h 10011 -93 24 0
h 93 -10011 0
h -24 -10011 0
h 10012 -92 23 0
h 92 -10012 0
h -23 -10012 0
h 10013 -91 22 0
h 91 -10013 0
h -22 -10013 0
h 10014 -90 21 0
h 90 -10014 0
h -21 -10014 0
h 10015 -89 20 0
h 89 -10015 0
h -20 -10015 0
h -10016 -29 10007 10008 10009 10010 10011 10012 10013 10014 10015 88 87 0
h 29 10016 0
h -10007 10016 0
h -10008 10016 0
h -10009 10016 0
h -10010 10016 0
h -10011 10016 0
h -10012 10016 0
h -10013 10016 0
h -10014 10016 0
h -10015 10016 0
h -88 10016 0
h -87 10016 0
h -10017 -238 162 0
h 238 10017 0
h -162 10017 0
h -10018 -162 238 0
h 162 10018 0
h -238 10018 0
h -10019 -239 163 0
h 239 10019 0
h -163 10019 0
h -10020 -163 239 0
h 163 10020 0
h -239 10020 0
h -10021 -240 164 0
h 240 10021 0
h -164 10021 0
h -10022 -164 240 0
h 164 10022 0
h -240 10022 0
h -10023 -241 165 0
h 241 10023 0
h -165 10023 0
h -10024 -165 241 0
h 165 10024 0
h -241 10024 0
h 10025 -10006 -10016 -10017 -10018 -10019 -10020 -10021 -10022 -10023 -10024 0
h 10006 -10025 0
h 10016 -10025 0
h 10017 -10025 0
h 10018 -10025 0
h 10019 -10025 0
h 10020 -10025 0
h 10021 -10025 0
h 10022 -10025 0
h 10023 -10025 0
h 10024 -10025 0
h 10026 -15 95 0
h 15 -10026 0
h -95 -10026 0
h 10027 -14 94 0
h 14 -10027 0
h -94 -10027 0
h 10028 -13 93 0
h 13 -10028 0
h -93 -10028 0
h 10029 -12 92 0
h 12 -10029 0
h -92 -10029 0
h 10030 -11 91 0
h 11 -10030 0
h -91 -10030 0
h 10031 -10 90 0
h 10 -10031 0
h -90 -10031 0
h 10032 -9 89 0
h 9 -10032 0
h -89 -10032 0
h 10033 -8 88 0
h 8 -10033 0
h -88 -10033 0
h 10034 -7 87 0
h 7 -10034 0
h -87 -10034 0
h -10035 -96 10026 10027 10028 10029 10030 10031 10032 10033 10034 6 5 0
h 96 10035 0
h -10026 10035 0
h -10027 10035 0
h -10028 10035 0
h -10029 10035 0
h -10030 10035 0
h -10031 10035 0
h -10032 10035 0
h -10033 10035 0
h -10034 10035 0
h -6 10035 0
h -5 10035 0
h 10036 -97 13 0
h 97 -10036 0
h -13 -10036 0
h 10037 -96 12 0
h 96 -10037 0
h -12 -10037 0
h 10038 -95 11 0
h 95 -10038 0
h -11 -10038 0
h 10039 -94 10 0
h 94 -10039 0
h -10 -10039 0
h 10040 -93 9 0
h 93 -10040 0
h -9 -10040 0
h 10041 -92 8 0
h 92 -10041 0
h -8 -10041 0
h 10042 -91 7 0
h 91 -10042 0
h -7 -10042 0
h 10043 -90 6 0
h 90 -10043 0
h -6 -10043 0
h 10044 -89 5 0
h 89 -10044 0
h -5 -10044 0
h -10045 -14 10036 10037 10038 10039 10040 10041 10042 10043 10044 88 87 0
h 14 10045 0
h -10036 10045 0
h -10037 10045 0
h -10038 10045 0
h -10039 10045 0
h -10040 10045 0
h -10041 10045 0
h -10042 10045 0
h -10043 10045 0
h -10044 10045 0
h -88 10045 0
h -87 10045 0
h -10046 -238 158 0
h 238 10046 0
h -158 10046 0
h -10047 -158 238 0
h 158 10047 0
h -238 10047 0
h -10048 -239 159 0
h 239 10048 0
h -159 10048 0
h -10049 -159 239 0
h 159 10049 0
h -239 10049 0
h -10050 -240 160 0
h 240 10050 0
h -160 10050 0
h -10051 -160 240 0
h 160 10051 0
h -240 10051 0
h -10052 -241 161 0
h 241 10052 0
h -161 10052 0
h -10053 -161 241 0
h 161 10053 0
h -241 10053 0
h 10054 -10035 -10045 -10046 -10047 -10048 -10049 -10050 -10051 -10052 -10053 0
h 10035 -10054 0
h 10045 -10054 0
h 10046 -10054 0
h 10047 -10054 0
h 10048 -10054 0
h 10049 -10054 0
h 10050 -10054 0
h 10051 -10054 0
h 10052 -10054 0
h 10053 -10054 0
h 10055 -30 117 0
h 30 -10055 0
h -117 -10055 0
h 10056 -29 116 0
h 29 -10056 0
h -116 -10056 0
h 10057 -28 115 0
h 28 -10057 0
h -115 -10057 0
h 10058 -27 114 0
h 27 -10058 0
h -114 -10058 0
h 10059 -26 113 0
h 26 -10059 0
h -113 -10059 0
h 10060 -25 112 0
h 25 -10060 0
h -112 -10060 0
h 10061 -24 111 0
h 24 -10061 0
h -111 -10061 0
h 10062 -23 110 0
h 23 -10062 0
h -110 -10062 0
h 10063 -22 109 0
h 22 -10063 0
h -109 -10063 0
h -10064 -118 10055 10056 10057 10058 10059 10060 10061 10062 10063 21 20 0
h 118 10064 0
h -10055 10064 0
h -10056 10064 0
h -10057 10064 0
h -10058 10064 0
h -10059 10064 0
h -10060 10064 0
h -10061 10064 0
h -10062 10064 0
h -10063 10064 0
h -21 10064 0
h -20 10064 0
h 10065 -119 28 0
h 119 -10065 0
h -28 -10065 0
h 10066 -118 27 0
h 118 -10066 0
h -27 -10066 0
h 10067 -117 26 0
h 117 -10067 0
h -26 -10067 0
h 10068 -116 25 0
h 116 -10068 0
h -25 -10068 0
h 10069 -115 24 0
h 115 -10069 0
h -24 -10069 0
h 10070 -114 23 0
h 114 -10070 0
h -23 -10070 0
h 10071 -113 22 0
h 113 -10071 0
h -22 -10071 0
h 10072 -112 21 0
h 112 -10072 0
h -21 -10072 0
h 10073 -111 20 0
h 111 -10073 0
h -20 -10073 0
h -10074 -29 10065 10066 10067 10068 10069 10070 10071 10072 10073 110 109 0
h 29 10074 0
h -10065 10074 0
h -10066 10074 0
h -10067 10074 0
h -10068 10074 0
h -10069 10074 0
h -10070 10074 0
h -10071 10074 0
h -10072 10074 0
h -10073 10074 0
h -110 10074 0
h -109 10074 0
h -10075 -253 162 0
h 253 10075 0
h -162 10075 0
h -10076 -162 253 0
h 162 10076 0
h -253 10076 0
h -10077 -254 163 0
h 254 10077 0
h -163 10077 0
h -10078 -163 254 0
h 163 10078 0
h -254 10078 0
h -10079 -255 164 0
h 255 10079 0
h -164 10079 0
h -10080 -164 255 0
h 164 10080 0
h -255 10080 0
h -10081 -256 165 0
h 256 10081 0
h -165 10081 0
h -10082 -165 256 0
h 165 10082 0
h -256 10082 0
h 10083 -10064 -10074 -10075 -10076 -10077 -10078 -10079 -10080 -10081 -10082 0
h 10064 -10083 0
h 10074 -10083 0
h 10075 -10083 0
h 10076 -10083 0
h 10077 -10083 0
h 10078 -10083 0
h 10079 -10083 0
h 10080 -10083 0
h 10081 -10083 0
h 10082 -10083 0
h 10084 -15 117 0
h 15 -10084 0
h -117 -10084 0
h 10085 -14 116 0
h 14 -10085 0
h -116 -10085 0
h 10086 -13 115 0
h 13 -10086 0
h -115 -10086 0
h 10087 -12 114 0
h 12 -10087 0
h -114 -10087 0
h 10088 -11 113 0
h 11 -10088 0
h -113 -10088 0
h 10089 -10 112 0
h 10 -10089 0
h -112 -10089 0
h 10090 -9 111 0
h 9 -10090 0
h -111 -10090 0
h 10091 -8 110 0
h 8 -10091 0
h -110 -10091 0
h 10092 -7 109 0
h 7 -10092 0
h -109 -10092 0
h -10093 -118 10084 10085 10086 10087 10088 10089 10090 10091 10092 6 5 0
h 118 10093 0
h -10084 10093 0
h -10085 10093 0
h -10086 10093 0
h -10087 10093 0
h -10088 10093 0
h -10089 10093 0
h -10090 10093 0
h -10091 10093 0
h -10092 10093 0
h -6 10093 0
h -5 10093 0
h 10094 -119 13 0
h 119 -10094 0
h -13 -10094 0
h 10095 -118 12 0
h 118 -10095 0
h -12 -10095 0
h 10096 -117 11 0
h 117 -10096 0
h -11 -10096 0
h 10097 -116 10 0
h 116 -10097 0
h -10 -10097 0
h 10098 -115 9 0
h 115 -10098 0
h -9 -10098 0
h 10099 -114 8 0
h 114 -10099 0
h -8 -10099 0
h 10100 -113 7 0
h 113 -10100 0
h -7 -10100 0
h 10101 -112 6 0
h 112 -10101 0
h -6 -10101 0
h 10102 -111 5 0
h 111 -10102 0
h -5 -10102 0
h -10103 -14 10094 10095 10096 10097 10098 10099 10100 10101 10102 110 109 0
h 14 10103 0
h -10094 10103 0
h -10095 10103 0
h -10096 10103 0
h -10097 10103 0
h -10098 10103 0
h -10099 10103 0
h -10100 10103 0
h -10101 10103 0
h -10102 10103 0
h -110 10103 0
h -109 10103 0
h -10104 -253 158 0
h 253 10104 0
h -158 10104 0
h -10105 -158 253 0
h 158 10105 0
h -253 10105 0
h -10106 -254 159 0
h 254 10106 0
h -159 10106 0
h -10107 -159 254 0
h 159 10107 0
h -254 10107 0
h -10108 -255 160 0
h 255 10108 0
h -160 10108 0
h -10109 -160 255 0
h 160 10109 0
h -255 10109 0
h -10110 -256 161 0
h 256 10110 0
h -161 10110 0
h -10111 -161 256 0
h 161 10111 0
h -256 10111 0
h 10112 -10093 -10103 -10104 -10105 -10106 -10107 -10108 -10109 -10110 -10111 0
h 10093 -10112 0
h 10103 -10112 0
h 10104 -10112 0
h 10105 -10112 0
h 10106 -10112 0
h 10107 -10112 0
h 10108 -10112 0
h 10109 -10112 0
h 10110 -10112 0
h 10111 -10112 0
h 10113 -30 139 0
h 30 -10113 0
h -139 -10113 0
h 10114 -29 138 0
h 29 -10114 0
h -138 -10114 0
h 10115 -28 137 0
h 28 -10115 0
h -137 -10115 0
h 10116 -27 136 0
h 27 -10116 0
h -136 -10116 0
h 10117 -26 135 0
h 26 -10117 0
h -135 -10117 0
h 10118 -25 134 0
h 25 -10118 0
h -134 -10118 0
h 10119 -24 133 0
h 24 -10119 0
h -133 -10119 0
h 10120 -23 132 0
h 23 -10120 0
h -132 -10120 0
h 10121 -22 131 0
h 22 -10121 0
h -131 -10121 0
h -10122 -140 10113 10114 10115 10116 10117 10118 10119 10120 10121 21 20 0
h 140 10122 0
h -10113 10122 0
h -10114 10122 0
h -10115 10122 0
h -10116 10122 0
h -10117 10122 0
h -10118 10122 0
h -10119 10122 0
h -10120 10122 0
h -10121 10122 0
h -21 10122 0
h -20 10122 0
h 10123 -141 28 0
h 141 -10123 0
h -28 -10123 0
h 10124 -140 27 0
h 140 -10124 0
h -27 -10124 0
h 10125 -139 26 0
h 139 -10125 0
h -26 -10125 0
h 10126 -138 25 0
h 138 -10126 0
h -25 -10126 0
h 10127 -137 24 0
h 137 -10127 0
h -24 -10127 0
h 10128 -136 23 0
h 136 -10128 0
h -23 -10128 0
h 10129 -135 22 0
h 135 -10129 0
h -22 -10129 0
h 10130 -134 21 0
h 134 -10130 0
h -21 -10130 0
h 10131 -133 20 0
h 133 -10131 0
h -20 -10131 0
h -10132 -29 10123 10124 10125 10126 10127 10128 10129 10130 10131 132 131 0
h 29 10132 0
h -10123 10132 0
h -10124 10132 0
h -10125 10132 0
h -10126 10132 0
h -10127 10132 0
h -10128 10132 0
h -10129 10132 0
h -10130 10132 0
h -10131 10132 0
h -132 10132 0
h -131 10132 0
h -10133 -223 162 0
h 223 10133 0
h -162 10133 0
h -10134 -162 223 0
h 162 10134 0
h -223 10134 0
h -10135 -224 163 0
h 224 10135 0
h -163 10135 0
h -10136 -163 224 0
h 163 10136 0
h -224 10136 0
h -10137 -225 164 0
h 225 10137 0
h -164 10137 0
h -10138 -164 225 0
h 164 10138 0
h -225 10138 0
h -10139 -226 165 0
h 226 10139 0
h -165 10139 0
h -10140 -165 226 0
h 165 10140 0
h -226 10140 0
h 10141 -10122 -10132 -10133 -10134 -10135 -10136 -10137 -10138 -10139 -10140 0
h 10122 -10141 0
h 10132 -10141 0
h 10133 -10141 0
h 10134 -10141 0
h 10135 -10141 0
h 10136 -10141 0
h 10137 -10141 0
h 10138 -10141 0
h 10139 -10141 0
h 10140 -10141 0
h 10142 -15 139 0
h 15 -10142 0
h -139 -10142 0
h 10143 -14 138 0
h 14 -10143 0
h -138 -10143 0
h 10144 -13 137 0
h 13 -10144 0
h -137 -10144 0
h 10145 -12 136 0
h 12 -10145 0
h -136 -10145 0
h 10146 -11 135 0
h 11 -10146 0
h -135 -10146 0
h 10147 -10 134 0
h 10 -10147 0
h -134 -10147 0
h 10148 -9 133 0
h 9 -10148 0
h -133 -10148 0
h 10149 -8 132 0
h 8 -10149 0
h -132 -10149 0
h 10150 -7 131 0
h 7 -10150 0
h -131 -10150 0
h -10151 -140 10142 10143 10144 10145 10146 10147 10148 10149 10150 6 5 0
h 140 10151 0
h -10142 10151 0
h -10143 10151 0
h -10144 10151 0
h -10145 10151 0
h -10146 10151 0
h -10147 10151 0
h -10148 10151 0
h -10149 10151 0
h -10150 10151 0
h -6 10151 0
h -5 10151 0
h 10152 -141 13 0
h 141 -10152 0
h -13 -10152 0
h 10153 -140 12 0
h 140 -10153 0
h -12 -10153 0
h 10154 -139 11 0
h 139 -10154 0
h -11 -10154 0
h 10155 -138 10 0
h 138 -10155 0
h -10 -10155 0
h 10156 -137 9 0
h 137 -10156 0
h -9 -10156 0
h 10157 -136 8 0
h 136 -10157 0
h -8 -10157 0
h 10158 -135 7 0
h 135 -10158 0
h -7 -10158 0
h 10159 -134 6 0
h 134 -10159 0
h -6 -10159 0
h 10160 -133 5 0
h 133 -10160 0
h -5 -10160 0
h -10161 -14 10152 10153 10154 10155 10156 10157 10158 10159 10160 132 131 0
h 14 10161 0
h -10152 10161 0
h -10153 10161 0
h -10154 10161 0
h -10155 10161 0
h -10156 10161 0
h -10157 10161 0
h -10158 10161 0
h -10159 10161 0
h -10160 10161 0
h -132 10161 0
h -131 10161 0
h -10162 -223 158 0
h 223 10162 0
h -158 10162 0
h -10163 -158 223 0
h 158 10163 0
h -223 10163 0
h -10164 -224 159 0
h 224 10164 0
h -159 10164 0
h -10165 -159 224 0
h 159 10165 0
h -224 10165 0
h -10166 -225 160 0
h 225 10166 0
h -160 10166 0
h -10167 -160 225 0
h 160 10167 0
h -225 10167 0
h -10168 -226 161 0
h 226 10168 0
h -161 10168 0
h -10169 -161 226 0
h 161 10169 0
h -226 10169 0
h 10170 -10151 -10161 -10162 -10163 -10164 -10165 -10166 -10167 -10168 -10169 0
h 10151 -10170 0
h 10161 -10170 0
h 10162 -10170 0
h 10163 -10170 0
h 10164 -10170 0
h 10165 -10170 0
h 10166 -10170 0
h 10167 -10170 0
h 10168 -10170 0
h 10169 -10170 0
h 10171 -30 277 0
h 30 -10171 0
h -277 -10171 0
h 10172 -29 276 0
h 29 -10172 0
h -276 -10172 0
h 10173 -28 275 0
h 28 -10173 0
h -275 -10173 0
h 10174 -27 274 0
h 27 -10174 0
h -274 -10174 0
h 10175 -26 273 0
h 26 -10175 0
h -273 -10175 0
h 10176 -25 272 0
h 25 -10176 0
h -272 -10176 0
h 10177 -24 271 0
h 24 -10177 0
h -271 -10177 0
h 10178 -23 270 0
h 23 -10178 0
h -270 -10178 0
h 10179 -22 269 0
h 22 -10179 0
h -269 -10179 0
h 10180 -21 268 0
h 21 -10180 0
h -268 -10180 0
h -10181 -278 10171 10172 10173 10174 10175 10176 10177 10178 10179 10180 20 0
h 278 10181 0
h -10171 10181 0
h -10172 10181 0
h -10173 10181 0
h -10174 10181 0
h -10175 10181 0
h -10176 10181 0
h -10177 10181 0
h -10178 10181 0
h -10179 10181 0
h -10180 10181 0
h -20 10181 0
h 10182 -278 28 0
h 278 -10182 0
h -28 -10182 0
h 10183 -277 27 0
h 277 -10183 0
h -27 -10183 0
h 10184 -276 26 0
h 276 -10184 0
h -26 -10184 0
h 10185 -275 25 0
h 275 -10185 0
h -25 -10185 0
h 10186 -274 24 0
h 274 -10186 0
h -24 -10186 0
h 10187 -273 23 0
h 273 -10187 0
h -23 -10187 0
h 10188 -272 22 0
h 272 -10188 0
h -22 -10188 0
h 10189 -271 21 0
h 271 -10189 0
h -21 -10189 0
h 10190 -270 20 0
h 270 -10190 0
h -20 -10190 0
h -10191 -29 10182 10183 10184 10185 10186 10187 10188 10189 10190 269 268 0
h 29 10191 0
h -10182 10191 0
h -10183 10191 0
h -10184 10191 0
h -10185 10191 0
h -10186 10191 0
h -10187 10191 0
h -10188 10191 0
h -10189 10191 0
h -10190 10191 0
h -269 10191 0
h -268 10191 0
h -10192 -42 162 0
h 42 10192 0
h -162 10192 0
h -10193 -162 42 0
h 162 10193 0
h -42 10193 0
h -10194 -43 163 0
h 43 10194 0
h -163 10194 0
h -10195 -163 43 0
h 163 10195 0
h -43 10195 0
h -10196 -44 164 0
h 44 10196 0
h -164 10196 0
h -10197 -164 44 0
h 164 10197 0
h -44 10197 0
h -10198 -45 165 0
h 45 10198 0
h -165 10198 0
h -10199 -165 45 0
h 165 10199 0
h -45 10199 0
h 10200 -10181 -10191 -10192 -10193 -10194 -10195 -10196 -10197 -10198 -10199 0
h 10181 -10200 0
h 10191 -10200 0
h 10192 -10200 0
h 10193 -10200 0
h 10194 -10200 0
h 10195 -10200 0
h 10196 -10200 0
h 10197 -10200 0
h 10198 -10200 0
h 10199 -10200 0
h 10201 -15 277 0
h 15 -10201 0
h -277 -10201 0
h 10202 -14 276 0
h 14 -10202 0
h -276 -10202 0
h 10203 -13 275 0
h 13 -10203 0
h -275 -10203 0
h 10204 -12 274 0
h 12 -10204 0
h -274 -10204 0
h 10205 -11 273 0
h 11 -10205 0
h -273 -10205 0
h 10206 -10 272 0
h 10 -10206 0
h -272 -10206 0
h 10207 -9 271 0
h 9 -10207 0
h -271 -10207 0
h 10208 -8 270 0
h 8 -10208 0
h -270 -10208 0
h 10209 -7 269 0
h 7 -10209 0
h -269 -10209 0
h 10210 -6 268 0
h 6 -10210 0
h -268 -10210 0
h -10211 -278 10201 10202 10203 10204 10205 10206 10207 10208 10209 10210 5 0
h 278 10211 0
h -10201 10211 0
h -10202 10211 0
h -10203 10211 0
h -10204 10211 0
h -10205 10211 0
h -10206 10211 0
h -10207 10211 0
h -10208 10211 0
h -10209 10211 0
h -10210 10211 0
h -5 10211 0
h 10212 -278 13 0
h 278 -10212 0
h -13 -10212 0
h 10213 -277 12 0
h 277 -10213 0
h -12 -10213 0
h 10214 -276 11 0
h 276 -10214 0
h -11 -10214 0
h 10215 -275 10 0
h 275 -10215 0
h -10 -10215 0
h 10216 -274 9 0
h 274 -10216 0
h -9 -10216 0
h 10217 -273 8 0
h 273 -10217 0
h -8 -10217 0
h 10218 -272 7 0
h 272 -10218 0
h -7 -10218 0
h 10219 -271 6 0
h 271 -10219 0
h -6 -10219 0
h 10220 -270 5 0
h 270 -10220 0
h -5 -10220 0
h -10221 -14 10212 10213 10214 10215 10216 10217 10218 10219 10220 269 268 0
h 14 10221 0
h -10212 10221 0
h -10213 10221 0
h -10214 10221 0
h -10215 10221 0
h -10216 10221 0
h -10217 10221 0
h -10218 10221 0
h -10219 10221 0
h -10220 10221 0
h -269 10221 0
h -268 10221 0
h -10222 -42 158 0
h 42 10222 0
h -158 10222 0
h -10223 -158 42 0
h 158 10223 0
h -42 10223 0
h -10224 -43 159 0
h 43 10224 0
h -159 10224 0
h -10225 -159 43 0
h 159 10225 0
h -43 10225 0
h -10226 -44 160 0
h 44 10226 0
h -160 10226 0
h -10227 -160 44 0
h 160 10227 0
h -44 10227 0
h -10228 -45 161 0
h 45 10228 0
h -161 10228 0
h -10229 -161 45 0
h 161 10229 0
h -45 10229 0
h 10230 -10211 -10221 -10222 -10223 -10224 -10225 -10226 -10227 -10228 -10229 0
h 10211 -10230 0
h 10221 -10230 0
h 10222 -10230 0
h 10223 -10230 0
h 10224 -10230 0
h 10225 -10230 0
h 10226 -10230 0
h 10227 -10230 0
h 10228 -10230 0
h 10229 -10230 0
h 10231 -30 299 0
h 30 -10231 0
h -299 -10231 0
h 10232 -29 298 0
h 29 -10232 0
h -298 -10232 0
h 10233 -28 297 0
h 28 -10233 0
h -297 -10233 0
h 10234 -27 296 0
h 27 -10234 0
h -296 -10234 0
h 10235 -26 295 0
h 26 -10235 0
h -295 -10235 0
h 10236 -25 294 0
h 25 -10236 0
h -294 -10236 0
h 10237 -24 293 0
h 24 -10237 0
h -293 -10237 0
h 10238 -23 292 0
h 23 -10238 0
h -292 -10238 0
h 10239 -22 291 0
h 22 -10239 0
h -291 -10239 0
h 10240 -21 290 0
h 21 -10240 0
h -290 -10240 0
h -10241 -300 10231 10232 10233 10234 10235 10236 10237 10238 10239 10240 20 0
h 300 10241 0
h -10231 10241 0
h -10232 10241 0
h -10233 10241 0
h -10234 10241 0
h -10235 10241 0
h -10236 10241 0
h -10237 10241 0
h -10238 10241 0
h -10239 10241 0
h -10240 10241 0
h -20 10241 0
h 10242 -300 28 0
h 300 -10242 0
h -28 -10242 0
h 10243 -299 27 0
h 299 -10243 0
h -27 -10243 0
h 10244 -298 26 0
h 298 -10244 0
h -26 -10244 0
h 10245 -297 25 0
h 297 -10245 0
h -25 -10245 0
h 10246 -296 24 0
h 296 -10246 0
h -24 -10246 0
h 10247 -295 23 0
h 295 -10247 0
h -23 -10247 0
h 10248 -294 22 0
h 294 -10248 0
h -22 -10248 0
h 10249 -293 21 0
h 293 -10249 0
h -21 -10249 0
h 10250 -292 20 0
h 292 -10250 0
h -20 -10250 0
h -10251 -29 10242 10243 10244 10245 10246 10247 10248 10249 10250 291 290 0
h 29 10251 0
h -10242 10251 0
h -10243 10251 0
h -10244 10251 0
h -10245 10251 0
h -10246 10251 0
h -10247 10251 0
h -10248 10251 0
h -10249 10251 0
h -10250 10251 0
h -291 10251 0
h -290 10251 0
h -10252 -61 162 0
h 61 10252 0
h -162 10252 0
h -10253 -162 61 0
h 162 10253 0
h -61 10253 0
h -10254 -62 163 0
h 62 10254 0
h -163 10254 0
h -10255 -163 62 0
h 163 10255 0
h -62 10255 0
h -10256 -63 164 0
h 63 10256 0
h -164 10256 0
h -10257 -164 63 0
h 164 10257 0
h -63 10257 0
h -10258 -64 165 0
h 64 10258 0
h -165 10258 0
h -10259 -165 64 0
h 165 10259 0
h -64 10259 0
h 10260 -10241 -10251 -10252 -10253 -10254 -10255 -10256 -10257 -10258 -10259 0
h 10241 -10260 0
h 10251 -10260 0
h 10252 -10260 0
h 10253 -10260 0
h 10254 -10260 0
h 10255 -10260 0
h 10256 -10260 0
h 10257 -10260 0
h 10258 -10260 0
h 10259 -10260 0
h 10261 -15 299 0
h 15 -10261 0
h -299 -10261 0
h 10262 -14 298 0
h 14 -10262 0
h -298 -10262 0
h 10263 -13 297 0
h 13 -10263 0
h -297 -10263 0
h 10264 -12 296 0
h 12 -10264 0
h -296 -10264 0
h 10265 -11 295 0
h 11 -10265 0
h -295 -10265 0
h 10266 -10 294 0
h 10 -10266 0
h -294 -10266 0
h 10267 -9 293 0
h 9 -10267 0
h -293 -10267 0
h 10268 -8 292 0
h 8 -10268 0
h -292 -10268 0
h 10269 -7 291 0
h 7 -10269 0
h -291 -10269 0
h 10270 -6 290 0
h 6 -10270 0
h -290 -10270 0
h -10271 -300 10261 10262 10263 10264 10265 10266 10267 10268 10269 10270 5 0
h 300 10271 0
h -10261 10271 0
h -10262 10271 0
h -10263 10271 0
h -10264 10271 0
h -10265 10271 0
h -10266 10271 0
h -10267 10271 0
h -10268 10271 0
h -10269 10271 0
h -10270 10271 0
h -5 10271 0
h 10272 -300 13 0
h 300 -10272 0
h -13 -10272 0
h 10273 -299 12 0
h 299 -10273 0
h -12 -10273 0
h 10274 -298 11 0
h 298 -10274 0
h -11 -10274 0
h 10275 -297 10 0
h 297 -10275 0
h -10 -10275 0
h 10276 -296 9 0
h 296 -10276 0
h -9 -10276 0
h 10277 -295 8 0
h 295 -10277 0
h -8 -10277 0
h 10278 -294 7 0
h 294 -10278 0
h -7 -10278 0
h 10279 -293 6 0
h 293 -10279 0
h -6 -10279 0
h 10280 -292 5 0
h 292 -10280 0
h -5 -10280 0
h -10281 -14 10272 10273 10274 10275 10276 10277 10278 10279 10280 291 290 0
h 14 10281 0
h -10272 10281 0
h -10273 10281 0
h -10274 10281 0
h -10275 10281 0
h -10276 10281 0
h -10277 10281 0
h -10278 10281 0
h -10279 10281 0
h -10280 10281 0
h -291 10281 0
h -290 10281 0
h -10282 -61 158 0
h 61 10282 0
h -158 10282 0
h -10283 -158 61 0
h 158 10283 0
h -61 10283 0
h -10284 -62 159 0
h 62 10284 0
h -159 10284 0
h -10285 -159 62 0
h 159 10285 0
h -62 10285 0
h -10286 -63 160 0
h 63 10286 0
h -160 10286 0
h -10287 -160 63 0
h 160 10287 0
h -63 10287 0
h -10288 -64 161 0
h 64 10288 0
h -161 10288 0
h -10289 -161 64 0
h 161 10289 0
h -64 10289 0
h 10290 -10271 -10281 -10282 -10283 -10284 -10285 -10286 -10287 -10288 -10289 0
h 10271 -10290 0
h 10281 -10290 0
h 10282 -10290 0
h 10283 -10290 0
h 10284 -10290 0
h 10285 -10290 0
h 10286 -10290 0
h 10287 -10290 0
h 10288 -10290 0
h 10289 -10290 0
h 10291 -30 288 0
h 30 -10291 0
h -288 -10291 0
h 10292 -29 287 0
h 29 -10292 0
h -287 -10292 0
h 10293 -28 286 0
h 28 -10293 0
h -286 -10293 0
h 10294 -27 285 0
h 27 -10294 0
h -285 -10294 0
h 10295 -26 284 0
h 26 -10295 0
h -284 -10295 0
h 10296 -25 283 0
h 25 -10296 0
h -283 -10296 0
h 10297 -24 282 0
h 24 -10297 0
h -282 -10297 0
h 10298 -23 281 0
h 23 -10298 0
h -281 -10298 0
h 10299 -22 280 0
h 22 -10299 0
h -280 -10299 0
h 10300 -21 279 0
h 21 -10300 0
h -279 -10300 0
h -10301 -289 10291 10292 10293 10294 10295 10296 10297 10298 10299 10300 20 0
h 289 10301 0
h -10291 10301 0
h -10292 10301 0
h -10293 10301 0
h -10294 10301 0
h -10295 10301 0
h -10296 10301 0
h -10297 10301 0
h -10298 10301 0
h -10299 10301 0
h -10300 10301 0
h -20 10301 0
h 10302 -289 28 0
h 289 -10302 0
h -28 -10302 0
h 10303 -288 27 0
h 288 -10303 0
h -27 -10303 0
h 10304 -287 26 0
h 287 -10304 0
h -26 -10304 0
h 10305 -286 25 0
h 286 -10305 0
h -25 -10305 0
h 10306 -285 24 0
h 285 -10306 0
h -24 -10306 0
h 10307 -284 23 0
h 284 -10307 0
h -23 -10307 0
h 10308 -283 22 0
h 283 -10308 0
h -22 -10308 0
h 10309 -282 21 0
h 282 -10309 0
h -21 -10309 0
h 10310 -281 20 0
h 281 -10310 0
h -20 -10310 0
h -10311 -29 10302 10303 10304 10305 10306 10307 10308 10309 10310 280 279 0
h 29 10311 0
h -10302 10311 0
h -10303 10311 0
h -10304 10311 0
h -10305 10311 0
h -10306 10311 0
h -10307 10311 0
h -10308 10311 0
h -10309 10311 0
h -10310 10311 0
h -280 10311 0
h -279 10311 0
h -10312 -57 162 0
h 57 10312 0
h -162 10312 0
h -10313 -162 57 0
h 162 10313 0
h -57 10313 0
h -10314 -58 163 0
h 58 10314 0
h -163 10314 0
h -10315 -163 58 0
h 163 10315 0
h -58 10315 0
h -10316 -59 164 0
h 59 10316 0
h -164 10316 0
h -10317 -164 59 0
h 164 10317 0
h -59 10317 0
h -10318 -60 165 0
h 60 10318 0
h -165 10318 0
h -10319 -165 60 0
h 165 10319 0
h -60 10319 0
h 10320 -10301 -10311 -10312 -10313 -10314 -10315 -10316 -10317 -10318 -10319 0
h 10301 -10320 0
h 10311 -10320 0
h 10312 -10320 0
h 10313 -10320 0
h 10314 -10320 0
h 10315 -10320 0
h 10316 -10320 0
h 10317 -10320 0
h 10318 -10320 0
h 10319 -10320 0
h 10321 -15 288 0
h 15 -10321 0
h -288 -10321 0
h 10322 -14 287 0
h 14 -10322 0
h -287 -10322 0
h 10323 -13 286 0
h 13 -10323 0
h -286 -10323 0
h 10324 -12 285 0
h 12 -10324 0
h -285 -10324 0
h 10325 -11 284 0
h 11 -10325 0
h -284 -10325 0
h 10326 -10 283 0
h 10 -10326 0
h -283 -10326 0
h 10327 -9 282 0
h 9 -10327 0
h -282 -10327 0
h 10328 -8 281 0
h 8 -10328 0
h -281 -10328 0
h 10329 -7 280 0
h 7 -10329 0
h -280 -10329 0
h 10330 -6 279 0
h 6 -10330 0
h -279 -10330 0
h -10331 -289 10321 10322 10323 10324 10325 10326 10327 10328 10329 10330 5 0
h 289 10331 0
h -10321 10331 0
h -10322 10331 0
h -10323 10331 0
h -10324 10331 0
h -10325 10331 0
h -10326 10331 0
h -10327 10331 0
h -10328 10331 0
h -10329 10331 0
h -10330 10331 0
h -5 10331 0
h 10332 -289 13 0
h 289 -10332 0
h -13 -10332 0
h 10333 -288 12 0
h 288 -10333 0
h -12 -10333 0
h 10334 -287 11 0
h 287 -10334 0
h -11 -10334 0
h 10335 -286 10 0
h 286 -10335 0
h -10 -10335 0
h 10336 -285 9 0
h 285 -10336 0
h -9 -10336 0
h 10337 -284 8 0
h 284 -10337 0
h -8 -10337 0
h 10338 -283 7 0
h 283 -10338 0
h -7 -10338 0
h 10339 -282 6 0
h 282 -10339 0
h -6 -10339 0
h 10340 -281 5 0
h 281 -10340 0
h -5 -10340 0
h -10341 -14 10332 10333 10334 10335 10336 10337 10338 10339 10340 280 279 0
h 14 10341 0
h -10332 10341 0
h -10333 10341 0
h -10334 10341 0
h -10335 10341 0
h -10336 10341 0
h -10337 10341 0
h -10338 10341 0
h -10339 10341 0
h -10340 10341 0
h -280 10341 0
h -279 10341 0
h -10342 -57 158 0
h 57 10342 0
h -158 10342 0
h -10343 -158 57 0
h 158 10343 0
h -57 10343 0
h -10344 -58 159 0
h 58 10344 0
h -159 10344 0
h -10345 -159 58 0
h 159 10345 0
h -58 10345 0
h -10346 -59 160 0
h 59 10346 0
h -160 10346 0
h -10347 -160 59 0
h 160 10347 0
h -59 10347 0
h -10348 -60 161 0
h 60 10348 0
h -161 10348 0
h -10349 -161 60 0
h 161 10349 0
h -60 10349 0
h 10350 -10331 -10341 -10342 -10343 -10344 -10345 -10346 -10347 -10348 -10349 0
h 10331 -10350 0
h 10341 -10350 0
h 10342 -10350 0
h 10343 -10350 0
h 10344 -10350 0
h 10345 -10350 0
h 10346 -10350 0
h 10347 -10350 0
h 10348 -10350 0
h 10349 -10350 0
h -10351 -252 200 0
h 252 10351 0
h -200 10351 0
h -10352 -251 199 0
h 251 10352 0
h -199 10352 0
h -10353 -250 198 0
h 250 10353 0
h -198 10353 0
h -10354 -249 197 0
h 249 10354 0
h -197 10354 0
h -10355 -248 196 0
h 248 10355 0
h -196 10355 0
h -10356 -247 195 0
h 247 10356 0
h -195 10356 0
h -10357 -246 194 0
h 246 10357 0
h -194 10357 0
h -10358 -245 193 0
h 245 10358 0
h -193 10358 0
h 10359 -201 -10351 -10352 -10353 -10354 -10355 -10356 -10357 -10358 244 243 242 0
h 201 -10359 0
h 10351 -10359 0
h 10352 -10359 0
h 10353 -10359 0
h 10354 -10359 0
h 10355 -10359 0
h 10356 -10359 0
h 10357 -10359 0
h 10358 -10359 0
h -244 -10359 0
h -243 -10359 0
h -242 -10359 0
h -10360 -203 249 0
h 203 10360 0
h -249 10360 0
h -10361 -202 248 0
h 202 10361 0
h -248 10361 0
h -10362 -201 247 0
h 201 10362 0
h -247 10362 0
h -10363 -200 246 0
h 200 10363 0
h -246 10363 0
h -10364 -199 245 0
h 199 10364 0
h -245 10364 0
h -10365 -198 244 0
h 198 10365 0
h -244 10365 0
h -10366 -197 243 0
h 197 10366 0
h -243 10366 0
h -10367 -196 242 0
h 196 10367 0
h -242 10367 0
h 10368 -250 -10360 -10361 -10362 -10363 -10364 -10365 -10366 -10367 195 194 193 0
h 250 -10368 0
h 10360 -10368 0
h 10361 -10368 0
h 10362 -10368 0
h 10363 -10368 0
h 10364 -10368 0
h 10365 -10368 0
h 10366 -10368 0
h 10367 -10368 0
h -195 -10368 0
h -194 -10368 0
h -193 -10368 0
h 10369 -342 1 0
h 342 -10369 0
h -1 -10369 0
h 10370 -1 342 0
h 1 -10370 0
h -342 -10370 0
h 10371 -343 2 0
h 343 -10371 0
h -2 -10371 0
h 10372 -2 343 0
h 2 -10372 0
h -343 -10372 0
h 10373 -344 3 0
h 344 -10373 0
h -3 -10373 0
h 10374 -3 344 0
h 3 -10374 0
h -344 -10374 0
h 10375 -345 4 0
h 345 -10375 0
h -4 -10375 0
h 10376 -4 345 0
h 4 -10376 0
h -345 -10376 0
h -10377 -237 200 0
h 237 10377 0
h -200 10377 0
h -10378 -236 199 0
h 236 10378 0
h -199 10378 0
h -10379 -235 198 0
h 235 10379 0
h -198 10379 0
h -10380 -234 197 0
h 234 10380 0
h -197 10380 0
h -10381 -233 196 0
h 233 10381 0
h -196 10381 0
h -10382 -232 195 0
h 232 10382 0
h -195 10382 0
h -10383 -231 194 0
h 231 10383 0
h -194 10383 0
h -10384 -230 193 0
h 230 10384 0
h -193 10384 0
h 10385 -201 -10377 -10378 -10379 -10380 -10381 -10382 -10383 -10384 229 228 227 0
h 201 -10385 0
h 10377 -10385 0
h 10378 -10385 0
h 10379 -10385 0
h 10380 -10385 0
h 10381 -10385 0
h 10382 -10385 0
h 10383 -10385 0
h 10384 -10385 0
h -229 -10385 0
h -228 -10385 0
h -227 -10385 0
h -10386 -203 234 0
h 203 10386 0
h -234 10386 0
h -10387 -202 233 0
h 202 10387 0
h -233 10387 0
h -10388 -201 232 0
h 201 10388 0
h -232 10388 0
h -10389 -200 231 0
h 200 10389 0
h -231 10389 0
h -10390 -199 230 0
h 199 10390 0
h -230 10390 0
h -10391 -198 229 0
h 198 10391 0
h -229 10391 0
h -10392 -197 228 0
h 197 10392 0
h -228 10392 0
h -10393 -196 227 0
h 196 10393 0
h -227 10393 0
h 10394 -235 -10386 -10387 -10388 -10389 -10390 -10391 -10392 -10393 195 194 193 0
h 235 -10394 0
h 10386 -10394 0
h 10387 -10394 0
h 10388 -10394 0
h 10389 -10394 0
h 10390 -10394 0
h 10391 -10394 0
h 10392 -10394 0
h 10393 -10394 0
h -195 -10394 0
h -194 -10394 0
h -193 -10394 0
h 10395 -342 357 0
h 342 -10395 0
h -357 -10395 0
h 10396 -357 342 0
h 357 -10396 0
h -342 -10396 0
h 10397 -343 358 0
h 343 -10397 0
h -358 -10397 0
h 10398 -358 343 0
h 358 -10398 0
h -343 -10398 0
h 10399 -344 359 0
h 344 -10399 0
h -359 -10399 0
h 10400 -359 344 0
h 359 -10400 0
h -344 -10400 0
h 10401 -345 360 0
h 345 -10401 0
h -360 -10401 0
h 10402 -360 345 0
h 360 -10402 0
h -345 -10402 0
h -10403 -252 215 0
h 252 10403 0
h -215 10403 0
h -10404 -251 214 0
h 251 10404 0
h -214 10404 0
h -10405 -250 213 0
h 250 10405 0
h -213 10405 0
h -10406 -249 212 0
h 249 10406 0
h -212 10406 0
h -10407 -248 211 0
h 248 10407 0
h -211 10407 0
h -10408 -247 210 0
h 247 10408 0
h -210 10408 0
h -10409 -246 209 0
h 246 10409 0
h -209 10409 0
h -10410 -245 208 0
h 245 10410 0
h -208 10410 0
h 10411 -216 -10403 -10404 -10405 -10406 -10407 -10408 -10409 -10410 244 243 242 0
h 216 -10411 0
h 10403 -10411 0
h 10404 -10411 0
h 10405 -10411 0
h 10406 -10411 0
h 10407 -10411 0
h 10408 -10411 0
h 10409 -10411 0
h 10410 -10411 0
h -244 -10411 0
h -243 -10411 0
h -242 -10411 0
h -10412 -218 249 0
h 218 10412 0
h -249 10412 0
h -10413 -217 248 0
h 217 10413 0
h -248 10413 0
h -10414 -216 247 0
h 216 10414 0
h -247 10414 0
h -10415 -215 246 0
h 215 10415 0
h -246 10415 0
h -10416 -214 245 0
h 214 10416 0
h -245 10416 0
h -10417 -213 244 0
h 213 10417 0
h -244 10417 0
h -10418 -212 243 0
h 212 10418 0
h -243 10418 0
h -10419 -211 242 0
h 211 10419 0
h -242 10419 0
h 10420 -250 -10412 -10413 -10414 -10415 -10416 -10417 -10418 -10419 210 209 208 0
h 250 -10420 0
h 10412 -10420 0
h 10413 -10420 0
h 10414 -10420 0
h 10415 -10420 0
h 10416 -10420 0
h 10417 -10420 0
h 10418 -10420 0
h 10419 -10420 0
h -210 -10420 0
h -209 -10420 0
h -208 -10420 0
h 10421 -327 1 0
h 327 -10421 0
h -1 -10421 0
h 10422 -1 327 0
h 1 -10422 0
h -327 -10422 0
h 10423 -328 2 0
h 328 -10423 0
h -2 -10423 0
h 10424 -2 328 0
h 2 -10424 0
h -328 -10424 0
h 10425 -329 3 0
h 329 -10425 0
h -3 -10425 0
h 10426 -3 329 0
h 3 -10426 0
h -329 -10426 0
h 10427 -330 4 0
h 330 -10427 0
h -4 -10427 0
h 10428 -4 330 0
h 4 -10428 0
h -330 -10428 0
h -10429 -237 215 0
h 237 10429 0
h -215 10429 0
h -10430 -236 214 0
h 236 10430 0
h -214 10430 0
h -10431 -235 213 0
h 235 10431 0
h -213 10431 0
h -10432 -234 212 0
h 234 10432 0
h -212 10432 0
h -10433 -233 211 0
h 233 10433 0
h -211 10433 0
h -10434 -232 210 0
h 232 10434 0
h -210 10434 0
h -10435 -231 209 0
h 231 10435 0
h -209 10435 0
h -10436 -230 208 0
h 230 10436 0
h -208 10436 0
h 10437 -216 -10429 -10430 -10431 -10432 -10433 -10434 -10435 -10436 229 228 227 0
h 216 -10437 0
h 10429 -10437 0
h 10430 -10437 0
h 10431 -10437 0
h 10432 -10437 0
h 10433 -10437 0
h 10434 -10437 0
h 10435 -10437 0
h 10436 -10437 0
h -229 -10437 0
h -228 -10437 0
h -227 -10437 0
h -10438 -218 234 0
h 218 10438 0
h -234 10438 0
h -10439 -217 233 0
h 217 10439 0
h -233 10439 0
h -10440 -216 232 0
h 216 10440 0
h -232 10440 0
h -10441 -215 231 0
h 215 10441 0
h -231 10441 0
h -10442 -214 230 0
h 214 10442 0
h -230 10442 0
h -10443 -213 229 0
h 213 10443 0
h -229 10443 0
h -10444 -212 228 0
h 212 10444 0
h -228 10444 0
h -10445 -211 227 0
h 211 10445 0
h -227 10445 0
h 10446 -235 -10438 -10439 -10440 -10441 -10442 -10443 -10444 -10445 210 209 208 0
h 235 -10446 0
h 10438 -10446 0
h 10439 -10446 0
h 10440 -10446 0
h 10441 -10446 0
h 10442 -10446 0
h 10443 -10446 0
h 10444 -10446 0
h 10445 -10446 0
h -210 -10446 0
h -209 -10446 0
h -208 -10446 0
h 10447 -327 357 0
h 327 -10447 0
h -357 -10447 0
h 10448 -357 327 0
h 357 -10448 0
h -327 -10448 0
h 10449 -328 358 0
h 328 -10449 0
h -358 -10449 0
h 10450 -358 328 0
h 358 -10450 0
h -328 -10450 0
h 10451 -329 359 0
h 329 -10451 0
h -359 -10451 0
h 10452 -359 329 0
h 359 -10452 0
h -329 -10452 0
h 10453 -330 360 0
h 330 -10453 0
h -360 -10453 0
h 10454 -360 330 0
h 360 -10454 0
h -330 -10454 0
h -10455 -130 200 0
h 130 10455 0
h -200 10455 0
h -10456 -129 199 0
h 129 10456 0
h -199 10456 0
h -10457 -128 198 0
h 128 10457 0
h -198 10457 0
h -10458 -127 197 0
h 127 10458 0
h -197 10458 0
h -10459 -126 196 0
h 126 10459 0
h -196 10459 0
h -10460 -125 195 0
h 125 10460 0
h -195 10460 0
h -10461 -124 194 0
h 124 10461 0
h -194 10461 0
h -10462 -123 193 0
h 123 10462 0
h -193 10462 0
h 10463 -201 -10455 -10456 -10457 -10458 -10459 -10460 -10461 -10462 122 121 120 0
h 201 -10463 0
h 10455 -10463 0
h 10456 -10463 0
h 10457 -10463 0
h 10458 -10463 0
h 10459 -10463 0
h 10460 -10463 0
h 10461 -10463 0
h 10462 -10463 0
h -122 -10463 0
h -121 -10463 0
h -120 -10463 0
h -10464 -203 128 0
h 203 10464 0
h -128 10464 0
h -10465 -202 127 0
h 202 10465 0
h -127 10465 0
h -10466 -201 126 0
h 201 10466 0
h -126 10466 0
h -10467 -200 125 0
h 200 10467 0
h -125 10467 0
h -10468 -199 124 0
h 199 10468 0
h -124 10468 0
h -10469 -198 123 0
h 198 10469 0
h -123 10469 0
h -10470 -197 122 0
h 197 10470 0
h -122 10470 0
h -10471 -196 121 0
h 196 10471 0
h -121 10471 0
h -10472 -195 120 0
h 195 10472 0
h -120 10472 0
h 10473 -129 -10464 -10465 -10466 -10467 -10468 -10469 -10470 -10471 -10472 194 193 0
h 129 -10473 0
h 10464 -10473 0
h 10465 -10473 0
h 10466 -10473 0
h 10467 -10473 0
h 10468 -10473 0
h 10469 -10473 0
h 10470 -10473 0
h 10471 -10473 0
h 10472 -10473 0
h -194 -10473 0
h -193 -10473 0
h 10474 -342 219 0
h 342 -10474 0
h -219 -10474 0
h 10475 -219 342 0
h 219 -10475 0
h -342 -10475 0
h 10476 -343 220 0
h 343 -10476 0
h -220 -10476 0
h 10477 -220 343 0
h 220 -10477 0
h -343 -10477 0
h 10478 -344 221 0
h 344 -10478 0
h -221 -10478 0
h 10479 -221 344 0
h 221 -10479 0
h -344 -10479 0
h 10480 -345 222 0
h 345 -10480 0
h -222 -10480 0
h 10481 -222 345 0
h 222 -10481 0
h -345 -10481 0
h -10482 -108 200 0
h 108 10482 0
h -200 10482 0
h -10483 -107 199 0
h 107 10483 0
h -199 10483 0
h -10484 -106 198 0
h 106 10484 0
h -198 10484 0
h -10485 -105 197 0
h 105 10485 0
h -197 10485 0
h -10486 -104 196 0
h 104 10486 0
h -196 10486 0
h -10487 -103 195 0
h 103 10487 0
h -195 10487 0
h -10488 -102 194 0
h 102 10488 0
h -194 10488 0
h -10489 -101 193 0
h 101 10489 0
h -193 10489 0
h 10490 -201 -10482 -10483 -10484 -10485 -10486 -10487 -10488 -10489 100 99 98 0
h 201 -10490 0
h 10482 -10490 0
h 10483 -10490 0
h 10484 -10490 0
h 10485 -10490 0
h 10486 -10490 0
h 10487 -10490 0
h 10488 -10490 0
h 10489 -10490 0
h -100 -10490 0
h -99 -10490 0
h -98 -10490 0
h -10491 -203 106 0
h 203 10491 0
h -106 10491 0
h -10492 -202 105 0
h 202 10492 0
h -105 10492 0
h -10493 -201 104 0
h 201 10493 0
h -104 10493 0
h -10494 -200 103 0
h 200 10494 0
h -103 10494 0
h -10495 -199 102 0
h 199 10495 0
h -102 10495 0
h -10496 -198 101 0
h 198 10496 0
h -101 10496 0
h -10497 -197 100 0
h 197 10497 0
h -100 10497 0
h -10498 -196 99 0
h 196 10498 0
h -99 10498 0
h -10499 -195 98 0
h 195 10499 0
h -98 10499 0
h 10500 -107 -10491 -10492 -10493 -10494 -10495 -10496 -10497 -10498 -10499 194 193 0
h 107 -10500 0
h 10491 -10500 0
h 10492 -10500 0
h 10493 -10500 0
h 10494 -10500 0
h 10495 -10500 0
h 10496 -10500 0
h 10497 -10500 0
h 10498 -10500 0
h 10499 -10500 0
h -194 -10500 0
h -193 -10500 0
h 10501 -342 204 0
h 342 -10501 0
h -204 -10501 0
h 10502 -204 342 0
h 204 -10502 0
h -342 -10502 0
h 10503 -343 205 0
h 343 -10503 0
h -205 -10503 0
h 10504 -205 343 0
h 205 -10504 0
h -343 -10504 0
h 10505 -344 206 0
h 344 -10505 0
h -206 -10505 0
h 10506 -206 344 0
h 206 -10506 0
h -344 -10506 0
h 10507 -345 207 0
h 345 -10507 0
h -207 -10507 0
h 10508 -207 345 0
h 207 -10508 0
h -345 -10508 0
h -10509 -130 215 0
h 130 10509 0
h -215 10509 0
h -10510 -129 214 0
h 129 10510 0
h -214 10510 0
h -10511 -128 213 0
h 128 10511 0
h -213 10511 0
h -10512 -127 212 0
h 127 10512 0
h -212 10512 0
h -10513 -126 211 0
h 126 10513 0
h -211 10513 0
h -10514 -125 210 0
h 125 10514 0
h -210 10514 0
h -10515 -124 209 0
h 124 10515 0
h -209 10515 0
h -10516 -123 208 0
h 123 10516 0
h -208 10516 0
h 10517 -216 -10509 -10510 -10511 -10512 -10513 -10514 -10515 -10516 122 121 120 0
h 216 -10517 0
h 10509 -10517 0
h 10510 -10517 0
h 10511 -10517 0
h 10512 -10517 0
h 10513 -10517 0
h 10514 -10517 0
h 10515 -10517 0
h 10516 -10517 0
h -122 -10517 0
h -121 -10517 0
h -120 -10517 0
h -10518 -218 128 0
h 218 10518 0
h -128 10518 0
h -10519 -217 127 0
h 217 10519 0
h -127 10519 0
h -10520 -216 126 0
h 216 10520 0
h -126 10520 0
h -10521 -215 125 0
h 215 10521 0
h -125 10521 0
h -10522 -214 124 0
h 214 10522 0
h -124 10522 0
h -10523 -213 123 0
h 213 10523 0
h -123 10523 0
h -10524 -212 122 0
h 212 10524 0
h -122 10524 0
h -10525 -211 121 0
h 211 10525 0
h -121 10525 0
h -10526 -210 120 0
h 210 10526 0
h -120 10526 0
h 10527 -129 -10518 -10519 -10520 -10521 -10522 -10523 -10524 -10525 -10526 209 208 0
h 129 -10527 0
h 10518 -10527 0
h 10519 -10527 0
h 10520 -10527 0
h 10521 -10527 0
h 10522 -10527 0
h 10523 -10527 0
h 10524 -10527 0
h 10525 -10527 0
h 10526 -10527 0
h -209 -10527 0
h -208 -10527 0
h 10528 -327 219 0
h 327 -10528 0
h -219 -10528 0
h 10529 -219 327 0
h 219 -10529 0
h -327 -10529 0
h 10530 -328 220 0
h 328 -10530 0
h -220 -10530 0
h 10531 -220 328 0
h 220 -10531 0
h -328 -10531 0
h 10532 -329 221 0
h 329 -10532 0
h -221 -10532 0
h 10533 -221 329 0
h 221 -10533 0
h -329 -10533 0
h 10534 -330 222 0
h 330 -10534 0
h -222 -10534 0
h 10535 -222 330 0
h 222 -10535 0
h -330 -10535 0
h -10536 -108 215 0
h 108 10536 0
h -215 10536 0
h -10537 -107 214 0
h 107 10537 0
h -214 10537 0
h -10538 -106 213 0
h 106 10538 0
h -213 10538 0
h -10539 -105 212 0
h 105 10539 0
h -212 10539 0
h -10540 -104 211 0
h 104 10540 0
h -211 10540 0
h -10541 -103 210 0
h 103 10541 0
h -210 10541 0
h -10542 -102 209 0
h 102 10542 0
h -209 10542 0
h -10543 -101 208 0
h 101 10543 0
h -208 10543 0
h 10544 -216 -10536 -10537 -10538 -10539 -10540 -10541 -10542 -10543 100 99 98 0
h 216 -10544 0
h 10536 -10544 0
h 10537 -10544 0
h 10538 -10544 0
h 10539 -10544 0
h 10540 -10544 0
h 10541 -10544 0
h 10542 -10544 0
h 10543 -10544 0
h -100 -10544 0
h -99 -10544 0
h -98 -10544 0
h -10545 -218 106 0
h 218 10545 0
h -106 10545 0
h -10546 -217 105 0
h 217 10546 0
h -105 10546 0
h -10547 -216 104 0
h 216 10547 0
h -104 10547 0
h -10548 -215 103 0
h 215 10548 0
h -103 10548 0
h -10549 -214 102 0
h 214 10549 0
h -102 10549 0
h -10550 -213 101 0
h 213 10550 0
h -101 10550 0
h -10551 -212 100 0
h 212 10551 0
h -100 10551 0
h -10552 -211 99 0
h 211 10552 0
h -99 10552 0
h -10553 -210 98 0
h 210 10553 0
h -98 10553 0
h 10554 -107 -10545 -10546 -10547 -10548 -10549 -10550 -10551 -10552 -10553 209 208 0
h 107 -10554 0
h 10545 -10554 0
h 10546 -10554 0
h 10547 -10554 0
h 10548 -10554 0
h 10549 -10554 0
h 10550 -10554 0
h 10551 -10554 0
h 10552 -10554 0
h 10553 -10554 0
h -209 -10554 0
h -208 -10554 0
h 10555 -327 204 0
h 327 -10555 0
h -204 -10555 0
h 10556 -204 327 0
h 204 -10556 0
h -327 -10556 0
h 10557 -328 205 0
h 328 -10557 0
h -205 -10557 0
h 10558 -205 328 0
h 205 -10558 0
h -328 -10558 0
h 10559 -329 206 0
h 329 -10559 0
h -206 -10559 0
h 10560 -206 329 0
h 206 -10560 0
h -329 -10560 0
h 10561 -330 207 0
h 330 -10561 0
h -207 -10561 0
h 10562 -207 330 0
h 207 -10562 0
h -330 -10562 0
h -10563 -252 84 0
h 252 10563 0
h -84 10563 0
h -10564 -251 83 0
h 251 10564 0
h -83 10564 0
h -10565 -250 82 0
h 250 10565 0
h -82 10565 0
h -10566 -249 81 0
h 249 10566 0
h -81 10566 0
h -10567 -248 80 0
h 248 10567 0
h -80 10567 0
h -10568 -247 79 0
h 247 10568 0
h -79 10568 0
h -10569 -246 78 0
h 246 10569 0
h -78 10569 0
h -10570 -245 77 0
h 245 10570 0
h -77 10570 0
h -10571 -244 76 0
h 244 10571 0
h -76 10571 0
h 10572 -85 -10563 -10564 -10565 -10566 -10567 -10568 -10569 -10570 -10571 243 242 0
h 85 -10572 0
h 10563 -10572 0
h 10564 -10572 0
h 10565 -10572 0
h 10566 -10572 0
h 10567 -10572 0
h 10568 -10572 0
h 10569 -10572 0
h 10570 -10572 0
h 10571 -10572 0
h -243 -10572 0
h -242 -10572 0
h -10573 -86 249 0
h 86 10573 0
h -249 10573 0
h -10574 -85 248 0
h 85 10574 0
h -248 10574 0
h -10575 -84 247 0
h 84 10575 0
h -247 10575 0
h -10576 -83 246 0
h 83 10576 0
h -246 10576 0
h -10577 -82 245 0
h 82 10577 0
h -245 10577 0
h -10578 -81 244 0
h 81 10578 0
h -244 10578 0
h -10579 -80 243 0
h 80 10579 0
h -243 10579 0
h -10580 -79 242 0
h 79 10580 0
h -242 10580 0
h 10581 -250 -10573 -10574 -10575 -10576 -10577 -10578 -10579 -10580 78 77 76 0
h 250 -10581 0
h 10573 -10581 0
h 10574 -10581 0
h 10575 -10581 0
h 10576 -10581 0
h 10577 -10581 0
h 10578 -10581 0
h 10579 -10581 0
h 10580 -10581 0
h -78 -10581 0
h -77 -10581 0
h -76 -10581 0
h 10582 -185 1 0
h 185 -10582 0
h -1 -10582 0
h 10583 -1 185 0
h 1 -10583 0
h -185 -10583 0
h 10584 -186 2 0
h 186 -10584 0
h -2 -10584 0
h 10585 -2 186 0
h 2 -10585 0
h -186 -10585 0
h 10586 -187 3 0
h 187 -10586 0
h -3 -10586 0
h 10587 -3 187 0
h 3 -10587 0
h -187 -10587 0
h 10588 -188 4 0
h 188 -10588 0
h -4 -10588 0
h 10589 -4 188 0
h 4 -10589 0
h -188 -10589 0
h -10590 -237 84 0
h 237 10590 0
h -84 10590 0
h -10591 -236 83 0
h 236 10591 0
h -83 10591 0
h -10592 -235 82 0
h 235 10592 0
h -82 10592 0
h -10593 -234 81 0
h 234 10593 0
h -81 10593 0
h -10594 -233 80 0
h 233 10594 0
h -80 10594 0
h -10595 -232 79 0
h 232 10595 0
h -79 10595 0
h -10596 -231 78 0
h 231 10596 0
h -78 10596 0
h -10597 -230 77 0
h 230 10597 0
h -77 10597 0
h -10598 -229 76 0
h 229 10598 0
h -76 10598 0
h 10599 -85 -10590 -10591 -10592 -10593 -10594 -10595 -10596 -10597 -10598 228 227 0
h 85 -10599 0
h 10590 -10599 0
h 10591 -10599 0
h 10592 -10599 0
h 10593 -10599 0
h 10594 -10599 0
h 10595 -10599 0
h 10596 -10599 0
h 10597 -10599 0
h 10598 -10599 0
h -228 -10599 0
h -227 -10599 0
h -10600 -86 234 0
h 86 10600 0
h -234 10600 0
h -10601 -85 233 0
h 85 10601 0
h -233 10601 0
h -10602 -84 232 0
h 84 10602 0
h -232 10602 0
h -10603 -83 231 0
h 83 10603 0
h -231 10603 0
h -10604 -82 230 0
h 82 10604 0
h -230 10604 0
h -10605 -81 229 0
h 81 10605 0
h -229 10605 0
h -10606 -80 228 0
h 80 10606 0
h -228 10606 0
h -10607 -79 227 0
h 79 10607 0
h -227 10607 0
h 10608 -235 -10600 -10601 -10602 -10603 -10604 -10605 -10606 -10607 78 77 76 0
h 235 -10608 0
h 10600 -10608 0
h 10601 -10608 0
h 10602 -10608 0
h 10603 -10608 0
h 10604 -10608 0
h 10605 -10608 0
h 10606 -10608 0
h 10607 -10608 0
h -78 -10608 0
h -77 -10608 0
h -76 -10608 0
h 10609 -185 357 0
h 185 -10609 0
h -357 -10609 0
h 10610 -357 185 0
h 357 -10610 0
h -185 -10610 0
h 10611 -186 358 0
h 186 -10611 0
h -358 -10611 0
h 10612 -358 186 0
h 358 -10612 0
h -186 -10612 0
h 10613 -187 359 0
h 187 -10613 0
h -359 -10613 0
h 10614 -359 187 0
h 359 -10614 0
h -187 -10614 0
h 10615 -188 360 0
h 188 -10615 0
h -360 -10615 0
h 10616 -360 188 0
h 360 -10616 0
h -188 -10616 0
h -10617 -252 73 0
h 252 10617 0
h -73 10617 0
h -10618 -251 72 0
h 251 10618 0
h -72 10618 0
h -10619 -250 71 0
h 250 10619 0
h -71 10619 0
h -10620 -249 70 0
h 249 10620 0
h -70 10620 0
h -10621 -248 69 0
h 248 10621 0
h -69 10621 0
h -10622 -247 68 0
h 247 10622 0
h -68 10622 0
h -10623 -246 67 0
h 246 10623 0
h -67 10623 0
h -10624 -245 66 0
h 245 10624 0
h -66 10624 0
h -10625 -244 65 0
h 244 10625 0
h -65 10625 0
h 10626 -74 -10617 -10618 -10619 -10620 -10621 -10622 -10623 -10624 -10625 243 242 0
h 74 -10626 0
h 10617 -10626 0
h 10618 -10626 0
h 10619 -10626 0
h 10620 -10626 0
h 10621 -10626 0
h 10622 -10626 0
h 10623 -10626 0
h 10624 -10626 0
h 10625 -10626 0
h -243 -10626 0
h -242 -10626 0
h -10627 -75 249 0
h 75 10627 0
h -249 10627 0
h -10628 -74 248 0
h 74 10628 0
h -248 10628 0
h -10629 -73 247 0
h 73 10629 0
h -247 10629 0
h -10630 -72 246 0
h 72 10630 0
h -246 10630 0
h -10631 -71 245 0
h 71 10631 0
h -245 10631 0
h -10632 -70 244 0
h 70 10632 0
h -244 10632 0
h -10633 -69 243 0
h 69 10633 0
h -243 10633 0
h -10634 -68 242 0
h 68 10634 0
h -242 10634 0
h 10635 -250 -10627 -10628 -10629 -10630 -10631 -10632 -10633 -10634 67 66 65 0
h 250 -10635 0
h 10627 -10635 0
h 10628 -10635 0
h 10629 -10635 0
h 10630 -10635 0
h 10631 -10635 0
h 10632 -10635 0
h 10633 -10635 0
h 10634 -10635 0
h -67 -10635 0
h -66 -10635 0
h -65 -10635 0
h 10636 -177 1 0
h 177 -10636 0
h -1 -10636 0
h 10637 -1 177 0
h 1 -10637 0
h -177 -10637 0
h 10638 -178 2 0
h 178 -10638 0
h -2 -10638 0
h 10639 -2 178 0
h 2 -10639 0
h -178 -10639 0
h 10640 -179 3 0
h 179 -10640 0
h -3 -10640 0
h 10641 -3 179 0
h 3 -10641 0
h -179 -10641 0
h 10642 -180 4 0
h 180 -10642 0
h -4 -10642 0
h 10643 -4 180 0
h 4 -10643 0
h -180 -10643 0
h -10644 -237 73 0
h 237 10644 0
h -73 10644 0
h -10645 -236 72 0
h 236 10645 0
h -72 10645 0
h -10646 -235 71 0
h 235 10646 0
h -71 10646 0
h -10647 -234 70 0
h 234 10647 0
h -70 10647 0
h -10648 -233 69 0
h 233 10648 0
h -69 10648 0
h -10649 -232 68 0
h 232 10649 0
h -68 10649 0
h -10650 -231 67 0
h 231 10650 0
h -67 10650 0
h -10651 -230 66 0
h 230 10651 0
h -66 10651 0
h -10652 -229 65 0
h 229 10652 0
h -65 10652 0
h 10653 -74 -10644 -10645 -10646 -10647 -10648 -10649 -10650 -10651 -10652 228 227 0
h 74 -10653 0
h 10644 -10653 0
h 10645 -10653 0
h 10646 -10653 0
h 10647 -10653 0
h 10648 -10653 0
h 10649 -10653 0
h 10650 -10653 0
h 10651 -10653 0
h 10652 -10653 0
h -228 -10653 0
h -227 -10653 0
h -10654 -75 234 0
h 75 10654 0
h -234 10654 0
h -10655 -74 233 0
h 74 10655 0
h -233 10655 0
h -10656 -73 232 0
h 73 10656 0
h -232 10656 0
h -10657 -72 231 0
h 72 10657 0
h -231 10657 0
h -10658 -71 230 0
h 71 10658 0
h -230 10658 0
h -10659 -70 229 0
h 70 10659 0
h -229 10659 0
h -10660 -69 228 0
h 69 10660 0
h -228 10660 0
h -10661 -68 227 0
h 68 10661 0
h -227 10661 0
h 10662 -235 -10654 -10655 -10656 -10657 -10658 -10659 -10660 -10661 67 66 65 0
h 235 -10662 0
h 10654 -10662 0
h 10655 -10662 0
h 10656 -10662 0
h 10657 -10662 0
h 10658 -10662 0
h 10659 -10662 0
h 10660 -10662 0
h 10661 -10662 0
h -67 -10662 0
h -66 -10662 0
h -65 -10662 0
h 10663 -177 357 0
h 177 -10663 0
h -357 -10663 0
h 10664 -357 177 0
h 357 -10664 0
h -177 -10664 0
h 10665 -178 358 0
h 178 -10665 0
h -358 -10665 0
h 10666 -358 178 0
h 358 -10666 0
h -178 -10666 0
h 10667 -179 359 0
h 179 -10667 0
h -359 -10667 0
h 10668 -359 179 0
h 359 -10668 0
h -179 -10668 0
h 10669 -180 360 0
h 180 -10669 0
h -360 -10669 0
h 10670 -360 180 0
h 360 -10670 0
h -180 -10670 0
h -10671 -130 84 0
h 130 10671 0
h -84 10671 0
h -10672 -129 83 0
h 129 10672 0
h -83 10672 0
h -10673 -128 82 0
h 128 10673 0
h -82 10673 0
h -10674 -127 81 0
h 127 10674 0
h -81 10674 0
h -10675 -126 80 0
h 126 10675 0
h -80 10675 0
h -10676 -125 79 0
h 125 10676 0
h -79 10676 0
h -10677 -124 78 0
h 124 10677 0
h -78 10677 0
h -10678 -123 77 0
h 123 10678 0
h -77 10678 0
h -10679 -122 76 0
h 122 10679 0
h -76 10679 0
h 10680 -85 -10671 -10672 -10673 -10674 -10675 -10676 -10677 -10678 -10679 121 120 0
h 85 -10680 0
h 10671 -10680 0
h 10672 -10680 0
h 10673 -10680 0
h 10674 -10680 0
h 10675 -10680 0
h 10676 -10680 0
h 10677 -10680 0
h 10678 -10680 0
h 10679 -10680 0
h -121 -10680 0
h -120 -10680 0
h -10681 -86 128 0
h 86 10681 0
h -128 10681 0
h -10682 -85 127 0
h 85 10682 0
h -127 10682 0
h -10683 -84 126 0
h 84 10683 0
h -126 10683 0
h -10684 -83 125 0
h 83 10684 0
h -125 10684 0
h -10685 -82 124 0
h 82 10685 0
h -124 10685 0
h -10686 -81 123 0
h 81 10686 0
h -123 10686 0
h -10687 -80 122 0
h 80 10687 0
h -122 10687 0
h -10688 -79 121 0
h 79 10688 0
h -121 10688 0
h -10689 -78 120 0
h 78 10689 0
h -120 10689 0
h 10690 -129 -10681 -10682 -10683 -10684 -10685 -10686 -10687 -10688 -10689 77 76 0
h 129 -10690 0
h 10681 -10690 0
h 10682 -10690 0
h 10683 -10690 0
h 10684 -10690 0
h 10685 -10690 0
h 10686 -10690 0
h 10687 -10690 0
h 10688 -10690 0
h 10689 -10690 0
h -77 -10690 0
h -76 -10690 0
h 10691 -185 219 0
h 185 -10691 0
h -219 -10691 0
h 10692 -219 185 0
h 219 -10692 0
h -185 -10692 0
h 10693 -186 220 0
h 186 -10693 0
h -220 -10693 0
h 10694 -220 186 0
h 220 -10694 0
h -186 -10694 0
h 10695 -187 221 0
h 187 -10695 0
h -221 -10695 0
h 10696 -221 187 0
h 221 -10696 0
h -187 -10696 0
h 10697 -188 222 0
h 188 -10697 0
h -222 -10697 0
h 10698 -222 188 0
h 222 -10698 0
h -188 -10698 0
h -10699 -108 84 0
h 108 10699 0
h -84 10699 0
h -10700 -107 83 0
h 107 10700 0
h -83 10700 0
h -10701 -106 82 0
h 106 10701 0
h -82 10701 0
h -10702 -105 81 0
h 105 10702 0
h -81 10702 0
h -10703 -104 80 0
h 104 10703 0
h -80 10703 0
h -10704 -103 79 0
h 103 10704 0
h -79 10704 0
h -10705 -102 78 0
h 102 10705 0
h -78 10705 0
h -10706 -101 77 0
h 101 10706 0
h -77 10706 0
h -10707 -100 76 0
h 100 10707 0
h -76 10707 0
h 10708 -85 -10699 -10700 -10701 -10702 -10703 -10704 -10705 -10706 -10707 99 98 0
h 85 -10708 0
h 10699 -10708 0
h 10700 -10708 0
h 10701 -10708 0
h 10702 -10708 0
h 10703 -10708 0
h 10704 -10708 0
h 10705 -10708 0
h 10706 -10708 0
h 10707 -10708 0
h -99 -10708 0
h -98 -10708 0
h -10709 -86 106 0
h 86 10709 0
h -106 10709 0
h -10710 -85 105 0
h 85 10710 0
h -105 10710 0
h -10711 -84 104 0
h 84 10711 0
h -104 10711 0
h -10712 -83 103 0
h 83 10712 0
h -103 10712 0
h -10713 -82 102 0
h 82 10713 0
h -102 10713 0
h -10714 -81 101 0
h 81 10714 0
h -101 10714 0
h -10715 -80 100 0
h 80 10715 0
h -100 10715 0
h -10716 -79 99 0
h 79 10716 0
h -99 10716 0
h -10717 -78 98 0
h 78 10717 0
h -98 10717 0
h 10718 -107 -10709 -10710 -10711 -10712 -10713 -10714 -10715 -10716 -10717 77 76 0
h 107 -10718 0
h 10709 -10718 0
h 10710 -10718 0
h 10711 -10718 0
h 10712 -10718 0
h 10713 -10718 0
h 10714 -10718 0
h 10715 -10718 0
h 10716 -10718 0
h 10717 -10718 0
h -77 -10718 0
h -76 -10718 0
h 10719 -185 204 0
h 185 -10719 0
h -204 -10719 0
h 10720 -204 185 0
h 204 -10720 0
h -185 -10720 0
h 10721 -186 205 0
h 186 -10721 0
h -205 -10721 0
h 10722 -205 186 0
h 205 -10722 0
h -186 -10722 0
h 10723 -187 206 0
h 187 -10723 0
h -206 -10723 0
h 10724 -206 187 0
h 206 -10724 0
h -187 -10724 0
h 10725 -188 207 0
h 188 -10725 0
h -207 -10725 0
h 10726 -207 188 0
h 207 -10726 0
h -188 -10726 0
h -10727 -130 73 0
h 130 10727 0
h -73 10727 0
h -10728 -129 72 0
h 129 10728 0
h -72 10728 0
h -10729 -128 71 0
h 128 10729 0
h -71 10729 0
h -10730 -127 70 0
h 127 10730 0
h -70 10730 0
h -10731 -126 69 0
h 126 10731 0
h -69 10731 0
h -10732 -125 68 0
h 125 10732 0
h -68 10732 0
h -10733 -124 67 0
h 124 10733 0
h -67 10733 0
h -10734 -123 66 0
h 123 10734 0
h -66 10734 0
h -10735 -122 65 0
h 122 10735 0
h -65 10735 0
h 10736 -74 -10727 -10728 -10729 -10730 -10731 -10732 -10733 -10734 -10735 121 120 0
h 74 -10736 0
h 10727 -10736 0
h 10728 -10736 0
h 10729 -10736 0
h 10730 -10736 0
h 10731 -10736 0
h 10732 -10736 0
h 10733 -10736 0
h 10734 -10736 0
h 10735 -10736 0
h -121 -10736 0
h -120 -10736 0
h -10737 -75 128 0
h 75 10737 0
h -128 10737 0
h -10738 -74 127 0
h 74 10738 0
h -127 10738 0
h -10739 -73 126 0
h 73 10739 0
h -126 10739 0
h -10740 -72 125 0
h 72 10740 0
h -125 10740 0
h -10741 -71 124 0
h 71 10741 0
h -124 10741 0
h -10742 -70 123 0
h 70 10742 0
h -123 10742 0
h -10743 -69 122 0
h 69 10743 0
h -122 10743 0
h -10744 -68 121 0
h 68 10744 0
h -121 10744 0
h -10745 -67 120 0
h 67 10745 0
h -120 10745 0
h 10746 -129 -10737 -10738 -10739 -10740 -10741 -10742 -10743 -10744 -10745 66 65 0
h 129 -10746 0
h 10737 -10746 0
h 10738 -10746 0
h 10739 -10746 0
h 10740 -10746 0
h 10741 -10746 0
h 10742 -10746 0
h 10743 -10746 0
h 10744 -10746 0
h 10745 -10746 0
h -66 -10746 0
h -65 -10746 0
h 10747 -177 219 0
h 177 -10747 0
h -219 -10747 0
h 10748 -219 177 0
h 219 -10748 0
h -177 -10748 0
h 10749 -178 220 0
h 178 -10749 0
h -220 -10749 0
h 10750 -220 178 0
h 220 -10750 0
h -178 -10750 0
h 10751 -179 221 0
h 179 -10751 0
h -221 -10751 0
h 10752 -221 179 0
h 221 -10752 0
h -179 -10752 0
h 10753 -180 222 0
h 180 -10753 0
h -222 -10753 0
h 10754 -222 180 0
h 222 -10754 0
h -180 -10754 0
h -10755 -108 73 0
h 108 10755 0
h -73 10755 0
h -10756 -107 72 0
h 107 10756 0
h -72 10756 0
h -10757 -106 71 0
h 106 10757 0
h -71 10757 0
h -10758 -105 70 0
h 105 10758 0
h -70 10758 0
h -10759 -104 69 0
h 104 10759 0
h -69 10759 0
h -10760 -103 68 0
h 103 10760 0
h -68 10760 0
h -10761 -102 67 0
h 102 10761 0
h -67 10761 0
h -10762 -101 66 0
h 101 10762 0
h -66 10762 0
h -10763 -100 65 0
h 100 10763 0
h -65 10763 0
h 10764 -74 -10755 -10756 -10757 -10758 -10759 -10760 -10761 -10762 -10763 99 98 0
h 74 -10764 0
h 10755 -10764 0
h 10756 -10764 0
h 10757 -10764 0
h 10758 -10764 0
h 10759 -10764 0
h 10760 -10764 0
h 10761 -10764 0
h 10762 -10764 0
h 10763 -10764 0
h -99 -10764 0
h -98 -10764 0
h -10765 -75 106 0
h 75 10765 0
h -106 10765 0
h -10766 -74 105 0
h 74 10766 0
h -105 10766 0
h -10767 -73 104 0
h 73 10767 0
h -104 10767 0
h -10768 -72 103 0
h 72 10768 0
h -103 10768 0
h -10769 -71 102 0
h 71 10769 0
h -102 10769 0
h -10770 -70 101 0
h 70 10770 0
h -101 10770 0
h -10771 -69 100 0
h 69 10771 0
h -100 10771 0
h -10772 -68 99 0
h 68 10772 0
h -99 10772 0
h -10773 -67 98 0
h 67 10773 0
h -98 10773 0
h 10774 -107 -10765 -10766 -10767 -10768 -10769 -10770 -10771 -10772 -10773 66 65 0
h 107 -10774 0
h 10765 -10774 0
h 10766 -10774 0
h 10767 -10774 0
h 10768 -10774 0
h 10769 -10774 0
h 10770 -10774 0
h 10771 -10774 0
h 10772 -10774 0
h 10773 -10774 0
h -66 -10774 0
h -65 -10774 0
h 10775 -177 204 0
h 177 -10775 0
h -204 -10775 0
h 10776 -204 177 0
h 204 -10776 0
h -177 -10776 0
h 10777 -178 205 0
h 178 -10777 0
h -205 -10777 0
h 10778 -205 178 0
h 205 -10778 0
h -178 -10778 0
h 10779 -179 206 0
h 179 -10779 0
h -206 -10779 0
h 10780 -206 179 0
h 206 -10780 0
h -179 -10780 0
h 10781 -180 207 0
h 180 -10781 0
h -207 -10781 0
h 10782 -207 180 0
h 207 -10782 0
h -180 -10782 0
h -10783 -56 200 0
h 56 10783 0
h -200 10783 0
h -10784 -55 199 0
h 55 10784 0
h -199 10784 0
h -10785 -54 198 0
h 54 10785 0
h -198 10785 0
h -10786 -53 197 0
h 53 10786 0
h -197 10786 0
h -10787 -52 196 0
h 52 10787 0
h -196 10787 0
h -10788 -51 195 0
h 51 10788 0
h -195 10788 0
h -10789 -50 194 0
h 50 10789 0
h -194 10789 0
h -10790 -49 193 0
h 49 10790 0
h -193 10790 0
h 10791 -201 -10783 -10784 -10785 -10786 -10787 -10788 -10789 -10790 48 47 46 0
h 201 -10791 0
h 10783 -10791 0
h 10784 -10791 0
h 10785 -10791 0
h 10786 -10791 0
h 10787 -10791 0
h 10788 -10791 0
h 10789 -10791 0
h 10790 -10791 0
h -48 -10791 0
h -47 -10791 0
h -46 -10791 0
h -10792 -203 53 0
h 203 10792 0
h -53 10792 0
h -10793 -202 52 0
h 202 10793 0
h -52 10793 0
h -10794 -201 51 0
h 201 10794 0
h -51 10794 0
h -10795 -200 50 0
h 200 10795 0
h -50 10795 0
h -10796 -199 49 0
h 199 10796 0
h -49 10796 0
h -10797 -198 48 0
h 198 10797 0
h -48 10797 0
h -10798 -197 47 0
h 197 10798 0
h -47 10798 0
h -10799 -196 46 0
h 196 10799 0
h -46 10799 0
h 10800 -54 -10792 -10793 -10794 -10795 -10796 -10797 -10798 -10799 195 194 193 0
h 54 -10800 0
h 10792 -10800 0
h 10793 -10800 0
h 10794 -10800 0
h 10795 -10800 0
h 10796 -10800 0
h 10797 -10800 0
h 10798 -10800 0
h 10799 -10800 0
h -195 -10800 0
h -194 -10800 0
h -193 -10800 0
h 10801 -342 189 0
h 342 -10801 0
h -189 -10801 0
h 10802 -189 342 0
h 189 -10802 0
h -342 -10802 0
h 10803 -343 190 0
h 343 -10803 0
h -190 -10803 0
h 10804 -190 343 0
h 190 -10804 0
h -343 -10804 0
h 10805 -344 191 0
h 344 -10805 0
h -191 -10805 0
h 10806 -191 344 0
h 191 -10806 0
h -344 -10806 0
h 10807 -345 192 0
h 345 -10807 0
h -192 -10807 0
h 10808 -192 345 0
h 192 -10808 0
h -345 -10808 0
h -10809 -56 215 0
h 56 10809 0
h -215 10809 0
h -10810 -55 214 0
h 55 10810 0
h -214 10810 0
h -10811 -54 213 0
h 54 10811 0
h -213 10811 0
h -10812 -53 212 0
h 53 10812 0
h -212 10812 0
h -10813 -52 211 0
h 52 10813 0
h -211 10813 0
h -10814 -51 210 0
h 51 10814 0
h -210 10814 0
h -10815 -50 209 0
h 50 10815 0
h -209 10815 0
h -10816 -49 208 0
h 49 10816 0
h -208 10816 0
h 10817 -216 -10809 -10810 -10811 -10812 -10813 -10814 -10815 -10816 48 47 46 0
h 216 -10817 0
h 10809 -10817 0
h 10810 -10817 0
h 10811 -10817 0
h 10812 -10817 0
h 10813 -10817 0
h 10814 -10817 0
h 10815 -10817 0
h 10816 -10817 0
h -48 -10817 0
h -47 -10817 0
h -46 -10817 0
h -10818 -218 53 0
h 218 10818 0
h -53 10818 0
h -10819 -217 52 0
h 217 10819 0
h -52 10819 0
h -10820 -216 51 0
h 216 10820 0
h -51 10820 0
h -10821 -215 50 0
h 215 10821 0
h -50 10821 0
h -10822 -214 49 0
h 214 10822 0
h -49 10822 0
h -10823 -213 48 0
h 213 10823 0
h -48 10823 0
h -10824 -212 47 0
h 212 10824 0
h -47 10824 0
h -10825 -211 46 0
h 211 10825 0
h -46 10825 0
h 10826 -54 -10818 -10819 -10820 -10821 -10822 -10823 -10824 -10825 210 209 208 0
h 54 -10826 0
h 10818 -10826 0
h 10819 -10826 0
h 10820 -10826 0
h 10821 -10826 0
h 10822 -10826 0
h 10823 -10826 0
h 10824 -10826 0
h 10825 -10826 0
h -210 -10826 0
h -209 -10826 0
h -208 -10826 0
h 10827 -327 189 0
h 327 -10827 0
h -189 -10827 0
h 10828 -189 327 0
h 189 -10828 0
h -327 -10828 0
h 10829 -328 190 0
h 328 -10829 0
h -190 -10829 0
h 10830 -190 328 0
h 190 -10830 0
h -328 -10830 0
h 10831 -329 191 0
h 329 -10831 0
h -191 -10831 0
h 10832 -191 329 0
h 191 -10832 0
h -329 -10832 0
h 10833 -330 192 0
h 330 -10833 0
h -192 -10833 0
h 10834 -192 330 0
h 192 -10834 0
h -330 -10834 0
h -10835 -41 200 0
h 41 10835 0
h -200 10835 0
h -10836 -40 199 0
h 40 10836 0
h -199 10836 0
h -10837 -39 198 0
h 39 10837 0
h -198 10837 0
h -10838 -38 197 0
h 38 10838 0
h -197 10838 0
h -10839 -37 196 0
h 37 10839 0
h -196 10839 0
h -10840 -36 195 0
h 36 10840 0
h -195 10840 0
h -10841 -35 194 0
h 35 10841 0
h -194 10841 0
h -10842 -34 193 0
h 34 10842 0
h -193 10842 0
h 10843 -201 -10835 -10836 -10837 -10838 -10839 -10840 -10841 -10842 33 32 31 0
h 201 -10843 0
h 10835 -10843 0
h 10836 -10843 0
h 10837 -10843 0
h 10838 -10843 0
h 10839 -10843 0
h 10840 -10843 0
h 10841 -10843 0
h 10842 -10843 0
h -33 -10843 0
h -32 -10843 0
h -31 -10843 0
h -10844 -203 40 0
h 203 10844 0
h -40 10844 0
h -10845 -202 39 0
h 202 10845 0
h -39 10845 0
h -10846 -201 38 0
h 201 10846 0
h -38 10846 0
h -10847 -200 37 0
h 200 10847 0
h -37 10847 0
h -10848 -199 36 0
h 199 10848 0
h -36 10848 0
h -10849 -198 35 0
h 198 10849 0
h -35 10849 0
h -10850 -197 34 0
h 197 10850 0
h -34 10850 0
h -10851 -196 33 0
h 196 10851 0
h -33 10851 0
h -10852 -195 32 0
h 195 10852 0
h -32 10852 0
h -10853 -194 31 0
h 194 10853 0
h -31 10853 0
h 10854 -41 -10844 -10845 -10846 -10847 -10848 -10849 -10850 -10851 -10852 -10853 193 0
h 41 -10854 0
h 10844 -10854 0
h 10845 -10854 0
h 10846 -10854 0
h 10847 -10854 0
h 10848 -10854 0
h 10849 -10854 0
h 10850 -10854 0
h 10851 -10854 0
h 10852 -10854 0
h 10853 -10854 0
h -193 -10854 0
h 10855 -342 181 0
h 342 -10855 0
h -181 -10855 0
h 10856 -181 342 0
h 181 -10856 0
h -342 -10856 0
h 10857 -343 182 0
h 343 -10857 0
h -182 -10857 0
h 10858 -182 343 0
h 182 -10858 0
h -343 -10858 0
h 10859 -344 183 0
h 344 -10859 0
h -183 -10859 0
h 10860 -183 344 0
h 183 -10860 0
h -344 -10860 0
h 10861 -345 184 0
h 345 -10861 0
h -184 -10861 0
h 10862 -184 345 0
h 184 -10862 0
h -345 -10862 0
h -10863 -41 215 0
h 41 10863 0
h -215 10863 0
h -10864 -40 214 0
h 40 10864 0
h -214 10864 0
h -10865 -39 213 0
h 39 10865 0
h -213 10865 0
h -10866 -38 212 0
h 38 10866 0
h -212 10866 0
h -10867 -37 211 0
h 37 10867 0
h -211 10867 0
h -10868 -36 210 0
h 36 10868 0
h -210 10868 0
h -10869 -35 209 0
h 35 10869 0
h -209 10869 0
h -10870 -34 208 0
h 34 10870 0
h -208 10870 0
h 10871 -216 -10863 -10864 -10865 -10866 -10867 -10868 -10869 -10870 33 32 31 0
h 216 -10871 0
h 10863 -10871 0
h 10864 -10871 0
h 10865 -10871 0
h 10866 -10871 0
h 10867 -10871 0
h 10868 -10871 0
h 10869 -10871 0
h 10870 -10871 0
h -33 -10871 0
h -32 -10871 0
h -31 -10871 0
h -10872 -218 40 0
h 218 10872 0
h -40 10872 0
h -10873 -217 39 0
h 217 10873 0
h -39 10873 0
h -10874 -216 38 0
h 216 10874 0
h -38 10874 0
h -10875 -215 37 0
h 215 10875 0
h -37 10875 0
h -10876 -214 36 0
h 214 10876 0
h -36 10876 0
h -10877 -213 35 0
h 213 10877 0
h -35 10877 0
h -10878 -212 34 0
h 212 10878 0
h -34 10878 0
h -10879 -211 33 0
h 211 10879 0
h -33 10879 0
h -10880 -210 32 0
h 210 10880 0
h -32 10880 0
h -10881 -209 31 0
h 209 10881 0
h -31 10881 0
h 10882 -41 -10872 -10873 -10874 -10875 -10876 -10877 -10878 -10879 -10880 -10881 208 0
h 41 -10882 0
h 10872 -10882 0
h 10873 -10882 0
h 10874 -10882 0
h 10875 -10882 0
h 10876 -10882 0
h 10877 -10882 0
h 10878 -10882 0
h 10879 -10882 0
h 10880 -10882 0
h 10881 -10882 0
h -208 -10882 0
h 10883 -327 181 0
h 327 -10883 0
h -181 -10883 0
h 10884 -181 327 0
h 181 -10884 0
h -327 -10884 0
h 10885 -328 182 0
h 328 -10885 0
h -182 -10885 0
h 10886 -182 328 0
h 182 -10886 0
h -328 -10886 0
h 10887 -329 183 0
h 329 -10887 0
h -183 -10887 0
h 10888 -183 329 0
h 183 -10888 0
h -329 -10888 0
h 10889 -330 184 0
h 330 -10889 0
h -184 -10889 0
h 10890 -184 330 0
h 184 -10890 0
h -330 -10890 0
h -10891 -56 84 0
h 56 10891 0
h -84 10891 0
h -10892 -55 83 0
h 55 10892 0
h -83 10892 0
h -10893 -54 82 0
h 54 10893 0
h -82 10893 0
h -10894 -53 81 0
h 53 10894 0
h -81 10894 0
h -10895 -52 80 0
h 52 10895 0
h -80 10895 0
h -10896 -51 79 0
h 51 10896 0
h -79 10896 0
h -10897 -50 78 0
h 50 10897 0
h -78 10897 0
h -10898 -49 77 0
h 49 10898 0
h -77 10898 0
h -10899 -48 76 0
h 48 10899 0
h -76 10899 0
h 10900 -85 -10891 -10892 -10893 -10894 -10895 -10896 -10897 -10898 -10899 47 46 0
h 85 -10900 0
h 10891 -10900 0
h 10892 -10900 0
h 10893 -10900 0
h 10894 -10900 0
h 10895 -10900 0
h 10896 -10900 0
h 10897 -10900 0
h 10898 -10900 0
h 10899 -10900 0
h -47 -10900 0
h -46 -10900 0
h -10901 -86 53 0
h 86 10901 0
h -53 10901 0
h -10902 -85 52 0
h 85 10902 0
h -52 10902 0
h -10903 -84 51 0
h 84 10903 0
h -51 10903 0
h -10904 -83 50 0
h 83 10904 0
h -50 10904 0
h -10905 -82 49 0
h 82 10905 0
h -49 10905 0
h -10906 -81 48 0
h 81 10906 0
h -48 10906 0
h -10907 -80 47 0
h 80 10907 0
h -47 10907 0
h -10908 -79 46 0
h 79 10908 0
h -46 10908 0
h 10909 -54 -10901 -10902 -10903 -10904 -10905 -10906 -10907 -10908 78 77 76 0
h 54 -10909 0
h 10901 -10909 0
h 10902 -10909 0
h 10903 -10909 0
h 10904 -10909 0
h 10905 -10909 0
h 10906 -10909 0
h 10907 -10909 0
h 10908 -10909 0
h -78 -10909 0
h -77 -10909 0
h -76 -10909 0
h 10910 -185 189 0
h 185 -10910 0
h -189 -10910 0
h 10911 -189 185 0
h 189 -10911 0
h -185 -10911 0
h 10912 -186 190 0
h 186 -10912 0
h -190 -10912 0
h 10913 -190 186 0
h 190 -10913 0
h -186 -10913 0
h 10914 -187 191 0
h 187 -10914 0
h -191 -10914 0
h 10915 -191 187 0
h 191 -10915 0
h -187 -10915 0
h 10916 -188 192 0
h 188 -10916 0
h -192 -10916 0
h 10917 -192 188 0
h 192 -10917 0
h -188 -10917 0
h -10918 -56 73 0
h 56 10918 0
h -73 10918 0
h -10919 -55 72 0
h 55 10919 0
h -72 10919 0
h -10920 -54 71 0
h 54 10920 0
h -71 10920 0
h -10921 -53 70 0
h 53 10921 0
h -70 10921 0
h -10922 -52 69 0
h 52 10922 0
h -69 10922 0
h -10923 -51 68 0
h 51 10923 0
h -68 10923 0
h -10924 -50 67 0
h 50 10924 0
h -67 10924 0
h -10925 -49 66 0
h 49 10925 0
h -66 10925 0
h -10926 -48 65 0
h 48 10926 0
h -65 10926 0
h 10927 -74 -10918 -10919 -10920 -10921 -10922 -10923 -10924 -10925 -10926 47 46 0
h 74 -10927 0
h 10918 -10927 0
h 10919 -10927 0
h 10920 -10927 0
h 10921 -10927 0
h 10922 -10927 0
h 10923 -10927 0
h 10924 -10927 0
h 10925 -10927 0
h 10926 -10927 0
h -47 -10927 0
h -46 -10927 0
h -10928 -75 53 0
h 75 10928 0
h -53 10928 0
h -10929 -74 52 0
h 74 10929 0
h -52 10929 0
h -10930 -73 51 0
h 73 10930 0
h -51 10930 0
h -10931 -72 50 0
h 72 10931 0
h -50 10931 0
h -10932 -71 49 0
h 71 10932 0
h -49 10932 0
h -10933 -70 48 0
h 70 10933 0
h -48 10933 0
h -10934 -69 47 0
h 69 10934 0
h -47 10934 0
h -10935 -68 46 0
h 68 10935 0
h -46 10935 0
h 10936 -54 -10928 -10929 -10930 -10931 -10932 -10933 -10934 -10935 67 66 65 0
h 54 -10936 0
h 10928 -10936 0
h 10929 -10936 0
h 10930 -10936 0
h 10931 -10936 0
h 10932 -10936 0
h 10933 -10936 0
h 10934 -10936 0
h 10935 -10936 0
h -67 -10936 0
h -66 -10936 0
h -65 -10936 0
h 10937 -177 189 0
h 177 -10937 0
h -189 -10937 0
h 10938 -189 177 0
h 189 -10938 0
h -177 -10938 0
h 10939 -178 190 0
h 178 -10939 0
h -190 -10939 0
h 10940 -190 178 0
h 190 -10940 0
h -178 -10940 0
h 10941 -179 191 0
h 179 -10941 0
h -191 -10941 0
h 10942 -191 179 0
h 191 -10942 0
h -179 -10942 0
h 10943 -180 192 0
h 180 -10943 0
h -192 -10943 0
h 10944 -192 180 0
h 192 -10944 0
h -180 -10944 0
h -10945 -41 84 0
h 41 10945 0
h -84 10945 0
h -10946 -40 83 0
h 40 10946 0
h -83 10946 0
h -10947 -39 82 0
h 39 10947 0
h -82 10947 0
h -10948 -38 81 0
h 38 10948 0
h -81 10948 0
h -10949 -37 80 0
h 37 10949 0
h -80 10949 0
h -10950 -36 79 0
h 36 10950 0
h -79 10950 0
h -10951 -35 78 0
h 35 10951 0
h -78 10951 0
h -10952 -34 77 0
h 34 10952 0
h -77 10952 0
h -10953 -33 76 0
h 33 10953 0
h -76 10953 0
h 10954 -85 -10945 -10946 -10947 -10948 -10949 -10950 -10951 -10952 -10953 32 31 0
h 85 -10954 0
h 10945 -10954 0
h 10946 -10954 0
h 10947 -10954 0
h 10948 -10954 0
h 10949 -10954 0
h 10950 -10954 0
h 10951 -10954 0
h 10952 -10954 0
h 10953 -10954 0
h -32 -10954 0
h -31 -10954 0
h -10955 -86 40 0
h 86 10955 0
h -40 10955 0
h -10956 -85 39 0
h 85 10956 0
h -39 10956 0
h -10957 -84 38 0
h 84 10957 0
h -38 10957 0
h -10958 -83 37 0
h 83 10958 0
h -37 10958 0
h -10959 -82 36 0
h 82 10959 0
h -36 10959 0
h -10960 -81 35 0
h 81 10960 0
h -35 10960 0
h -10961 -80 34 0
h 80 10961 0
h -34 10961 0
h -10962 -79 33 0
h 79 10962 0
h -33 10962 0
h -10963 -78 32 0
h 78 10963 0
h -32 10963 0
h -10964 -77 31 0
h 77 10964 0
h -31 10964 0
h 10965 -41 -10955 -10956 -10957 -10958 -10959 -10960 -10961 -10962 -10963 -10964 76 0
h 41 -10965 0
h 10955 -10965 0
h 10956 -10965 0
h 10957 -10965 0
h 10958 -10965 0
h 10959 -10965 0
h 10960 -10965 0
h 10961 -10965 0
h 10962 -10965 0
h 10963 -10965 0
h 10964 -10965 0
h -76 -10965 0
h 10966 -185 181 0
h 185 -10966 0
h -181 -10966 0
h 10967 -181 185 0
h 181 -10967 0
h -185 -10967 0
h 10968 -186 182 0
h 186 -10968 0
h -182 -10968 0
h 10969 -182 186 0
h 182 -10969 0
h -186 -10969 0
h 10970 -187 183 0
h 187 -10970 0
h -183 -10970 0
h 10971 -183 187 0
h 183 -10971 0
h -187 -10971 0
h 10972 -188 184 0
h 188 -10972 0
h -184 -10972 0
h 10973 -184 188 0
h 184 -10973 0
h -188 -10973 0
h -10974 -41 73 0
h 41 10974 0
h -73 10974 0
h -10975 -40 72 0
h 40 10975 0
h -72 10975 0
h -10976 -39 71 0
h 39 10976 0
h -71 10976 0
h -10977 -38 70 0
h 38 10977 0
h -70 10977 0
h -10978 -37 69 0
h 37 10978 0
h -69 10978 0
h -10979 -36 68 0
h 36 10979 0
h -68 10979 0
h -10980 -35 67 0
h 35 10980 0
h -67 10980 0
h -10981 -34 66 0
h 34 10981 0
h -66 10981 0
h -10982 -33 65 0
h 33 10982 0
h -65 10982 0
h 10983 -74 -10974 -10975 -10976 -10977 -10978 -10979 -10980 -10981 -10982 32 31 0
h 74 -10983 0
h 10974 -10983 0
h 10975 -10983 0
h 10976 -10983 0
h 10977 -10983 0
h 10978 -10983 0
h 10979 -10983 0
h 10980 -10983 0
h 10981 -10983 0
h 10982 -10983 0
h -32 -10983 0
h -31 -10983 0
h -10984 -75 40 0
h 75 10984 0
h -40 10984 0
h -10985 -74 39 0
h 74 10985 0
h -39 10985 0
h -10986 -73 38 0
h 73 10986 0
h -38 10986 0
h -10987 -72 37 0
h 72 10987 0
h -37 10987 0
h -10988 -71 36 0
h 71 10988 0
h -36 10988 0
h -10989 -70 35 0
h 70 10989 0
h -35 10989 0
h -10990 -69 34 0
h 69 10990 0
h -34 10990 0
h -10991 -68 33 0
h 68 10991 0
h -33 10991 0
h -10992 -67 32 0
h 67 10992 0
h -32 10992 0
h -10993 -66 31 0
h 66 10993 0
h -31 10993 0
h 10994 -41 -10984 -10985 -10986 -10987 -10988 -10989 -10990 -10991 -10992 -10993 65 0
h 41 -10994 0
h 10984 -10994 0
h 10985 -10994 0
h 10986 -10994 0
h 10987 -10994 0
h 10988 -10994 0
h 10989 -10994 0
h 10990 -10994 0
h 10991 -10994 0
h 10992 -10994 0
h 10993 -10994 0
h -65 -10994 0
h 10995 -177 181 0
h 177 -10995 0
h -181 -10995 0
h 10996 -181 177 0
h 181 -10996 0
h -177 -10996 0
h 10997 -178 182 0
h 178 -10997 0
h -182 -10997 0
h 10998 -182 178 0
h 182 -10998 0
h -178 -10998 0
h 10999 -179 183 0
h 179 -10999 0
h -183 -10999 0
h 11000 -183 179 0
h 183 -11000 0
h -179 -11000 0
h 11001 -180 184 0
h 180 -11001 0
h -184 -11001 0
h 11002 -184 180 0
h 184 -11002 0
h -180 -11002 0
h -11003 -30 200 0
h 30 11003 0
h -200 11003 0
h -11004 -29 199 0
h 29 11004 0
h -199 11004 0
h -11005 -28 198 0
h 28 11005 0
h -198 11005 0
h -11006 -27 197 0
h 27 11006 0
h -197 11006 0
h -11007 -26 196 0
h 26 11007 0
h -196 11007 0
h -11008 -25 195 0
h 25 11008 0
h -195 11008 0
h -11009 -24 194 0
h 24 11009 0
h -194 11009 0
h -11010 -23 193 0
h 23 11010 0
h -193 11010 0
h 11011 -201 -11003 -11004 -11005 -11006 -11007 -11008 -11009 -11010 22 21 20 0
h 201 -11011 0
h 11003 -11011 0
h 11004 -11011 0
h 11005 -11011 0
h 11006 -11011 0
h 11007 -11011 0
h 11008 -11011 0
h 11009 -11011 0
h 11010 -11011 0
h -22 -11011 0
h -21 -11011 0
h -20 -11011 0
h -11012 -203 28 0
h 203 11012 0
h -28 11012 0
h -11013 -202 27 0
h 202 11013 0
h -27 11013 0
h -11014 -201 26 0
h 201 11014 0
h -26 11014 0
h -11015 -200 25 0
h 200 11015 0
h -25 11015 0
h -11016 -199 24 0
h 199 11016 0
h -24 11016 0
h -11017 -198 23 0
h 198 11017 0
h -23 11017 0
h -11018 -197 22 0
h 197 11018 0
h -22 11018 0
h -11019 -196 21 0
h 196 11019 0
h -21 11019 0
h -11020 -195 20 0
h 195 11020 0
h -20 11020 0
h 11021 -29 -11012 -11013 -11014 -11015 -11016 -11017 -11018 -11019 -11020 194 193 0
h 29 -11021 0
h 11012 -11021 0
h 11013 -11021 0
h 11014 -11021 0
h 11015 -11021 0
h 11016 -11021 0
h 11017 -11021 0
h 11018 -11021 0
h 11019 -11021 0
h 11020 -11021 0
h -194 -11021 0
h -193 -11021 0
h 11022 -342 162 0
h 342 -11022 0
h -162 -11022 0
h 11023 -162 342 0
h 162 -11023 0
h -342 -11023 0
h 11024 -343 163 0
h 343 -11024 0
h -163 -11024 0
h 11025 -163 343 0
h 163 -11025 0
h -343 -11025 0
h 11026 -344 164 0
h 344 -11026 0
h -164 -11026 0
h 11027 -164 344 0
h 164 -11027 0
h -344 -11027 0
h 11028 -345 165 0
h 345 -11028 0
h -165 -11028 0
h 11029 -165 345 0
h 165 -11029 0
h -345 -11029 0
h -11030 11011 11021 11022 11023 11024 11025 11026 11027 11028 11029 0
h -11011 11030 0
h -11021 11030 0
h -11022 11030 0
h -11023 11030 0
h -11024 11030 0
h -11025 11030 0
h -11026 11030 0
h -11027 11030 0
h -11028 11030 0
h -11029 11030 0
h -11031 -15 200 0
h 15 11031 0
h -200 11031 0
h -11032 -14 199 0
h 14 11032 0
h -199 11032 0
h -11033 -13 198 0
h 13 11033 0
h -198 11033 0
h -11034 -12 197 0
h 12 11034 0
h -197 11034 0
h -11035 -11 196 0
h 11 11035 0
h -196 11035 0
h -11036 -10 195 0
h 10 11036 0
h -195 11036 0
h -11037 -9 194 0
h 9 11037 0
h -194 11037 0
h -11038 -8 193 0
h 8 11038 0
h -193 11038 0
h 11039 -201 -11031 -11032 -11033 -11034 -11035 -11036 -11037 -11038 7 6 5 0
h 201 -11039 0
h 11031 -11039 0
h 11032 -11039 0
h 11033 -11039 0
h 11034 -11039 0
h 11035 -11039 0
h 11036 -11039 0
h 11037 -11039 0
h 11038 -11039 0
h -7 -11039 0
h -6 -11039 0
h -5 -11039 0
h -11040 -203 13 0
h 203 11040 0
h -13 11040 0
h -11041 -202 12 0
h 202 11041 0
h -12 11041 0
h -11042 -201 11 0
h 201 11042 0
h -11 11042 0
h -11043 -200 10 0
h 200 11043 0
h -10 11043 0
h -11044 -199 9 0
h 199 11044 0
h -9 11044 0
h -11045 -198 8 0
h 198 11045 0
h -8 11045 0
h -11046 -197 7 0
h 197 11046 0
h -7 11046 0
h -11047 -196 6 0
h 196 11047 0
h -6 11047 0
h -11048 -195 5 0
h 195 11048 0
h -5 11048 0
h 11049 -14 -11040 -11041 -11042 -11043 -11044 -11045 -11046 -11047 -11048 194 193 0
h 14 -11049 0
h 11040 -11049 0
h 11041 -11049 0
h 11042 -11049 0
h 11043 -11049 0
h 11044 -11049 0
h 11045 -11049 0
h 11046 -11049 0
h 11047 -11049 0
h 11048 -11049 0
h -194 -11049 0
h -193 -11049 0
h 11050 -342 158 0
h 342 -11050 0
h -158 -11050 0
h 11051 -158 342 0
h 158 -11051 0
h -342 -11051 0
h 11052 -343 159 0
h 343 -11052 0
h -159 -11052 0
h 11053 -159 343 0
h 159 -11053 0
h -343 -11053 0
h 11054 -344 160 0
h 344 -11054 0
h -160 -11054 0
h 11055 -160 344 0
h 160 -11055 0
h -344 -11055 0
h 11056 -345 161 0
h 345 -11056 0
h -161 -11056 0
h 11057 -161 345 0
h 161 -11057 0
h -345 -11057 0
h -11058 11039 11049 11050 11051 11052 11053 11054 11055 11056 11057 0
h -11039 11058 0
h -11049 11058 0
h -11050 11058 0
h -11051 11058 0
h -11052 11058 0
h -11053 11058 0
h -11054 11058 0
h -11055 11058 0
h -11056 11058 0
h -11057 11058 0
h -11059 -30 215 0
h 30 11059 0
h -215 11059 0
h -11060 -29 214 0
h 29 11060 0
h -214 11060 0
h -11061 -28 213 0
h 28 11061 0
h -213 11061 0
h -11062 -27 212 0
h 27 11062 0
h -212 11062 0
h -11063 -26 211 0
h 26 11063 0
h -211 11063 0
h -11064 -25 210 0
h 25 11064 0
h -210 11064 0
h -11065 -24 209 0
h 24 11065 0
h -209 11065 0
h -11066 -23 208 0
h 23 11066 0
h -208 11066 0
h 11067 -216 -11059 -11060 -11061 -11062 -11063 -11064 -11065 -11066 22 21 20 0
h 216 -11067 0
h 11059 -11067 0
h 11060 -11067 0
h 11061 -11067 0
h 11062 -11067 0
h 11063 -11067 0
h 11064 -11067 0
h 11065 -11067 0
h 11066 -11067 0
h -22 -11067 0
h -21 -11067 0
h -20 -11067 0
h -11068 -218 28 0
h 218 11068 0
h -28 11068 0
h -11069 -217 27 0
h 217 11069 0
h -27 11069 0
h -11070 -216 26 0
h 216 11070 0
h -26 11070 0
h -11071 -215 25 0
h 215 11071 0
h -25 11071 0
h -11072 -214 24 0
h 214 11072 0
h -24 11072 0
h -11073 -213 23 0
h 213 11073 0
h -23 11073 0
h -11074 -212 22 0
h 212 11074 0
h -22 11074 0
h -11075 -211 21 0
h 211 11075 0
h -21 11075 0
h -11076 -210 20 0
h 210 11076 0
h -20 11076 0
h 11077 -29 -11068 -11069 -11070 -11071 -11072 -11073 -11074 -11075 -11076 209 208 0
h 29 -11077 0
h 11068 -11077 0
h 11069 -11077 0
h 11070 -11077 0
h 11071 -11077 0
h 11072 -11077 0
h 11073 -11077 0
h 11074 -11077 0
h 11075 -11077 0
h 11076 -11077 0
h -209 -11077 0
h -208 -11077 0
h 11078 -327 162 0
h 327 -11078 0
h -162 -11078 0
h 11079 -162 327 0
h 162 -11079 0
h -327 -11079 0
h 11080 -328 163 0
h 328 -11080 0
h -163 -11080 0
h 11081 -163 328 0
h 163 -11081 0
h -328 -11081 0
h 11082 -329 164 0
h 329 -11082 0
h -164 -11082 0
h 11083 -164 329 0
h 164 -11083 0
h -329 -11083 0
h 11084 -330 165 0
h 330 -11084 0
h -165 -11084 0
h 11085 -165 330 0
h 165 -11085 0
h -330 -11085 0
h -11086 11067 11077 11078 11079 11080 11081 11082 11083 11084 11085 0
h -11067 11086 0
h -11077 11086 0
h -11078 11086 0
h -11079 11086 0
h -11080 11086 0
h -11081 11086 0
h -11082 11086 0
h -11083 11086 0
h -11084 11086 0
h -11085 11086 0
h -11087 -15 215 0
h 15 11087 0
h -215 11087 0
h -11088 -14 214 0
h 14 11088 0
h -214 11088 0
h -11089 -13 213 0
h 13 11089 0
h -213 11089 0
h -11090 -12 212 0
h 12 11090 0
h -212 11090 0
h -11091 -11 211 0
h 11 11091 0
h -211 11091 0
h -11092 -10 210 0
h 10 11092 0
h -210 11092 0
h -11093 -9 209 0
h 9 11093 0
h -209 11093 0
h -11094 -8 208 0
h 8 11094 0
h -208 11094 0
h 11095 -216 -11087 -11088 -11089 -11090 -11091 -11092 -11093 -11094 7 6 5 0
h 216 -11095 0
h 11087 -11095 0
h 11088 -11095 0
h 11089 -11095 0
h 11090 -11095 0
h 11091 -11095 0
h 11092 -11095 0
h 11093 -11095 0
h 11094 -11095 0
h -7 -11095 0
h -6 -11095 0
h -5 -11095 0
h -11096 -218 13 0
h 218 11096 0
h -13 11096 0
h -11097 -217 12 0
h 217 11097 0
h -12 11097 0
h -11098 -216 11 0
h 216 11098 0
h -11 11098 0
h -11099 -215 10 0
h 215 11099 0
h -10 11099 0
h -11100 -214 9 0
h 214 11100 0
h -9 11100 0
h -11101 -213 8 0
h 213 11101 0
h -8 11101 0
h -11102 -212 7 0
h 212 11102 0
h -7 11102 0
h -11103 -211 6 0
h 211 11103 0
h -6 11103 0
h -11104 -210 5 0
h 210 11104 0
h -5 11104 0
h 11105 -14 -11096 -11097 -11098 -11099 -11100 -11101 -11102 -11103 -11104 209 208 0
h 14 -11105 0
h 11096 -11105 0
h 11097 -11105 0
h 11098 -11105 0
h 11099 -11105 0
h 11100 -11105 0
h 11101 -11105 0
h 11102 -11105 0
h 11103 -11105 0
h 11104 -11105 0
h -209 -11105 0
h -208 -11105 0
h 11106 -327 158 0
h 327 -11106 0
h -158 -11106 0
h 11107 -158 327 0
h 158 -11107 0
h -327 -11107 0
h 11108 -328 159 0
h 328 -11108 0
h -159 -11108 0
h 11109 -159 328 0
h 159 -11109 0
h -328 -11109 0
h 11110 -329 160 0
h 329 -11110 0
h -160 -11110 0
h 11111 -160 329 0
h 160 -11111 0
h -329 -11111 0
h 11112 -330 161 0
h 330 -11112 0
h -161 -11112 0
h 11113 -161 330 0
h 161 -11113 0
h -330 -11113 0
h -11114 11095 11105 11106 11107 11108 11109 11110 11111 11112 11113 0
h -11095 11114 0
h -11105 11114 0
h -11106 11114 0
h -11107 11114 0
h -11108 11114 0
h -11109 11114 0
h -11110 11114 0
h -11111 11114 0
h -11112 11114 0
h -11113 11114 0
h -11115 -30 84 0
h 30 11115 0
h -84 11115 0
h -11116 -29 83 0
h 29 11116 0
h -83 11116 0
h -11117 -28 82 0
h 28 11117 0
h -82 11117 0
h -11118 -27 81 0
h 27 11118 0
h -81 11118 0
h -11119 -26 80 0
h 26 11119 0
h -80 11119 0
h -11120 -25 79 0
h 25 11120 0
h -79 11120 0
h -11121 -24 78 0
h 24 11121 0
h -78 11121 0
h -11122 -23 77 0
h 23 11122 0
h -77 11122 0
h -11123 -22 76 0
h 22 11123 0
h -76 11123 0
h 11124 -85 -11115 -11116 -11117 -11118 -11119 -11120 -11121 -11122 -11123 21 20 0
h 85 -11124 0
h 11115 -11124 0
h 11116 -11124 0
h 11117 -11124 0
h 11118 -11124 0
h 11119 -11124 0
h 11120 -11124 0
h 11121 -11124 0
h 11122 -11124 0
h 11123 -11124 0
h -21 -11124 0
h -20 -11124 0
h -11125 -86 28 0
h 86 11125 0
h -28 11125 0
h -11126 -85 27 0
h 85 11126 0
h -27 11126 0
h -11127 -84 26 0
h 84 11127 0
h -26 11127 0
h -11128 -83 25 0
h 83 11128 0
h -25 11128 0
h -11129 -82 24 0
h 82 11129 0
h -24 11129 0
h -11130 -81 23 0
h 81 11130 0
h -23 11130 0
h -11131 -80 22 0
h 80 11131 0
h -22 11131 0
h -11132 -79 21 0
h 79 11132 0
h -21 11132 0
h -11133 -78 20 0
h 78 11133 0
h -20 11133 0
h 11134 -29 -11125 -11126 -11127 -11128 -11129 -11130 -11131 -11132 -11133 77 76 0
h 29 -11134 0
h 11125 -11134 0
h 11126 -11134 0
h 11127 -11134 0
h 11128 -11134 0
h 11129 -11134 0
h 11130 -11134 0
h 11131 -11134 0
h 11132 -11134 0
h 11133 -11134 0
h -77 -11134 0
h -76 -11134 0
h 11135 -185 162 0
h 185 -11135 0
h -162 -11135 0
h 11136 -162 185 0
h 162 -11136 0
h -185 -11136 0
h 11137 -186 163 0
h 186 -11137 0
h -163 -11137 0
h 11138 -163 186 0
h 163 -11138 0
h -186 -11138 0
h 11139 -187 164 0
h 187 -11139 0
h -164 -11139 0
h 11140 -164 187 0
h 164 -11140 0
h -187 -11140 0
h 11141 -188 165 0
h 188 -11141 0
h -165 -11141 0
h 11142 -165 188 0
h 165 -11142 0
h -188 -11142 0
h -11143 11124 11134 11135 11136 11137 11138 11139 11140 11141 11142 0
h -11124 11143 0
h -11134 11143 0
h -11135 11143 0
h -11136 11143 0
h -11137 11143 0
h -11138 11143 0
h -11139 11143 0
h -11140 11143 0
h -11141 11143 0
h -11142 11143 0
h -11144 -15 84 0
h 15 11144 0
h -84 11144 0
h -11145 -14 83 0
h 14 11145 0
h -83 11145 0
h -11146 -13 82 0
h 13 11146 0
h -82 11146 0
h -11147 -12 81 0
h 12 11147 0
h -81 11147 0
h -11148 -11 80 0
h 11 11148 0
h -80 11148 0
h -11149 -10 79 0
h 10 11149 0
h -79 11149 0
h -11150 -9 78 0
h 9 11150 0
h -78 11150 0
h -11151 -8 77 0
h 8 11151 0
h -77 11151 0
h -11152 -7 76 0
h 7 11152 0
h -76 11152 0
h 11153 -85 -11144 -11145 -11146 -11147 -11148 -11149 -11150 -11151 -11152 6 5 0
h 85 -11153 0
h 11144 -11153 0
h 11145 -11153 0
h 11146 -11153 0
h 11147 -11153 0
h 11148 -11153 0
h 11149 -11153 0
h 11150 -11153 0
h 11151 -11153 0
h 11152 -11153 0
h -6 -11153 0
h -5 -11153 0
h -11154 -86 13 0
h 86 11154 0
h -13 11154 0
h -11155 -85 12 0
h 85 11155 0
h -12 11155 0
h -11156 -84 11 0
h 84 11156 0
h -11 11156 0
h -11157 -83 10 0
h 83 11157 0
h -10 11157 0
h -11158 -82 9 0
h 82 11158 0
h -9 11158 0
h -11159 -81 8 0
h 81 11159 0
h -8 11159 0
h -11160 -80 7 0
h 80 11160 0
h -7 11160 0
h -11161 -79 6 0
h 79 11161 0
h -6 11161 0
h -11162 -78 5 0
h 78 11162 0
h -5 11162 0
h 11163 -14 -11154 -11155 -11156 -11157 -11158 -11159 -11160 -11161 -11162 77 76 0
h 14 -11163 0
h 11154 -11163 0
h 11155 -11163 0
h 11156 -11163 0
h 11157 -11163 0
h 11158 -11163 0
h 11159 -11163 0
h 11160 -11163 0
h 11161 -11163 0
h 11162 -11163 0
h -77 -11163 0
h -76 -11163 0
h 11164 -185 158 0
h 185 -11164 0
h -158 -11164 0
h 11165 -158 185 0
h 158 -11165 0
h -185 -11165 0
h 11166 -186 159 0
h 186 -11166 0
h -159 -11166 0
h 11167 -159 186 0
h 159 -11167 0
h -186 -11167 0
h 11168 -187 160 0
h 187 -11168 0
h -160 -11168 0
h 11169 -160 187 0
h 160 -11169 0
h -187 -11169 0
h 11170 -188 161 0
h 188 -11170 0
h -161 -11170 0
h 11171 -161 188 0
h 161 -11171 0
h -188 -11171 0
h -11172 11153 11163 11164 11165 11166 11167 11168 11169 11170 11171 0
h -11153 11172 0
h -11163 11172 0
h -11164 11172 0
h -11165 11172 0
h -11166 11172 0
h -11167 11172 0
h -11168 11172 0
h -11169 11172 0
h -11170 11172 0
h -11171 11172 0
h -11173 -30 73 0
h 30 11173 0
h -73 11173 0
h -11174 -29 72 0
h 29 11174 0
h -72 11174 0
h -11175 -28 71 0
h 28 11175 0
h -71 11175 0
h -11176 -27 70 0
h 27 11176 0
h -70 11176 0
h -11177 -26 69 0
h 26 11177 0
h -69 11177 0
h -11178 -25 68 0
h 25 11178 0
h -68 11178 0
h -11179 -24 67 0
h 24 11179 0
h -67 11179 0
h -11180 -23 66 0
h 23 11180 0
h -66 11180 0
h -11181 -22 65 0
h 22 11181 0
h -65 11181 0
h 11182 -74 -11173 -11174 -11175 -11176 -11177 -11178 -11179 -11180 -11181 21 20 0
h 74 -11182 0
h 11173 -11182 0
h 11174 -11182 0
h 11175 -11182 0
h 11176 -11182 0
h 11177 -11182 0
h 11178 -11182 0
h 11179 -11182 0
h 11180 -11182 0
h 11181 -11182 0
h -21 -11182 0
h -20 -11182 0
h -11183 -75 28 0
h 75 11183 0
h -28 11183 0
h -11184 -74 27 0
h 74 11184 0
h -27 11184 0
h -11185 -73 26 0
h 73 11185 0
h -26 11185 0
h -11186 -72 25 0
h 72 11186 0
h -25 11186 0
h -11187 -71 24 0
h 71 11187 0
h -24 11187 0
h -11188 -70 23 0
h 70 11188 0
h -23 11188 0
h -11189 -69 22 0
h 69 11189 0
h -22 11189 0
h -11190 -68 21 0
h 68 11190 0
h -21 11190 0
h -11191 -67 20 0
h 67 11191 0
h -20 11191 0
h 11192 -29 -11183 -11184 -11185 -11186 -11187 -11188 -11189 -11190 -11191 66 65 0
h 29 -11192 0
h 11183 -11192 0
h 11184 -11192 0
h 11185 -11192 0
h 11186 -11192 0
h 11187 -11192 0
h 11188 -11192 0
h 11189 -11192 0
h 11190 -11192 0
h 11191 -11192 0
h -66 -11192 0
h -65 -11192 0
h 11193 -177 162 0
h 177 -11193 0
h -162 -11193 0
h 11194 -162 177 0
h 162 -11194 0
h -177 -11194 0
h 11195 -178 163 0
h 178 -11195 0
h -163 -11195 0
h 11196 -163 178 0
h 163 -11196 0
h -178 -11196 0
h 11197 -179 164 0
h 179 -11197 0
h -164 -11197 0
h 11198 -164 179 0
h 164 -11198 0
h -179 -11198 0
h 11199 -180 165 0
h 180 -11199 0
h -165 -11199 0
h 11200 -165 180 0
h 165 -11200 0
h -180 -11200 0
h -11201 11182 11192 11193 11194 11195 11196 11197 11198 11199 11200 0
h -11182 11201 0
h -11192 11201 0
h -11193 11201 0
h -11194 11201 0
h -11195 11201 0
h -11196 11201 0
h -11197 11201 0
h -11198 11201 0
h -11199 11201 0
h -11200 11201 0
h -11202 -15 73 0
h 15 11202 0
h -73 11202 0
h -11203 -14 72 0
h 14 11203 0
h -72 11203 0
h -11204 -13 71 0
h 13 11204 0
h -71 11204 0
h -11205 -12 70 0
h 12 11205 0
h -70 11205 0
h -11206 -11 69 0
h 11 11206 0
h -69 11206 0
h -11207 -10 68 0
h 10 11207 0
h -68 11207 0
h -11208 -9 67 0
h 9 11208 0
h -67 11208 0
h -11209 -8 66 0
h 8 11209 0
h -66 11209 0
h -11210 -7 65 0
h 7 11210 0
h -65 11210 0
h 11211 -74 -11202 -11203 -11204 -11205 -11206 -11207 -11208 -11209 -11210 6 5 0
h 74 -11211 0
h 11202 -11211 0
h 11203 -11211 0
h 11204 -11211 0
h 11205 -11211 0
h 11206 -11211 0
h 11207 -11211 0
h 11208 -11211 0
h 11209 -11211 0
h 11210 -11211 0
h -6 -11211 0
h -5 -11211 0
h -11212 -75 13 0
h 75 11212 0
h -13 11212 0
h -11213 -74 12 0
h 74 11213 0
h -12 11213 0
h -11214 -73 11 0
h 73 11214 0
h -11 11214 0
h -11215 -72 10 0
h 72 11215 0
h -10 11215 0
h -11216 -71 9 0
h 71 11216 0
h -9 11216 0
h -11217 -70 8 0
h 70 11217 0
h -8 11217 0
h -11218 -69 7 0
h 69 11218 0
h -7 11218 0
h -11219 -68 6 0
h 68 11219 0
h -6 11219 0
h -11220 -67 5 0
h 67 11220 0
h -5 11220 0
h 11221 -14 -11212 -11213 -11214 -11215 -11216 -11217 -11218 -11219 -11220 66 65 0
h 14 -11221 0
h 11212 -11221 0
h 11213 -11221 0
h 11214 -11221 0
h 11215 -11221 0
h 11216 -11221 0
h 11217 -11221 0
h 11218 -11221 0
h 11219 -11221 0
h 11220 -11221 0
h -66 -11221 0
h -65 -11221 0
h 11222 -177 158 0
h 177 -11222 0
h -158 -11222 0
h 11223 -158 177 0
h 158 -11223 0
h -177 -11223 0
h 11224 -178 159 0
h 178 -11224 0
h -159 -11224 0
h 11225 -159 178 0
h 159 -11225 0
h -178 -11225 0
h 11226 -179 160 0
h 179 -11226 0
h -160 -11226 0
h 11227 -160 179 0
h 160 -11227 0
h -179 -11227 0
h 11228 -180 161 0
h 180 -11228 0
h -161 -11228 0
h 11229 -161 180 0
h 161 -11229 0
h -180 -11229 0
h -11230 11211 11221 11222 11223 11224 11225 11226 11227 11228 11229 0
h -11211 11230 0
h -11221 11230 0
h -11222 11230 0
h -11223 11230 0
h -11224 11230 0
h -11225 11230 0
h -11226 11230 0
h -11227 11230 0
h -11228 11230 0
h -11229 11230 0
h 11231 -11030 -11058 -11086 -11114 -11143 -11172 -11201 -11230 0
h 11030 -11231 0
h 11058 -11231 0
h 11086 -11231 0
h 11114 -11231 0
h 11143 -11231 0
h 11172 -11231 0
h 11201 -11231 0
h 11230 -11231 0
h 11232 -30 200 0
h 30 -11232 0
h -200 -11232 0
h 11233 -29 199 0
h 29 -11233 0
h -199 -11233 0
h 11234 -28 198 0
h 28 -11234 0
h -198 -11234 0
h 11235 -27 197 0
h 27 -11235 0
h -197 -11235 0
h 11236 -26 196 0
h 26 -11236 0
h -196 -11236 0
h 11237 -25 195 0
h 25 -11237 0
h -195 -11237 0
h 11238 -24 194 0
h 24 -11238 0
h -194 -11238 0
h 11239 -23 193 0
h 23 -11239 0
h -193 -11239 0
h -11240 -201 11232 11233 11234 11235 11236 11237 11238 11239 22 21 20 0
h 201 11240 0
h -11232 11240 0
h -11233 11240 0
h -11234 11240 0
h -11235 11240 0
h -11236 11240 0
h -11237 11240 0
h -11238 11240 0
h -11239 11240 0
h -22 11240 0
h -21 11240 0
h -20 11240 0
h 11241 -203 28 0
h 203 -11241 0
h -28 -11241 0
h 11242 -202 27 0
h 202 -11242 0
h -27 -11242 0
h 11243 -201 26 0
h 201 -11243 0
h -26 -11243 0
h 11244 -200 25 0
h 200 -11244 0
h -25 -11244 0
h 11245 -199 24 0
h 199 -11245 0
h -24 -11245 0
h 11246 -198 23 0
h 198 -11246 0
h -23 -11246 0
h 11247 -197 22 0
h 197 -11247 0
h -22 -11247 0
h 11248 -196 21 0
h 196 -11248 0
h -21 -11248 0
h 11249 -195 20 0
h 195 -11249 0
h -20 -11249 0
h -11250 -29 11241 11242 11243 11244 11245 11246 11247 11248 11249 194 193 0
h 29 11250 0
h -11241 11250 0
h -11242 11250 0
h -11243 11250 0
h -11244 11250 0
h -11245 11250 0
h -11246 11250 0
h -11247 11250 0
h -11248 11250 0
h -11249 11250 0
h -194 11250 0
h -193 11250 0
h -11251 -342 162 0
h 342 11251 0
h -162 11251 0
h -11252 -162 342 0
h 162 11252 0
h -342 11252 0
h -11253 -343 163 0
h 343 11253 0
h -163 11253 0
h -11254 -163 343 0
h 163 11254 0
h -343 11254 0
h -11255 -344 164 0
h 344 11255 0
h -164 11255 0
h -11256 -164 344 0
h 164 11256 0
h -344 11256 0
h -11257 -345 165 0
h 345 11257 0
h -165 11257 0
h -11258 -165 345 0
h 165 11258 0
h -345 11258 0
h 11259 -11240 -11250 -11251 -11252 -11253 -11254 -11255 -11256 -11257 -11258 0
h 11240 -11259 0
h 11250 -11259 0
h 11251 -11259 0
h 11252 -11259 0
h 11253 -11259 0
h 11254 -11259 0
h 11255 -11259 0
h 11256 -11259 0
h 11257 -11259 0
h 11258 -11259 0
h 11260 -15 200 0
h 15 -11260 0
h -200 -11260 0
h 11261 -14 199 0
h 14 -11261 0
h -199 -11261 0
h 11262 -13 198 0
h 13 -11262 0
h -198 -11262 0
h 11263 -12 197 0
h 12 -11263 0
h -197 -11263 0
h 11264 -11 196 0
h 11 -11264 0
h -196 -11264 0
h 11265 -10 195 0
h 10 -11265 0
h -195 -11265 0
h 11266 -9 194 0
h 9 -11266 0
h -194 -11266 0
h 11267 -8 193 0
h 8 -11267 0
h -193 -11267 0
h -11268 -201 11260 11261 11262 11263 11264 11265 11266 11267 7 6 5 0
h 201 11268 0
h -11260 11268 0
h -11261 11268 0
h -11262 11268 0
h -11263 11268 0
h -11264 11268 0
h -11265 11268 0
h -11266 11268 0
h -11267 11268 0
h -7 11268 0
h -6 11268 0
h -5 11268 0
h 11269 -203 13 0
h 203 -11269 0
h -13 -11269 0
h 11270 -202 12 0
h 202 -11270 0
h -12 -11270 0
h 11271 -201 11 0
h 201 -11271 0
h -11 -11271 0
h 11272 -200 10 0
h 200 -11272 0
h -10 -11272 0
h 11273 -199 9 0
h 199 -11273 0
h -9 -11273 0
h 11274 -198 8 0
h 198 -11274 0
h -8 -11274 0
h 11275 -197 7 0
h 197 -11275 0
h -7 -11275 0
h 11276 -196 6 0
h 196 -11276 0
h -6 -11276 0
h 11277 -195 5 0
h 195 -11277 0
h -5 -11277 0
h -11278 -14 11269 11270 11271 11272 11273 11274 11275 11276 11277 194 193 0
h 14 11278 0
h -11269 11278 0
h -11270 11278 0
h -11271 11278 0
h -11272 11278 0
h -11273 11278 0
h -11274 11278 0
h -11275 11278 0
h -11276 11278 0
h -11277 11278 0
h -194 11278 0
h -193 11278 0
h -11279 -342 158 0
h 342 11279 0
h -158 11279 0
h -11280 -158 342 0
h 158 11280 0
h -342 11280 0
h -11281 -343 159 0
h 343 11281 0
h -159 11281 0
h -11282 -159 343 0
h 159 11282 0
h -343 11282 0
h -11283 -344 160 0
h 344 11283 0
h -160 11283 0
h -11284 -160 344 0
h 160 11284 0
h -344 11284 0
h -11285 -345 161 0
h 345 11285 0
h -161 11285 0
h -11286 -161 345 0
h 161 11286 0
h -345 11286 0
h 11287 -11268 -11278 -11279 -11280 -11281 -11282 -11283 -11284 -11285 -11286 0
h 11268 -11287 0
h 11278 -11287 0
h 11279 -11287 0
h 11280 -11287 0
h 11281 -11287 0
h 11282 -11287 0
h 11283 -11287 0
h 11284 -11287 0
h 11285 -11287 0
h 11286 -11287 0
h 11288 -30 215 0
h 30 -11288 0
h -215 -11288 0
h 11289 -29 214 0
h 29 -11289 0
h -214 -11289 0
h 11290 -28 213 0
h 28 -11290 0
h -213 -11290 0
h 11291 -27 212 0
h 27 -11291 0
h -212 -11291 0
h 11292 -26 211 0
h 26 -11292 0
h -211 -11292 0
h 11293 -25 210 0
h 25 -11293 0
h -210 -11293 0
h 11294 -24 209 0
h 24 -11294 0
h -209 -11294 0
h 11295 -23 208 0
h 23 -11295 0
h -208 -11295 0
h -11296 -216 11288 11289 11290 11291 11292 11293 11294 11295 22 21 20 0
h 216 11296 0
h -11288 11296 0
h -11289 11296 0
h -11290 11296 0
h -11291 11296 0
h -11292 11296 0
h -11293 11296 0
h -11294 11296 0
h -11295 11296 0
h -22 11296 0
h -21 11296 0
h -20 11296 0
h 11297 -218 28 0
h 218 -11297 0
h -28 -11297 0
h 11298 -217 27 0
h 217 -11298 0
h -27 -11298 0
h 11299 -216 26 0
h 216 -11299 0
h -26 -11299 0
h 11300 -215 25 0
h 215 -11300 0
h -25 -11300 0
h 11301 -214 24 0
h 214 -11301 0
h -24 -11301 0
h 11302 -213 23 0
h 213 -11302 0
h -23 -11302 0
h 11303 -212 22 0
h 212 -11303 0
h -22 -11303 0
h 11304 -211 21 0
h 211 -11304 0
h -21 -11304 0
h 11305 -210 20 0
h 210 -11305 0
h -20 -11305 0
h -11306 -29 11297 11298 11299 11300 11301 11302 11303 11304 11305 209 208 0
h 29 11306 0
h -11297 11306 0
h -11298 11306 0
h -11299 11306 0
h -11300 11306 0
h -11301 11306 0
h -11302 11306 0
h -11303 11306 0
h -11304 11306 0
h -11305 11306 0
h -209 11306 0
h -208 11306 0
h -11307 -327 162 0
h 327 11307 0
h -162 11307 0
h -11308 -162 327 0
h 162 11308 0
h -327 11308 0
h -11309 -328 163 0
h 328 11309 0
h -163 11309 0
h -11310 -163 328 0
h 163 11310 0
h -328 11310 0
h -11311 -329 164 0
h 329 11311 0
h -164 11311 0
h -11312 -164 329 0
h 164 11312 0
h -329 11312 0
h -11313 -330 165 0
h 330 11313 0
h -165 11313 0
h -11314 -165 330 0
h 165 11314 0
h -330 11314 0
h 11315 -11296 -11306 -11307 -11308 -11309 -11310 -11311 -11312 -11313 -11314 0
h 11296 -11315 0
h 11306 -11315 0
h 11307 -11315 0
h 11308 -11315 0
h 11309 -11315 0
h 11310 -11315 0
h 11311 -11315 0
h 11312 -11315 0
h 11313 -11315 0
h 11314 -11315 0
h 11316 -15 215 0
h 15 -11316 0
h -215 -11316 0
h 11317 -14 214 0
h 14 -11317 0
h -214 -11317 0
h 11318 -13 213 0
h 13 -11318 0
h -213 -11318 0
h 11319 -12 212 0
h 12 -11319 0
h -212 -11319 0
h 11320 -11 211 0
h 11 -11320 0
h -211 -11320 0
h 11321 -10 210 0
h 10 -11321 0
h -210 -11321 0
h 11322 -9 209 0
h 9 -11322 0
h -209 -11322 0
h 11323 -8 208 0
h 8 -11323 0
h -208 -11323 0
h -11324 -216 11316 11317 11318 11319 11320 11321 11322 11323 7 6 5 0
h 216 11324 0
h -11316 11324 0
h -11317 11324 0
h -11318 11324 0
h -11319 11324 0
h -11320 11324 0
h -11321 11324 0
h -11322 11324 0
h -11323 11324 0
h -7 11324 0
h -6 11324 0
h -5 11324 0
h 11325 -218 13 0
h 218 -11325 0
h -13 -11325 0
h 11326 -217 12 0
h 217 -11326 0
h -12 -11326 0
h 11327 -216 11 0
h 216 -11327 0
h -11 -11327 0
h 11328 -215 10 0
h 215 -11328 0
h -10 -11328 0
h 11329 -214 9 0
h 214 -11329 0
h -9 -11329 0
h 11330 -213 8 0
h 213 -11330 0
h -8 -11330 0
h 11331 -212 7 0
h 212 -11331 0
h -7 -11331 0
h 11332 -211 6 0
h 211 -11332 0
h -6 -11332 0
h 11333 -210 5 0
h 210 -11333 0
h -5 -11333 0
h -11334 -14 11325 11326 11327 11328 11329 11330 11331 11332 11333 209 208 0
h 14 11334 0
h -11325 11334 0
h -11326 11334 0
h -11327 11334 0
h -11328 11334 0
h -11329 11334 0
h -11330 11334 0
h -11331 11334 0
h -11332 11334 0
h -11333 11334 0
h -209 11334 0
h -208 11334 0
h -11335 -327 158 0
h 327 11335 0
h -158 11335 0
h -11336 -158 327 0
h 158 11336 0
h -327 11336 0
h -11337 -328 159 0
h 328 11337 0
h -159 11337 0
h -11338 -159 328 0
h 159 11338 0
h -328 11338 0
h -11339 -329 160 0
h 329 11339 0
h -160 11339 0
h -11340 -160 329 0
h 160 11340 0
h -329 11340 0
h -11341 -330 161 0
h 330 11341 0
h -161 11341 0
h -11342 -161 330 0
h 161 11342 0
h -330 11342 0
h 11343 -11324 -11334 -11335 -11336 -11337 -11338 -11339 -11340 -11341 -11342 0
h 11324 -11343 0
h 11334 -11343 0
h 11335 -11343 0
h 11336 -11343 0
h 11337 -11343 0
h 11338 -11343 0
h 11339 -11343 0
h 11340 -11343 0
h 11341 -11343 0
h 11342 -11343 0
h 11344 -30 84 0
h 30 -11344 0
h -84 -11344 0
h 11345 -29 83 0
h 29 -11345 0
h -83 -11345 0
h 11346 -28 82 0
h 28 -11346 0
h -82 -11346 0
h 11347 -27 81 0
h 27 -11347 0
h -81 -11347 0
h 11348 -26 80 0
h 26 -11348 0
h -80 -11348 0
h 11349 -25 79 0
h 25 -11349 0
h -79 -11349 0
h 11350 -24 78 0
h 24 -11350 0
h -78 -11350 0
h 11351 -23 77 0
h 23 -11351 0
h -77 -11351 0
h 11352 -22 76 0
h 22 -11352 0
h -76 -11352 0
h -11353 -85 11344 11345 11346 11347 11348 11349 11350 11351 11352 21 20 0
h 85 11353 0
h -11344 11353 0
h -11345 11353 0
h -11346 11353 0
h -11347 11353 0
h -11348 11353 0
h -11349 11353 0
h -11350 11353 0
h -11351 11353 0
h -11352 11353 0
h -21 11353 0
h -20 11353 0
h 11354 -86 28 0
h 86 -11354 0
h -28 -11354 0
h 11355 -85 27 0
h 85 -11355 0
h -27 -11355 0
h 11356 -84 26 0
h 84 -11356 0
h -26 -11356 0
h 11357 -83 25 0
h 83 -11357 0
h -25 -11357 0
h 11358 -82 24 0
h 82 -11358 0
h -24 -11358 0
h 11359 -81 23 0
h 81 -11359 0
h -23 -11359 0
h 11360 -80 22 0
h 80 -11360 0
h -22 -11360 0
h 11361 -79 21 0
h 79 -11361 0
h -21 -11361 0
h 11362 -78 20 0
h 78 -11362 0
h -20 -11362 0
h -11363 -29 11354 11355 11356 11357 11358 11359 11360 11361 11362 77 76 0
h 29 11363 0
h -11354 11363 0
h -11355 11363 0
h -11356 11363 0
h -11357 11363 0
h -11358 11363 0
h -11359 11363 0
h -11360 11363 0
h -11361 11363 0
h -11362 11363 0
h -77 11363 0
h -76 11363 0
h -11364 -185 162 0
h 185 11364 0
h -162 11364 0
h -11365 -162 185 0
h 162 11365 0
h -185 11365 0
h -11366 -186 163 0
h 186 11366 0
h -163 11366 0
h -11367 -163 186 0
h 163 11367 0
h -186 11367 0
h -11368 -187 164 0
h 187 11368 0
h -164 11368 0
h -11369 -164 187 0
h 164 11369 0
h -187 11369 0
h -11370 -188 165 0
h 188 11370 0
h -165 11370 0
h -11371 -165 188 0
h 165 11371 0
h -188 11371 0
h 11372 -11353 -11363 -11364 -11365 -11366 -11367 -11368 -11369 -11370 -11371 0
h 11353 -11372 0
h 11363 -11372 0
h 11364 -11372 0
h 11365 -11372 0
h 11366 -11372 0
h 11367 -11372 0
h 11368 -11372 0
h 11369 -11372 0
h 11370 -11372 0
h 11371 -11372 0
h 11373 -15 84 0
h 15 -11373 0
h -84 -11373 0
h 11374 -14 83 0
h 14 -11374 0
h -83 -11374 0
h 11375 -13 82 0
h 13 -11375 0
h -82 -11375 0
h 11376 -12 81 0
h 12 -11376 0
h -81 -11376 0
h 11377 -11 80 0
h 11 -11377 0
h -80 -11377 0
h 11378 -10 79 0
h 10 -11378 0
h -79 -11378 0
h 11379 -9 78 0
h 9 -11379 0
h -78 -11379 0
h 11380 -8 77 0
h 8 -11380 0
h -77 -11380 0
h 11381 -7 76 0
h 7 -11381 0
h -76 -11381 0
h -11382 -85 11373 11374 11375 11376 11377 11378 11379 11380 11381 6 5 0
h 85 11382 0
h -11373 11382 0
h -11374 11382 0
h -11375 11382 0
h -11376 11382 0
h -11377 11382 0
h -11378 11382 0
h -11379 11382 0
h -11380 11382 0
h -11381 11382 0
h -6 11382 0
h -5 11382 0
h 11383 -86 13 0
h 86 -11383 0
h -13 -11383 0
h 11384 -85 12 0
h 85 -11384 0
h -12 -11384 0
h 11385 -84 11 0
h 84 -11385 0
h -11 -11385 0
h 11386 -83 10 0
h 83 -11386 0
h -10 -11386 0
h 11387 -82 9 0
h 82 -11387 0
h -9 -11387 0
h 11388 -81 8 0
h 81 -11388 0
h -8 -11388 0
h 11389 -80 7 0
h 80 -11389 0
h -7 -11389 0
h 11390 -79 6 0
h 79 -11390 0
h -6 -11390 0
h 11391 -78 5 0
h 78 -11391 0
h -5 -11391 0
h -11392 -14 11383 11384 11385 11386 11387 11388 11389 11390 11391 77 76 0
h 14 11392 0
h -11383 11392 0
h -11384 11392 0
h -11385 11392 0
h -11386 11392 0
h -11387 11392 0
h -11388 11392 0
h -11389 11392 0
h -11390 11392 0
h -11391 11392 0
h -77 11392 0
h -76 11392 0
h -11393 -185 158 0
h 185 11393 0
h -158 11393 0
h -11394 -158 185 0
h 158 11394 0
h -185 11394 0
h -11395 -186 159 0
h 186 11395 0
h -159 11395 0
h -11396 -159 186 0
h 159 11396 0
h -186 11396 0
h -11397 -187 160 0
h 187 11397 0
h -160 11397 0
h -11398 -160 187 0
h 160 11398 0
h -187 11398 0
h -11399 -188 161 0
h 188 11399 0
h -161 11399 0
h -11400 -161 188 0
h 161 11400 0
h -188 11400 0
h 11401 -11382 -11392 -11393 -11394 -11395 -11396 -11397 -11398 -11399 -11400 0
h 11382 -11401 0
h 11392 -11401 0
h 11393 -11401 0
h 11394 -11401 0
h 11395 -11401 0
h 11396 -11401 0
h 11397 -11401 0
h 11398 -11401 0
h 11399 -11401 0
h 11400 -11401 0
h 11402 -30 73 0
h 30 -11402 0
h -73 -11402 0
h 11403 -29 72 0
h 29 -11403 0
h -72 -11403 0
h 11404 -28 71 0
h 28 -11404 0
h -71 -11404 0
h 11405 -27 70 0
h 27 -11405 0
h -70 -11405 0
h 11406 -26 69 0
h 26 -11406 0
h -69 -11406 0
h 11407 -25 68 0
h 25 -11407 0
h -68 -11407 0
h 11408 -24 67 0
h 24 -11408 0
h -67 -11408 0
h 11409 -23 66 0
h 23 -11409 0
h -66 -11409 0
h 11410 -22 65 0
h 22 -11410 0
h -65 -11410 0
h -11411 -74 11402 11403 11404 11405 11406 11407 11408 11409 11410 21 20 0
h 74 11411 0
h -11402 11411 0
h -11403 11411 0
h -11404 11411 0
h -11405 11411 0
h -11406 11411 0
h -11407 11411 0
h -11408 11411 0
h -11409 11411 0
h -11410 11411 0
h -21 11411 0
h -20 11411 0
h 11412 -75 28 0
h 75 -11412 0
h -28 -11412 0
h 11413 -74 27 0
h 74 -11413 0
h -27 -11413 0
h 11414 -73 26 0
h 73 -11414 0
h -26 -11414 0
h 11415 -72 25 0
h 72 -11415 0
h -25 -11415 0
h 11416 -71 24 0
h 71 -11416 0
h -24 -11416 0
h 11417 -70 23 0
h 70 -11417 0
h -23 -11417 0
h 11418 -69 22 0
h 69 -11418 0
h -22 -11418 0
h 11419 -68 21 0
h 68 -11419 0
h -21 -11419 0
h 11420 -67 20 0
h 67 -11420 0
h -20 -11420 0
h -11421 -29 11412 11413 11414 11415 11416 11417 11418 11419 11420 66 65 0
h 29 11421 0
h -11412 11421 0
h -11413 11421 0
h -11414 11421 0
h -11415 11421 0
h -11416 11421 0
h -11417 11421 0
h -11418 11421 0
h -11419 11421 0
h -11420 11421 0
h -66 11421 0
h -65 11421 0
h -11422 -177 162 0
h 177 11422 0
h -162 11422 0
h -11423 -162 177 0
h 162 11423 0
h -177 11423 0
h -11424 -178 163 0
h 178 11424 0
h -163 11424 0
h -11425 -163 178 0
h 163 11425 0
h -178 11425 0
h -11426 -179 164 0
h 179 11426 0
h -164 11426 0
h -11427 -164 179 0
h 164 11427 0
h -179 11427 0
h -11428 -180 165 0
h 180 11428 0
h -165 11428 0
h -11429 -165 180 0
h 165 11429 0
h -180 11429 0
h 11430 -11411 -11421 -11422 -11423 -11424 -11425 -11426 -11427 -11428 -11429 0
h 11411 -11430 0
h 11421 -11430 0
h 11422 -11430 0
h 11423 -11430 0
h 11424 -11430 0
h 11425 -11430 0
h 11426 -11430 0
h 11427 -11430 0
h 11428 -11430 0
h 11429 -11430 0
h 11431 -15 73 0
h 15 -11431 0
h -73 -11431 0
h 11432 -14 72 0
h 14 -11432 0
h -72 -11432 0
h 11433 -13 71 0
h 13 -11433 0
h -71 -11433 0
h 11434 -12 70 0
h 12 -11434 0
h -70 -11434 0
h 11435 -11 69 0
h 11 -11435 0
h -69 -11435 0
h 11436 -10 68 0
h 10 -11436 0
h -68 -11436 0
h 11437 -9 67 0
h 9 -11437 0
h -67 -11437 0
h 11438 -8 66 0
h 8 -11438 0
h -66 -11438 0
h 11439 -7 65 0
h 7 -11439 0
h -65 -11439 0
h -11440 -74 11431 11432 11433 11434 11435 11436 11437 11438 11439 6 5 0
h 74 11440 0
h -11431 11440 0
h -11432 11440 0
h -11433 11440 0
h -11434 11440 0
h -11435 11440 0
h -11436 11440 0
h -11437 11440 0
h -11438 11440 0
h -11439 11440 0
h -6 11440 0
h -5 11440 0
h 11441 -75 13 0
h 75 -11441 0
h -13 -11441 0
h 11442 -74 12 0
h 74 -11442 0
h -12 -11442 0
h 11443 -73 11 0
h 73 -11443 0
h -11 -11443 0
h 11444 -72 10 0
h 72 -11444 0
h -10 -11444 0
h 11445 -71 9 0
h 71 -11445 0
h -9 -11445 0
h 11446 -70 8 0
h 70 -11446 0
h -8 -11446 0
h 11447 -69 7 0
h 69 -11447 0
h -7 -11447 0
h 11448 -68 6 0
h 68 -11448 0
h -6 -11448 0
h 11449 -67 5 0
h 67 -11449 0
h -5 -11449 0
h -11450 -14 11441 11442 11443 11444 11445 11446 11447 11448 11449 66 65 0
h 14 11450 0
h -11441 11450 0
h -11442 11450 0
h -11443 11450 0
h -11444 11450 0
h -11445 11450 0
h -11446 11450 0
h -11447 11450 0
h -11448 11450 0
h -11449 11450 0
h -66 11450 0
h -65 11450 0
h -11451 -177 158 0
h 177 11451 0
h -158 11451 0
h -11452 -158 177 0
h 158 11452 0
h -177 11452 0
h -11453 -178 159 0
h 178 11453 0
h -159 11453 0
h -11454 -159 178 0
h 159 11454 0
h -178 11454 0
h -11455 -179 160 0
h 179 11455 0
h -160 11455 0
h -11456 -160 179 0
h 160 11456 0
h -179 11456 0
h -11457 -180 161 0
h 180 11457 0
h -161 11457 0
h -11458 -161 180 0
h 161 11458 0
h -180 11458 0
h 11459 -11440 -11450 -11451 -11452 -11453 -11454 -11455 -11456 -11457 -11458 0
h 11440 -11459 0
h 11450 -11459 0
h 11451 -11459 0
h 11452 -11459 0
h 11453 -11459 0
h 11454 -11459 0
h 11455 -11459 0
h 11456 -11459 0
h 11457 -11459 0
h 11458 -11459 0
h -11460 -56 249 0
h 56 11460 0
h -249 11460 0
h -11461 -55 248 0
h 55 11461 0
h -248 11461 0
h -11462 -54 247 0
h 54 11462 0
h -247 11462 0
h -11463 -53 246 0
h 53 11463 0
h -246 11463 0
h -11464 -52 245 0
h 52 11464 0
h -245 11464 0
h -11465 -51 244 0
h 51 11465 0
h -244 11465 0
h -11466 -50 243 0
h 50 11466 0
h -243 11466 0
h -11467 -49 242 0
h 49 11467 0
h -242 11467 0
h 11468 -250 -11460 -11461 -11462 -11463 -11464 -11465 -11466 -11467 48 47 46 0
h 250 -11468 0
h 11460 -11468 0
h 11461 -11468 0
h 11462 -11468 0
h 11463 -11468 0
h 11464 -11468 0
h 11465 -11468 0
h 11466 -11468 0
h 11467 -11468 0
h -48 -11468 0
h -47 -11468 0
h -46 -11468 0
h -11469 -252 53 0
h 252 11469 0
h -53 11469 0
h -11470 -251 52 0
h 251 11470 0
h -52 11470 0
h -11471 -250 51 0
h 250 11471 0
h -51 11471 0
h -11472 -249 50 0
h 249 11472 0
h -50 11472 0
h -11473 -248 49 0
h 248 11473 0
h -49 11473 0
h -11474 -247 48 0
h 247 11474 0
h -48 11474 0
h -11475 -246 47 0
h 246 11475 0
h -47 11475 0
h -11476 -245 46 0
h 245 11476 0
h -46 11476 0
h 11477 -54 -11469 -11470 -11471 -11472 -11473 -11474 -11475 -11476 244 243 242 0
h 54 -11477 0
h 11469 -11477 0
h 11470 -11477 0
h 11471 -11477 0
h 11472 -11477 0
h 11473 -11477 0
h 11474 -11477 0
h 11475 -11477 0
h 11476 -11477 0
h -244 -11477 0
h -243 -11477 0
h -242 -11477 0
h 11478 -1 189 0
h 1 -11478 0
h -189 -11478 0
h 11479 -189 1 0
h 189 -11479 0
h -1 -11479 0
h 11480 -2 190 0
h 2 -11480 0
h -190 -11480 0
h 11481 -190 2 0
h 190 -11481 0
h -2 -11481 0
h 11482 -3 191 0
h 3 -11482 0
h -191 -11482 0
h 11483 -191 3 0
h 191 -11483 0
h -3 -11483 0
h 11484 -4 192 0
h 4 -11484 0
h -192 -11484 0
h 11485 -192 4 0
h 192 -11485 0
h -4 -11485 0
h -11486 -56 234 0
h 56 11486 0
h -234 11486 0
h -11487 -55 233 0
h 55 11487 0
h -233 11487 0
h -11488 -54 232 0
h 54 11488 0
h -232 11488 0
h -11489 -53 231 0
h 53 11489 0
h -231 11489 0
h -11490 -52 230 0
h 52 11490 0
h -230 11490 0
h -11491 -51 229 0
h 51 11491 0
h -229 11491 0
h -11492 -50 228 0
h 50 11492 0
h -228 11492 0
h -11493 -49 227 0
h 49 11493 0
h -227 11493 0
h 11494 -235 -11486 -11487 -11488 -11489 -11490 -11491 -11492 -11493 48 47 46 0
h 235 -11494 0
h 11486 -11494 0
h 11487 -11494 0
h 11488 -11494 0
h 11489 -11494 0
h 11490 -11494 0
h 11491 -11494 0
h 11492 -11494 0
h 11493 -11494 0
h -48 -11494 0
h -47 -11494 0
h -46 -11494 0
h -11495 -237 53 0
h 237 11495 0
h -53 11495 0
h -11496 -236 52 0
h 236 11496 0
h -52 11496 0
h -11497 -235 51 0
h 235 11497 0
h -51 11497 0
h -11498 -234 50 0
h 234 11498 0
h -50 11498 0
h -11499 -233 49 0
h 233 11499 0
h -49 11499 0
h -11500 -232 48 0
h 232 11500 0
h -48 11500 0
h -11501 -231 47 0
h 231 11501 0
h -47 11501 0
h -11502 -230 46 0
h 230 11502 0
h -46 11502 0
h 11503 -54 -11495 -11496 -11497 -11498 -11499 -11500 -11501 -11502 229 228 227 0
h 54 -11503 0
h 11495 -11503 0
h 11496 -11503 0
h 11497 -11503 0
h 11498 -11503 0
h 11499 -11503 0
h 11500 -11503 0
h 11501 -11503 0
h 11502 -11503 0
h -229 -11503 0
h -228 -11503 0
h -227 -11503 0
h 11504 -357 189 0
h 357 -11504 0
h -189 -11504 0
h 11505 -189 357 0
h 189 -11505 0
h -357 -11505 0
h 11506 -358 190 0
h 358 -11506 0
h -190 -11506 0
h 11507 -190 358 0
h 190 -11507 0
h -358 -11507 0
h 11508 -359 191 0
h 359 -11508 0
h -191 -11508 0
h 11509 -191 359 0
h 191 -11509 0
h -359 -11509 0
h 11510 -360 192 0
h 360 -11510 0
h -192 -11510 0
h 11511 -192 360 0
h 192 -11511 0
h -360 -11511 0
h -11512 -41 249 0
h 41 11512 0
h -249 11512 0
h -11513 -40 248 0
h 40 11513 0
h -248 11513 0
h -11514 -39 247 0
h 39 11514 0
h -247 11514 0
h -11515 -38 246 0
h 38 11515 0
h -246 11515 0
h -11516 -37 245 0
h 37 11516 0
h -245 11516 0
h -11517 -36 244 0
h 36 11517 0
h -244 11517 0
h -11518 -35 243 0
h 35 11518 0
h -243 11518 0
h -11519 -34 242 0
h 34 11519 0
h -242 11519 0
h 11520 -250 -11512 -11513 -11514 -11515 -11516 -11517 -11518 -11519 33 32 31 0
h 250 -11520 0
h 11512 -11520 0
h 11513 -11520 0
h 11514 -11520 0
h 11515 -11520 0
h 11516 -11520 0
h 11517 -11520 0
h 11518 -11520 0
h 11519 -11520 0
h -33 -11520 0
h -32 -11520 0
h -31 -11520 0
h -11521 -252 40 0
h 252 11521 0
h -40 11521 0
h -11522 -251 39 0
h 251 11522 0
h -39 11522 0
h -11523 -250 38 0
h 250 11523 0
h -38 11523 0
h -11524 -249 37 0
h 249 11524 0
h -37 11524 0
h -11525 -248 36 0
h 248 11525 0
h -36 11525 0
h -11526 -247 35 0
h 247 11526 0
h -35 11526 0
h -11527 -246 34 0
h 246 11527 0
h -34 11527 0
h -11528 -245 33 0
h 245 11528 0
h -33 11528 0
h -11529 -244 32 0
h 244 11529 0
h -32 11529 0
h -11530 -243 31 0
h 243 11530 0
h -31 11530 0
h 11531 -41 -11521 -11522 -11523 -11524 -11525 -11526 -11527 -11528 -11529 -11530 242 0
h 41 -11531 0
h 11521 -11531 0
h 11522 -11531 0
h 11523 -11531 0
h 11524 -11531 0
h 11525 -11531 0
h 11526 -11531 0
h 11527 -11531 0
h 11528 -11531 0
h 11529 -11531 0
h 11530 -11531 0
h -242 -11531 0
h 11532 -1 181 0
h 1 -11532 0
h -181 -11532 0
h 11533 -181 1 0
h 181 -11533 0
h -1 -11533 0
h 11534 -2 182 0
h 2 -11534 0
h -182 -11534 0
h 11535 -182 2 0
h 182 -11535 0
h -2 -11535 0
h 11536 -3 183 0
h 3 -11536 0
h -183 -11536 0
h 11537 -183 3 0
h 183 -11537 0
h -3 -11537 0
h 11538 -4 184 0
h 4 -11538 0
h -184 -11538 0
h 11539 -184 4 0
h 184 -11539 0
h -4 -11539 0
h -11540 -41 234 0
h 41 11540 0
h -234 11540 0
h -11541 -40 233 0
h 40 11541 0
h -233 11541 0
h -11542 -39 232 0
h 39 11542 0
h -232 11542 0
h -11543 -38 231 0
h 38 11543 0
h -231 11543 0
h -11544 -37 230 0
h 37 11544 0
h -230 11544 0
h -11545 -36 229 0
h 36 11545 0
h -229 11545 0
h -11546 -35 228 0
h 35 11546 0
h -228 11546 0
h -11547 -34 227 0
h 34 11547 0
h -227 11547 0
h 11548 -235 -11540 -11541 -11542 -11543 -11544 -11545 -11546 -11547 33 32 31 0
h 235 -11548 0
h 11540 -11548 0
h 11541 -11548 0
h 11542 -11548 0
h 11543 -11548 0
h 11544 -11548 0
h 11545 -11548 0
h 11546 -11548 0
h 11547 -11548 0
h -33 -11548 0
h -32 -11548 0
h -31 -11548 0
h -11549 -237 40 0
h 237 11549 0
h -40 11549 0
h -11550 -236 39 0
h 236 11550 0
h -39 11550 0
h -11551 -235 38 0
h 235 11551 0
h -38 11551 0
h -11552 -234 37 0
h 234 11552 0
h -37 11552 0
h -11553 -233 36 0
h 233 11553 0
h -36 11553 0
h -11554 -232 35 0
h 232 11554 0
h -35 11554 0
h -11555 -231 34 0
h 231 11555 0
h -34 11555 0
h -11556 -230 33 0
h 230 11556 0
h -33 11556 0
h -11557 -229 32 0
h 229 11557 0
h -32 11557 0
h -11558 -228 31 0
h 228 11558 0
h -31 11558 0
h 11559 -41 -11549 -11550 -11551 -11552 -11553 -11554 -11555 -11556 -11557 -11558 227 0
h 41 -11559 0
h 11549 -11559 0
h 11550 -11559 0
h 11551 -11559 0
h 11552 -11559 0
h 11553 -11559 0
h 11554 -11559 0
h 11555 -11559 0
h 11556 -11559 0
h 11557 -11559 0
h 11558 -11559 0
h -227 -11559 0
h 11560 -357 181 0
h 357 -11560 0
h -181 -11560 0
h 11561 -181 357 0
h 181 -11561 0
h -357 -11561 0
h 11562 -358 182 0
h 358 -11562 0
h -182 -11562 0
h 11563 -182 358 0
h 182 -11563 0
h -358 -11563 0
h 11564 -359 183 0
h 359 -11564 0
h -183 -11564 0
h 11565 -183 359 0
h 183 -11565 0
h -359 -11565 0
h 11566 -360 184 0
h 360 -11566 0
h -184 -11566 0
h 11567 -184 360 0
h 184 -11567 0
h -360 -11567 0
h -11568 -56 128 0
h 56 11568 0
h -128 11568 0
h -11569 -55 127 0
h 55 11569 0
h -127 11569 0
h -11570 -54 126 0
h 54 11570 0
h -126 11570 0
h -11571 -53 125 0
h 53 11571 0
h -125 11571 0
h -11572 -52 124 0
h 52 11572 0
h -124 11572 0
h -11573 -51 123 0
h 51 11573 0
h -123 11573 0
h -11574 -50 122 0
h 50 11574 0
h -122 11574 0
h -11575 -49 121 0
h 49 11575 0
h -121 11575 0
h -11576 -48 120 0
h 48 11576 0
h -120 11576 0
h 11577 -129 -11568 -11569 -11570 -11571 -11572 -11573 -11574 -11575 -11576 47 46 0
h 129 -11577 0
h 11568 -11577 0
h 11569 -11577 0
h 11570 -11577 0
h 11571 -11577 0
h 11572 -11577 0
h 11573 -11577 0
h 11574 -11577 0
h 11575 -11577 0
h 11576 -11577 0
h -47 -11577 0
h -46 -11577 0
h -11578 -130 53 0
h 130 11578 0
h -53 11578 0
h -11579 -129 52 0
h 129 11579 0
h -52 11579 0
h -11580 -128 51 0
h 128 11580 0
h -51 11580 0
h -11581 -127 50 0
h 127 11581 0
h -50 11581 0
h -11582 -126 49 0
h 126 11582 0
h -49 11582 0
h -11583 -125 48 0
h 125 11583 0
h -48 11583 0
h -11584 -124 47 0
h 124 11584 0
h -47 11584 0
h -11585 -123 46 0
h 123 11585 0
h -46 11585 0
h 11586 -54 -11578 -11579 -11580 -11581 -11582 -11583 -11584 -11585 122 121 120 0
h 54 -11586 0
h 11578 -11586 0
h 11579 -11586 0
h 11580 -11586 0
h 11581 -11586 0
h 11582 -11586 0
h 11583 -11586 0
h 11584 -11586 0
h 11585 -11586 0
h -122 -11586 0
h -121 -11586 0
h -120 -11586 0
h 11587 -219 189 0
h 219 -11587 0
h -189 -11587 0
h 11588 -189 219 0
h 189 -11588 0
h -219 -11588 0
h 11589 -220 190 0
h 220 -11589 0
h -190 -11589 0
h 11590 -190 220 0
h 190 -11590 0
h -220 -11590 0
h 11591 -221 191 0
h 221 -11591 0
h -191 -11591 0
h 11592 -191 221 0
h 191 -11592 0
h -221 -11592 0
h 11593 -222 192 0
h 222 -11593 0
h -192 -11593 0
h 11594 -192 222 0
h 192 -11594 0
h -222 -11594 0
h -11595 -56 106 0
h 56 11595 0
h -106 11595 0
h -11596 -55 105 0
h 55 11596 0
h -105 11596 0
h -11597 -54 104 0
h 54 11597 0
h -104 11597 0
h -11598 -53 103 0
h 53 11598 0
h -103 11598 0
h -11599 -52 102 0
h 52 11599 0
h -102 11599 0
h -11600 -51 101 0
h 51 11600 0
h -101 11600 0
h -11601 -50 100 0
h 50 11601 0
h -100 11601 0
h -11602 -49 99 0
h 49 11602 0
h -99 11602 0
h -11603 -48 98 0
h 48 11603 0
h -98 11603 0
h 11604 -107 -11595 -11596 -11597 -11598 -11599 -11600 -11601 -11602 -11603 47 46 0
h 107 -11604 0
h 11595 -11604 0
h 11596 -11604 0
h 11597 -11604 0
h 11598 -11604 0
h 11599 -11604 0
h 11600 -11604 0
h 11601 -11604 0
h 11602 -11604 0
h 11603 -11604 0
h -47 -11604 0
h -46 -11604 0
h -11605 -108 53 0
h 108 11605 0
h -53 11605 0
h -11606 -107 52 0
h 107 11606 0
h -52 11606 0
h -11607 -106 51 0
h 106 11607 0
h -51 11607 0
h -11608 -105 50 0
h 105 11608 0
h -50 11608 0
h -11609 -104 49 0
h 104 11609 0
h -49 11609 0
h -11610 -103 48 0
h 103 11610 0
h -48 11610 0
h -11611 -102 47 0
h 102 11611 0
h -47 11611 0
h -11612 -101 46 0
h 101 11612 0
h -46 11612 0
h 11613 -54 -11605 -11606 -11607 -11608 -11609 -11610 -11611 -11612 100 99 98 0
h 54 -11613 0
h 11605 -11613 0
h 11606 -11613 0
h 11607 -11613 0
h 11608 -11613 0
h 11609 -11613 0
h 11610 -11613 0
h 11611 -11613 0
h 11612 -11613 0
h -100 -11613 0
h -99 -11613 0
h -98 -11613 0
h 11614 -204 189 0
h 204 -11614 0
h -189 -11614 0
h 11615 -189 204 0
h 189 -11615 0
h -204 -11615 0
h 11616 -205 190 0
h 205 -11616 0
h -190 -11616 0
h 11617 -190 205 0
h 190 -11617 0
h -205 -11617 0
h 11618 -206 191 0
h 206 -11618 0
h -191 -11618 0
h 11619 -191 206 0
h 191 -11619 0
h -206 -11619 0
h 11620 -207 192 0
h 207 -11620 0
h -192 -11620 0
h 11621 -192 207 0
h 192 -11621 0
h -207 -11621 0
h -11622 -41 128 0
h 41 11622 0
h -128 11622 0
h -11623 -40 127 0
h 40 11623 0
h -127 11623 0
h -11624 -39 126 0
h 39 11624 0
h -126 11624 0
h -11625 -38 125 0
h 38 11625 0
h -125 11625 0
h -11626 -37 124 0
h 37 11626 0
h -124 11626 0
h -11627 -36 123 0
h 36 11627 0
h -123 11627 0
h -11628 -35 122 0
h 35 11628 0
h -122 11628 0
h -11629 -34 121 0
h 34 11629 0
h -121 11629 0
h -11630 -33 120 0
h 33 11630 0
h -120 11630 0
h 11631 -129 -11622 -11623 -11624 -11625 -11626 -11627 -11628 -11629 -11630 32 31 0
h 129 -11631 0
h 11622 -11631 0
h 11623 -11631 0
h 11624 -11631 0
h 11625 -11631 0
h 11626 -11631 0
h 11627 -11631 0
h 11628 -11631 0
h 11629 -11631 0
h 11630 -11631 0
h -32 -11631 0
h -31 -11631 0
h -11632 -130 40 0
h 130 11632 0
h -40 11632 0
h -11633 -129 39 0
h 129 11633 0
h -39 11633 0
h -11634 -128 38 0
h 128 11634 0
h -38 11634 0
h -11635 -127 37 0
h 127 11635 0
h -37 11635 0
h -11636 -126 36 0
h 126 11636 0
h -36 11636 0
h -11637 -125 35 0
h 125 11637 0
h -35 11637 0
h -11638 -124 34 0
h 124 11638 0
h -34 11638 0
h -11639 -123 33 0
h 123 11639 0
h -33 11639 0
h -11640 -122 32 0
h 122 11640 0
h -32 11640 0
h -11641 -121 31 0
h 121 11641 0
h -31 11641 0
h 11642 -41 -11632 -11633 -11634 -11635 -11636 -11637 -11638 -11639 -11640 -11641 120 0
h 41 -11642 0
h 11632 -11642 0
h 11633 -11642 0
h 11634 -11642 0
h 11635 -11642 0
h 11636 -11642 0
h 11637 -11642 0
h 11638 -11642 0
h 11639 -11642 0
h 11640 -11642 0
h 11641 -11642 0
h -120 -11642 0
h 11643 -219 181 0
h 219 -11643 0
h -181 -11643 0
h 11644 -181 219 0
h 181 -11644 0
h -219 -11644 0
h 11645 -220 182 0
h 220 -11645 0
h -182 -11645 0
h 11646 -182 220 0
h 182 -11646 0
h -220 -11646 0
h 11647 -221 183 0
h 221 -11647 0
h -183 -11647 0
h 11648 -183 221 0
h 183 -11648 0
h -221 -11648 0
h 11649 -222 184 0
h 222 -11649 0
h -184 -11649 0
h 11650 -184 222 0
h 184 -11650 0
h -222 -11650 0
h -11651 -41 106 0
h 41 11651 0
h -106 11651 0
h -11652 -40 105 0
h 40 11652 0
h -105 11652 0
h -11653 -39 104 0
h 39 11653 0
h -104 11653 0
h -11654 -38 103 0
h 38 11654 0
h -103 11654 0
h -11655 -37 102 0
h 37 11655 0
h -102 11655 0
h -11656 -36 101 0
h 36 11656 0
h -101 11656 0
h -11657 -35 100 0
h 35 11657 0
h -100 11657 0
h -11658 -34 99 0
h 34 11658 0
h -99 11658 0
h -11659 -33 98 0
h 33 11659 0
h -98 11659 0
h 11660 -107 -11651 -11652 -11653 -11654 -11655 -11656 -11657 -11658 -11659 32 31 0
h 107 -11660 0
h 11651 -11660 0
h 11652 -11660 0
h 11653 -11660 0
h 11654 -11660 0
h 11655 -11660 0
h 11656 -11660 0
h 11657 -11660 0
h 11658 -11660 0
h 11659 -11660 0
h -32 -11660 0
h -31 -11660 0
h -11661 -108 40 0
h 108 11661 0
h -40 11661 0
h -11662 -107 39 0
h 107 11662 0
h -39 11662 0
h -11663 -106 38 0
h 106 11663 0
h -38 11663 0
h -11664 -105 37 0
h 105 11664 0
h -37 11664 0
h -11665 -104 36 0
h 104 11665 0
h -36 11665 0
h -11666 -103 35 0
h 103 11666 0
h -35 11666 0
h -11667 -102 34 0
h 102 11667 0
h -34 11667 0
h -11668 -101 33 0
h 101 11668 0
h -33 11668 0
h -11669 -100 32 0
h 100 11669 0
h -32 11669 0
h -11670 -99 31 0
h 99 11670 0
h -31 11670 0
h 11671 -41 -11661 -11662 -11663 -11664 -11665 -11666 -11667 -11668 -11669 -11670 98 0
h 41 -11671 0
h 11661 -11671 0
h 11662 -11671 0
h 11663 -11671 0
h 11664 -11671 0
h 11665 -11671 0
h 11666 -11671 0
h 11667 -11671 0
h 11668 -11671 0
h 11669 -11671 0
h 11670 -11671 0
h -98 -11671 0
h 11672 -204 181 0
h 204 -11672 0
h -181 -11672 0
h 11673 -181 204 0
h 181 -11673 0
h -204 -11673 0
h 11674 -205 182 0
h 205 -11674 0
h -182 -11674 0
h 11675 -182 205 0
h 182 -11675 0
h -205 -11675 0
h 11676 -206 183 0
h 206 -11676 0
h -183 -11676 0
h 11677 -183 206 0
h 183 -11677 0
h -206 -11677 0
h 11678 -207 184 0
h 207 -11678 0
h -184 -11678 0
h 11679 -184 207 0
h 184 -11679 0
h -207 -11679 0
h -11680 -30 249 0
h 30 11680 0
h -249 11680 0
h -11681 -29 248 0
h 29 11681 0
h -248 11681 0
h -11682 -28 247 0
h 28 11682 0
h -247 11682 0
h -11683 -27 246 0
h 27 11683 0
h -246 11683 0
h -11684 -26 245 0
h 26 11684 0
h -245 11684 0
h -11685 -25 244 0
h 25 11685 0
h -244 11685 0
h -11686 -24 243 0
h 24 11686 0
h -243 11686 0
h -11687 -23 242 0
h 23 11687 0
h -242 11687 0
h 11688 -250 -11680 -11681 -11682 -11683 -11684 -11685 -11686 -11687 22 21 20 0
h 250 -11688 0
h 11680 -11688 0
h 11681 -11688 0
h 11682 -11688 0
h 11683 -11688 0
h 11684 -11688 0
h 11685 -11688 0
h 11686 -11688 0
h 11687 -11688 0
h -22 -11688 0
h -21 -11688 0
h -20 -11688 0
h -11689 -252 28 0
h 252 11689 0
h -28 11689 0
h -11690 -251 27 0
h 251 11690 0
h -27 11690 0
h -11691 -250 26 0
h 250 11691 0
h -26 11691 0
h -11692 -249 25 0
h 249 11692 0
h -25 11692 0
h -11693 -248 24 0
h 248 11693 0
h -24 11693 0
h -11694 -247 23 0
h 247 11694 0
h -23 11694 0
h -11695 -246 22 0
h 246 11695 0
h -22 11695 0
h -11696 -245 21 0
h 245 11696 0
h -21 11696 0
h -11697 -244 20 0
h 244 11697 0
h -20 11697 0
h 11698 -29 -11689 -11690 -11691 -11692 -11693 -11694 -11695 -11696 -11697 243 242 0
h 29 -11698 0
h 11689 -11698 0
h 11690 -11698 0
h 11691 -11698 0
h 11692 -11698 0
h 11693 -11698 0
h 11694 -11698 0
h 11695 -11698 0
h 11696 -11698 0
h 11697 -11698 0
h -243 -11698 0
h -242 -11698 0
h 11699 -1 162 0
h 1 -11699 0
h -162 -11699 0
h 11700 -162 1 0
h 162 -11700 0
h -1 -11700 0
h 11701 -2 163 0
h 2 -11701 0
h -163 -11701 0
h 11702 -163 2 0
h 163 -11702 0
h -2 -11702 0
h 11703 -3 164 0
h 3 -11703 0
h -164 -11703 0
h 11704 -164 3 0
h 164 -11704 0
h -3 -11704 0
h 11705 -4 165 0
h 4 -11705 0
h -165 -11705 0
h 11706 -165 4 0
h 165 -11706 0
h -4 -11706 0
h -11707 11688 11698 11699 11700 11701 11702 11703 11704 11705 11706 0
h -11688 11707 0
h -11698 11707 0
h -11699 11707 0
h -11700 11707 0
h -11701 11707 0
h -11702 11707 0
h -11703 11707 0
h -11704 11707 0
h -11705 11707 0
h -11706 11707 0
h -11708 -15 249 0
h 15 11708 0
h -249 11708 0
h -11709 -14 248 0
h 14 11709 0
h -248 11709 0
h -11710 -13 247 0
h 13 11710 0
h -247 11710 0
h -11711 -12 246 0
h 12 11711 0
h -246 11711 0
h -11712 -11 245 0
h 11 11712 0
h -245 11712 0
h -11713 -10 244 0
h 10 11713 0
h -244 11713 0
h -11714 -9 243 0
h 9 11714 0
h -243 11714 0
h -11715 -8 242 0
h 8 11715 0
h -242 11715 0
h 11716 -250 -11708 -11709 -11710 -11711 -11712 -11713 -11714 -11715 7 6 5 0
h 250 -11716 0
h 11708 -11716 0
h 11709 -11716 0
h 11710 -11716 0
h 11711 -11716 0
h 11712 -11716 0
h 11713 -11716 0
h 11714 -11716 0
h 11715 -11716 0
h -7 -11716 0
h -6 -11716 0
h -5 -11716 0
h -11717 -252 13 0
h 252 11717 0
h -13 11717 0
h -11718 -251 12 0
h 251 11718 0
h -12 11718 0
h -11719 -250 11 0
h 250 11719 0
h -11 11719 0
h -11720 -249 10 0
h 249 11720 0
h -10 11720 0
h -11721 -248 9 0
h 248 11721 0
h -9 11721 0
h -11722 -247 8 0
h 247 11722 0
h -8 11722 0
h -11723 -246 7 0
h 246 11723 0
h -7 11723 0
h -11724 -245 6 0
h 245 11724 0
h -6 11724 0
h -11725 -244 5 0
h 244 11725 0
h -5 11725 0
h 11726 -14 -11717 -11718 -11719 -11720 -11721 -11722 -11723 -11724 -11725 243 242 0
h 14 -11726 0
h 11717 -11726 0
h 11718 -11726 0
h 11719 -11726 0
h 11720 -11726 0
h 11721 -11726 0
h 11722 -11726 0
h 11723 -11726 0
h 11724 -11726 0
h 11725 -11726 0
h -243 -11726 0
h -242 -11726 0
h 11727 -1 158 0
h 1 -11727 0
h -158 -11727 0
h 11728 -158 1 0
h 158 -11728 0
h -1 -11728 0
h 11729 -2 159 0
h 2 -11729 0
h -159 -11729 0
h 11730 -159 2 0
h 159 -11730 0
h -2 -11730 0
h 11731 -3 160 0
h 3 -11731 0
h -160 -11731 0
h 11732 -160 3 0
h 160 -11732 0
h -3 -11732 0
h 11733 -4 161 0
h 4 -11733 0
h -161 -11733 0
h 11734 -161 4 0
h 161 -11734 0
h -4 -11734 0
h -11735 11716 11726 11727 11728 11729 11730 11731 11732 11733 11734 0
h -11716 11735 0
h -11726 11735 0
h -11727 11735 0
h -11728 11735 0
h -11729 11735 0
h -11730 11735 0
h -11731 11735 0
h -11732 11735 0
h -11733 11735 0
h -11734 11735 0
h -11736 -30 234 0
h 30 11736 0
h -234 11736 0
h -11737 -29 233 0
h 29 11737 0
h -233 11737 0
h -11738 -28 232 0
h 28 11738 0
h -232 11738 0
h -11739 -27 231 0
h 27 11739 0
h -231 11739 0
h -11740 -26 230 0
h 26 11740 0
h -230 11740 0
h -11741 -25 229 0
h 25 11741 0
h -229 11741 0
h -11742 -24 228 0
h 24 11742 0
h -228 11742 0
h -11743 -23 227 0
h 23 11743 0
h -227 11743 0
h 11744 -235 -11736 -11737 -11738 -11739 -11740 -11741 -11742 -11743 22 21 20 0
h 235 -11744 0
h 11736 -11744 0
h 11737 -11744 0
h 11738 -11744 0
h 11739 -11744 0
h 11740 -11744 0
h 11741 -11744 0
h 11742 -11744 0
h 11743 -11744 0
h -22 -11744 0
h -21 -11744 0
h -20 -11744 0
h -11745 -237 28 0
h 237 11745 0
h -28 11745 0
h -11746 -236 27 0
h 236 11746 0
h -27 11746 0
h -11747 -235 26 0
h 235 11747 0
h -26 11747 0
h -11748 -234 25 0
h 234 11748 0
h -25 11748 0
h -11749 -233 24 0
h 233 11749 0
h -24 11749 0
h -11750 -232 23 0
h 232 11750 0
h -23 11750 0
h -11751 -231 22 0
h 231 11751 0
h -22 11751 0
h -11752 -230 21 0
h 230 11752 0
h -21 11752 0
h -11753 -229 20 0
h 229 11753 0
h -20 11753 0
h 11754 -29 -11745 -11746 -11747 -11748 -11749 -11750 -11751 -11752 -11753 228 227 0
h 29 -11754 0
h 11745 -11754 0
h 11746 -11754 0
h 11747 -11754 0
h 11748 -11754 0
h 11749 -11754 0
h 11750 -11754 0
h 11751 -11754 0
h 11752 -11754 0
h 11753 -11754 0
h -228 -11754 0
h -227 -11754 0
h 11755 -357 162 0
h 357 -11755 0
h -162 -11755 0
h 11756 -162 357 0
h 162 -11756 0
h -357 -11756 0
h 11757 -358 163 0
h 358 -11757 0
h -163 -11757 0
h 11758 -163 358 0
h 163 -11758 0
h -358 -11758 0
h 11759 -359 164 0
h 359 -11759 0
h -164 -11759 0
h 11760 -164 359 0
h 164 -11760 0
h -359 -11760 0
h 11761 -360 165 0
h 360 -11761 0
h -165 -11761 0
h 11762 -165 360 0
h 165 -11762 0
h -360 -11762 0
h -11763 11744 11754 11755 11756 11757 11758 11759 11760 11761 11762 0
h -11744 11763 0
h -11754 11763 0
h -11755 11763 0
h -11756 11763 0
h -11757 11763 0
h -11758 11763 0
h -11759 11763 0
h -11760 11763 0
h -11761 11763 0
h -11762 11763 0
h -11764 -15 234 0
h 15 11764 0
h -234 11764 0
h -11765 -14 233 0
h 14 11765 0
h -233 11765 0
h -11766 -13 232 0
h 13 11766 0
h -232 11766 0
h -11767 -12 231 0
h 12 11767 0
h -231 11767 0
h -11768 -11 230 0
h 11 11768 0
h -230 11768 0
h -11769 -10 229 0
h 10 11769 0
h -229 11769 0
h -11770 -9 228 0
h 9 11770 0
h -228 11770 0
h -11771 -8 227 0
h 8 11771 0
h -227 11771 0
h 11772 -235 -11764 -11765 -11766 -11767 -11768 -11769 -11770 -11771 7 6 5 0
h 235 -11772 0
h 11764 -11772 0
h 11765 -11772 0
h 11766 -11772 0
h 11767 -11772 0
h 11768 -11772 0
h 11769 -11772 0
h 11770 -11772 0
h 11771 -11772 0
h -7 -11772 0
h -6 -11772 0
h -5 -11772 0
h -11773 -237 13 0
h 237 11773 0
h -13 11773 0
h -11774 -236 12 0
h 236 11774 0
h -12 11774 0
h -11775 -235 11 0
h 235 11775 0
h -11 11775 0
h -11776 -234 10 0
h 234 11776 0
h -10 11776 0
h -11777 -233 9 0
h 233 11777 0
h -9 11777 0
h -11778 -232 8 0
h 232 11778 0
h -8 11778 0
h -11779 -231 7 0
h 231 11779 0
h -7 11779 0
h -11780 -230 6 0
h 230 11780 0
h -6 11780 0
h -11781 -229 5 0
h 229 11781 0
h -5 11781 0
h 11782 -14 -11773 -11774 -11775 -11776 -11777 -11778 -11779 -11780 -11781 228 227 0
h 14 -11782 0
h 11773 -11782 0
h 11774 -11782 0
h 11775 -11782 0
h 11776 -11782 0
h 11777 -11782 0
h 11778 -11782 0
h 11779 -11782 0
h 11780 -11782 0
h 11781 -11782 0
h -228 -11782 0
h -227 -11782 0
h 11783 -357 158 0
h 357 -11783 0
h -158 -11783 0
h 11784 -158 357 0
h 158 -11784 0
h -357 -11784 0
h 11785 -358 159 0
h 358 -11785 0
h -159 -11785 0
h 11786 -159 358 0
h 159 -11786 0
h -358 -11786 0
h 11787 -359 160 0
h 359 -11787 0
h -160 -11787 0
h 11788 -160 359 0
h 160 -11788 0
h -359 -11788 0
h 11789 -360 161 0
h 360 -11789 0
h -161 -11789 0
h 11790 -161 360 0
h 161 -11790 0
h -360 -11790 0
h -11791 11772 11782 11783 11784 11785 11786 11787 11788 11789 11790 0
h -11772 11791 0
h -11782 11791 0
h -11783 11791 0
h -11784 11791 0
h -11785 11791 0
h -11786 11791 0
h -11787 11791 0
h -11788 11791 0
h -11789 11791 0
h -11790 11791 0
h -11792 -30 128 0
h 30 11792 0
h -128 11792 0
h -11793 -29 127 0
h 29 11793 0
h -127 11793 0
h -11794 -28 126 0
h 28 11794 0
h -126 11794 0
h -11795 -27 125 0
h 27 11795 0
h -125 11795 0
h -11796 -26 124 0
h 26 11796 0
h -124 11796 0
h -11797 -25 123 0
h 25 11797 0
h -123 11797 0
h -11798 -24 122 0
h 24 11798 0
h -122 11798 0
h -11799 -23 121 0
h 23 11799 0
h -121 11799 0
h -11800 -22 120 0
h 22 11800 0
h -120 11800 0
h 11801 -129 -11792 -11793 -11794 -11795 -11796 -11797 -11798 -11799 -11800 21 20 0
h 129 -11801 0
h 11792 -11801 0
h 11793 -11801 0
h 11794 -11801 0
h 11795 -11801 0
h 11796 -11801 0
h 11797 -11801 0
h 11798 -11801 0
h 11799 -11801 0
h 11800 -11801 0
h -21 -11801 0
h -20 -11801 0
h -11802 -130 28 0
h 130 11802 0
h -28 11802 0
h -11803 -129 27 0
h 129 11803 0
h -27 11803 0
h -11804 -128 26 0
h 128 11804 0
h -26 11804 0
h -11805 -127 25 0
h 127 11805 0
h -25 11805 0
h -11806 -126 24 0
h 126 11806 0
h -24 11806 0
h -11807 -125 23 0
h 125 11807 0
h -23 11807 0
h -11808 -124 22 0
h 124 11808 0
h -22 11808 0
h -11809 -123 21 0
h 123 11809 0
h -21 11809 0
h -11810 -122 20 0
h 122 11810 0
h -20 11810 0
h 11811 -29 -11802 -11803 -11804 -11805 -11806 -11807 -11808 -11809 -11810 121 120 0
h 29 -11811 0
h 11802 -11811 0
h 11803 -11811 0
h 11804 -11811 0
h 11805 -11811 0
h 11806 -11811 0
h 11807 -11811 0
h 11808 -11811 0
h 11809 -11811 0
h 11810 -11811 0
h -121 -11811 0
h -120 -11811 0
h 11812 -219 162 0
h 219 -11812 0
h -162 -11812 0
h 11813 -162 219 0
h 162 -11813 0
h -219 -11813 0
h 11814 -220 163 0
h 220 -11814 0
h -163 -11814 0
h 11815 -163 220 0
h 163 -11815 0
h -220 -11815 0
h 11816 -221 164 0
h 221 -11816 0
h -164 -11816 0
h 11817 -164 221 0
h 164 -11817 0
h -221 -11817 0
h 11818 -222 165 0
h 222 -11818 0
h -165 -11818 0
h 11819 -165 222 0
h 165 -11819 0
h -222 -11819 0
h -11820 11801 11811 11812 11813 11814 11815 11816 11817 11818 11819 0
h -11801 11820 0
h -11811 11820 0
h -11812 11820 0
h -11813 11820 0
h -11814 11820 0
h -11815 11820 0
h -11816 11820 0
h -11817 11820 0
h -11818 11820 0
h -11819 11820 0
h -11821 -15 128 0
h 15 11821 0
h -128 11821 0
h -11822 -14 127 0
h 14 11822 0
h -127 11822 0
h -11823 -13 126 0
h 13 11823 0
h -126 11823 0
h -11824 -12 125 0
h 12 11824 0
h -125 11824 0
h -11825 -11 124 0
h 11 11825 0
h -124 11825 0
h -11826 -10 123 0
h 10 11826 0
h -123 11826 0
h -11827 -9 122 0
h 9 11827 0
h -122 11827 0
h -11828 -8 121 0
h 8 11828 0
h -121 11828 0
h -11829 -7 120 0
h 7 11829 0
h -120 11829 0
h 11830 -129 -11821 -11822 -11823 -11824 -11825 -11826 -11827 -11828 -11829 6 5 0
h 129 -11830 0
h 11821 -11830 0
h 11822 -11830 0
h 11823 -11830 0
h 11824 -11830 0
h 11825 -11830 0
h 11826 -11830 0
h 11827 -11830 0
h 11828 -11830 0
h 11829 -11830 0
h -6 -11830 0
h -5 -11830 0
h -11831 -130 13 0
h 130 11831 0
h -13 11831 0
h -11832 -129 12 0
h 129 11832 0
h -12 11832 0
h -11833 -128 11 0
h 128 11833 0
h -11 11833 0
h -11834 -127 10 0
h 127 11834 0
h -10 11834 0
h -11835 -126 9 0
h 126 11835 0
h -9 11835 0
h -11836 -125 8 0
h 125 11836 0
h -8 11836 0
h -11837 -124 7 0
h 124 11837 0
h -7 11837 0
h -11838 -123 6 0
h 123 11838 0
h -6 11838 0
h -11839 -122 5 0
h 122 11839 0
h -5 11839 0
h 11840 -14 -11831 -11832 -11833 -11834 -11835 -11836 -11837 -11838 -11839 121 120 0
h 14 -11840 0
h 11831 -11840 0
h 11832 -11840 0
h 11833 -11840 0
h 11834 -11840 0
h 11835 -11840 0
h 11836 -11840 0
h 11837 -11840 0
h 11838 -11840 0
h 11839 -11840 0
h -121 -11840 0
h -120 -11840 0
h 11841 -219 158 0
h 219 -11841 0
h -158 -11841 0
h 11842 -158 219 0
h 158 -11842 0
h -219 -11842 0
h 11843 -220 159 0
h 220 -11843 0
h -159 -11843 0
h 11844 -159 220 0
h 159 -11844 0
h -220 -11844 0
h 11845 -221 160 0
h 221 -11845 0
h -160 -11845 0
h 11846 -160 221 0
h 160 -11846 0
h -221 -11846 0
h 11847 -222 161 0
h 222 -11847 0
h -161 -11847 0
h 11848 -161 222 0
h 161 -11848 0
h -222 -11848 0
h -11849 11830 11840 11841 11842 11843 11844 11845 11846 11847 11848 0
h -11830 11849 0
h -11840 11849 0
h -11841 11849 0
h -11842 11849 0
h -11843 11849 0
h -11844 11849 0
h -11845 11849 0
h -11846 11849 0
h -11847 11849 0
h -11848 11849 0
h -11850 -30 106 0
h 30 11850 0
h -106 11850 0
h -11851 -29 105 0
h 29 11851 0
h -105 11851 0
h -11852 -28 104 0
h 28 11852 0
h -104 11852 0
h -11853 -27 103 0
h 27 11853 0
h -103 11853 0
h -11854 -26 102 0
h 26 11854 0
h -102 11854 0
h -11855 -25 101 0
h 25 11855 0
h -101 11855 0
h -11856 -24 100 0
h 24 11856 0
h -100 11856 0
h -11857 -23 99 0
h 23 11857 0
h -99 11857 0
h -11858 -22 98 0
h 22 11858 0
h -98 11858 0
h 11859 -107 -11850 -11851 -11852 -11853 -11854 -11855 -11856 -11857 -11858 21 20 0
h 107 -11859 0
h 11850 -11859 0
h 11851 -11859 0
h 11852 -11859 0
h 11853 -11859 0
h 11854 -11859 0
h 11855 -11859 0
h 11856 -11859 0
h 11857 -11859 0
h 11858 -11859 0
h -21 -11859 0
h -20 -11859 0
h -11860 -108 28 0
h 108 11860 0
h -28 11860 0
h -11861 -107 27 0
h 107 11861 0
h -27 11861 0
h -11862 -106 26 0
h 106 11862 0
h -26 11862 0
h -11863 -105 25 0
h 105 11863 0
h -25 11863 0
h -11864 -104 24 0
h 104 11864 0
h -24 11864 0
h -11865 -103 23 0
h 103 11865 0
h -23 11865 0
h -11866 -102 22 0
h 102 11866 0
h -22 11866 0
h -11867 -101 21 0
h 101 11867 0
h -21 11867 0
h -11868 -100 20 0
h 100 11868 0
h -20 11868 0
h 11869 -29 -11860 -11861 -11862 -11863 -11864 -11865 -11866 -11867 -11868 99 98 0
h 29 -11869 0
h 11860 -11869 0
h 11861 -11869 0
h 11862 -11869 0
h 11863 -11869 0
h 11864 -11869 0
h 11865 -11869 0
h 11866 -11869 0
h 11867 -11869 0
h 11868 -11869 0
h -99 -11869 0
h -98 -11869 0
h 11870 -204 162 0
h 204 -11870 0
h -162 -11870 0
h 11871 -162 204 0
h 162 -11871 0
h -204 -11871 0
h 11872 -205 163 0
h 205 -11872 0
h -163 -11872 0
h 11873 -163 205 0
h 163 -11873 0
h -205 -11873 0
h 11874 -206 164 0
h 206 -11874 0
h -164 -11874 0
h 11875 -164 206 0
h 164 -11875 0
h -206 -11875 0
h 11876 -207 165 0
h 207 -11876 0
h -165 -11876 0
h 11877 -165 207 0
h 165 -11877 0
h -207 -11877 0
h -11878 11859 11869 11870 11871 11872 11873 11874 11875 11876 11877 0
h -11859 11878 0
h -11869 11878 0
h -11870 11878 0
h -11871 11878 0
h -11872 11878 0
h -11873 11878 0
h -11874 11878 0
h -11875 11878 0
h -11876 11878 0
h -11877 11878 0
h -11879 -15 106 0
h 15 11879 0
h -106 11879 0
h -11880 -14 105 0
h 14 11880 0
h -105 11880 0
h -11881 -13 104 0
h 13 11881 0
h -104 11881 0
h -11882 -12 103 0
h 12 11882 0
h -103 11882 0
h -11883 -11 102 0
h 11 11883 0
h -102 11883 0
h -11884 -10 101 0
h 10 11884 0
h -101 11884 0
h -11885 -9 100 0
h 9 11885 0
h -100 11885 0
h -11886 -8 99 0
h 8 11886 0
h -99 11886 0
h -11887 -7 98 0
h 7 11887 0
h -98 11887 0
h 11888 -107 -11879 -11880 -11881 -11882 -11883 -11884 -11885 -11886 -11887 6 5 0
h 107 -11888 0
h 11879 -11888 0
h 11880 -11888 0
h 11881 -11888 0
h 11882 -11888 0
h 11883 -11888 0
h 11884 -11888 0
h 11885 -11888 0
h 11886 -11888 0
h 11887 -11888 0
h -6 -11888 0
h -5 -11888 0
h -11889 -108 13 0
h 108 11889 0
h -13 11889 0
h -11890 -107 12 0
h 107 11890 0
h -12 11890 0
h -11891 -106 11 0
h 106 11891 0
h -11 11891 0
h -11892 -105 10 0
h 105 11892 0
h -10 11892 0
h -11893 -104 9 0
h 104 11893 0
h -9 11893 0
h -11894 -103 8 0
h 103 11894 0
h -8 11894 0
h -11895 -102 7 0
h 102 11895 0
h -7 11895 0
h -11896 -101 6 0
h 101 11896 0
h -6 11896 0
h -11897 -100 5 0
h 100 11897 0
h -5 11897 0
h 11898 -14 -11889 -11890 -11891 -11892 -11893 -11894 -11895 -11896 -11897 99 98 0
h 14 -11898 0
h 11889 -11898 0
h 11890 -11898 0
h 11891 -11898 0
h 11892 -11898 0
h 11893 -11898 0
h 11894 -11898 0
h 11895 -11898 0
h 11896 -11898 0
h 11897 -11898 0
h -99 -11898 0
h -98 -11898 0
h 11899 -204 158 0
h 204 -11899 0
h -158 -11899 0
h 11900 -158 204 0
h 158 -11900 0
h -204 -11900 0
h 11901 -205 159 0
h 205 -11901 0
h -159 -11901 0
h 11902 -159 205 0
h 159 -11902 0
h -205 -11902 0
h 11903 -206 160 0
h 206 -11903 0
h -160 -11903 0
h 11904 -160 206 0
h 160 -11904 0
h -206 -11904 0
h 11905 -207 161 0
h 207 -11905 0
h -161 -11905 0
h 11906 -161 207 0
h 161 -11906 0
h -207 -11906 0
h -11907 11888 11898 11899 11900 11901 11902 11903 11904 11905 11906 0
h -11888 11907 0
h -11898 11907 0
h -11899 11907 0
h -11900 11907 0
h -11901 11907 0
h -11902 11907 0
h -11903 11907 0
h -11904 11907 0
h -11905 11907 0
h -11906 11907 0
h 11908 -11707 -11735 -11763 -11791 -11820 -11849 -11878 -11907 0
h 11707 -11908 0
h 11735 -11908 0
h 11763 -11908 0
h 11791 -11908 0
h 11820 -11908 0
h 11849 -11908 0
h 11878 -11908 0
h 11907 -11908 0
h 11909 -30 249 0
h 30 -11909 0
h -249 -11909 0
h 11910 -29 248 0
h 29 -11910 0
h -248 -11910 0
h 11911 -28 247 0
h 28 -11911 0
h -247 -11911 0
h 11912 -27 246 0
h 27 -11912 0
h -246 -11912 0
h 11913 -26 245 0
h 26 -11913 0
h -245 -11913 0
h 11914 -25 244 0
h 25 -11914 0
h -244 -11914 0
h 11915 -24 243 0
h 24 -11915 0
h -243 -11915 0
h 11916 -23 242 0
h 23 -11916 0
h -242 -11916 0
h -11917 -250 11909 11910 11911 11912 11913 11914 11915 11916 22 21 20 0
h 250 11917 0
h -11909 11917 0
h -11910 11917 0
h -11911 11917 0
h -11912 11917 0
h -11913 11917 0
h -11914 11917 0
h -11915 11917 0
h -11916 11917 0
h -22 11917 0
h -21 11917 0
h -20 11917 0
h 11918 -252 28 0
h 252 -11918 0
h -28 -11918 0
h 11919 -251 27 0
h 251 -11919 0
h -27 -11919 0
h 11920 -250 26 0
h 250 -11920 0
h -26 -11920 0
h 11921 -249 25 0
h 249 -11921 0
h -25 -11921 0
h 11922 -248 24 0
h 248 -11922 0
h -24 -11922 0
h 11923 -247 23 0
h 247 -11923 0
h -23 -11923 0
h 11924 -246 22 0
h 246 -11924 0
h -22 -11924 0
h 11925 -245 21 0
h 245 -11925 0
h -21 -11925 0
h 11926 -244 20 0
h 244 -11926 0
h -20 -11926 0
h -11927 -29 11918 11919 11920 11921 11922 11923 11924 11925 11926 243 242 0
h 29 11927 0
h -11918 11927 0
h -11919 11927 0
h -11920 11927 0
h -11921 11927 0
h -11922 11927 0
h -11923 11927 0
h -11924 11927 0
h -11925 11927 0
h -11926 11927 0
h -243 11927 0
h -242 11927 0
h -11928 -1 162 0
h 1 11928 0
h -162 11928 0
h -11929 -162 1 0
h 162 11929 0
h -1 11929 0
h -11930 -2 163 0
h 2 11930 0
h -163 11930 0
h -11931 -163 2 0
h 163 11931 0
h -2 11931 0
h -11932 -3 164 0
h 3 11932 0
h -164 11932 0
h -11933 -164 3 0
h 164 11933 0
h -3 11933 0
h -11934 -4 165 0
h 4 11934 0
h -165 11934 0
h -11935 -165 4 0
h 165 11935 0
h -4 11935 0
h 11936 -11917 -11927 -11928 -11929 -11930 -11931 -11932 -11933 -11934 -11935 0
h 11917 -11936 0
h 11927 -11936 0
h 11928 -11936 0
h 11929 -11936 0
h 11930 -11936 0
h 11931 -11936 0
h 11932 -11936 0
h 11933 -11936 0
h 11934 -11936 0
h 11935 -11936 0
h 11937 -15 249 0
h 15 -11937 0
h -249 -11937 0
h 11938 -14 248 0
h 14 -11938 0
h -248 -11938 0
h 11939 -13 247 0
h 13 -11939 0
h -247 -11939 0
h 11940 -12 246 0
h 12 -11940 0
h -246 -11940 0
h 11941 -11 245 0
h 11 -11941 0
h -245 -11941 0
h 11942 -10 244 0
h 10 -11942 0
h -244 -11942 0
h 11943 -9 243 0
h 9 -11943 0
h -243 -11943 0
h 11944 -8 242 0
h 8 -11944 0
h -242 -11944 0
h -11945 -250 11937 11938 11939 11940 11941 11942 11943 11944 7 6 5 0
h 250 11945 0
h -11937 11945 0
h -11938 11945 0
h -11939 11945 0
h -11940 11945 0
h -11941 11945 0
h -11942 11945 0
h -11943 11945 0
h -11944 11945 0
h -7 11945 0
h -6 11945 0
h -5 11945 0
h 11946 -252 13 0
h 252 -11946 0
h -13 -11946 0
h 11947 -251 12 0
h 251 -11947 0
h -12 -11947 0
h 11948 -250 11 0
h 250 -11948 0
h -11 -11948 0
h 11949 -249 10 0
h 249 -11949 0
h -10 -11949 0
h 11950 -248 9 0
h 248 -11950 0
h -9 -11950 0
h 11951 -247 8 0
h 247 -11951 0
h -8 -11951 0
h 11952 -246 7 0
h 246 -11952 0
h -7 -11952 0
h 11953 -245 6 0
h 245 -11953 0
h -6 -11953 0
h 11954 -244 5 0
h 244 -11954 0
h -5 -11954 0
h -11955 -14 11946 11947 11948 11949 11950 11951 11952 11953 11954 243 242 0
h 14 11955 0
h -11946 11955 0
h -11947 11955 0
h -11948 11955 0
h -11949 11955 0
h -11950 11955 0
h -11951 11955 0
h -11952 11955 0
h -11953 11955 0
h -11954 11955 0
h -243 11955 0
h -242 11955 0
h -11956 -1 158 0
h 1 11956 0
h -158 11956 0
h -11957 -158 1 0
h 158 11957 0
h -1 11957 0
h -11958 -2 159 0
h 2 11958 0
h -159 11958 0
h -11959 -159 2 0
h 159 11959 0
h -2 11959 0
h -11960 -3 160 0
h 3 11960 0
h -160 11960 0
h -11961 -160 3 0
h 160 11961 0
h -3 11961 0
h -11962 -4 161 0
h 4 11962 0
h -161 11962 0
h -11963 -161 4 0
h 161 11963 0
h -4 11963 0
h 11964 -11945 -11955 -11956 -11957 -11958 -11959 -11960 -11961 -11962 -11963 0
h 11945 -11964 0
h 11955 -11964 0
h 11956 -11964 0
h 11957 -11964 0
h 11958 -11964 0
h 11959 -11964 0
h 11960 -11964 0
h 11961 -11964 0
h 11962 -11964 0
h 11963 -11964 0
h 11965 -30 234 0
h 30 -11965 0
h -234 -11965 0
h 11966 -29 233 0
h 29 -11966 0
h -233 -11966 0
h 11967 -28 232 0
h 28 -11967 0
h -232 -11967 0
h 11968 -27 231 0
h 27 -11968 0
h -231 -11968 0
h 11969 -26 230 0
h 26 -11969 0
h -230 -11969 0
h 11970 -25 229 0
h 25 -11970 0
h -229 -11970 0
h 11971 -24 228 0
h 24 -11971 0
h -228 -11971 0
h 11972 -23 227 0
h 23 -11972 0
h -227 -11972 0
h -11973 -235 11965 11966 11967 11968 11969 11970 11971 11972 22 21 20 0
h 235 11973 0
h -11965 11973 0
h -11966 11973 0
h -11967 11973 0
h -11968 11973 0
h -11969 11973 0
h -11970 11973 0
h -11971 11973 0
h -11972 11973 0
h -22 11973 0
h -21 11973 0
h -20 11973 0
h 11974 -237 28 0
h 237 -11974 0
h -28 -11974 0
h 11975 -236 27 0
h 236 -11975 0
h -27 -11975 0
h 11976 -235 26 0
h 235 -11976 0
h -26 -11976 0
h 11977 -234 25 0
h 234 -11977 0
h -25 -11977 0
h 11978 -233 24 0
h 233 -11978 0
h -24 -11978 0
h 11979 -232 23 0
h 232 -11979 0
h -23 -11979 0
h 11980 -231 22 0
h 231 -11980 0
h -22 -11980 0
h 11981 -230 21 0
h 230 -11981 0
h -21 -11981 0
h 11982 -229 20 0
h 229 -11982 0
h -20 -11982 0
h -11983 -29 11974 11975 11976 11977 11978 11979 11980 11981 11982 228 227 0
h 29 11983 0
h -11974 11983 0
h -11975 11983 0
h -11976 11983 0
h -11977 11983 0
h -11978 11983 0
h -11979 11983 0
h -11980 11983 0
h -11981 11983 0
h -11982 11983 0
h -228 11983 0
h -227 11983 0
h -11984 -357 162 0
h 357 11984 0
h -162 11984 0
h -11985 -162 357 0
h 162 11985 0
h -357 11985 0
h -11986 -358 163 0
h 358 11986 0
h -163 11986 0
h -11987 -163 358 0
h 163 11987 0
h -358 11987 0
h -11988 -359 164 0
h 359 11988 0
h -164 11988 0
h -11989 -164 359 0
h 164 11989 0
h -359 11989 0
h -11990 -360 165 0
h 360 11990 0
h -165 11990 0
h -11991 -165 360 0
h 165 11991 0
h -360 11991 0
h 11992 -11973 -11983 -11984 -11985 -11986 -11987 -11988 -11989 -11990 -11991 0
h 11973 -11992 0
h 11983 -11992 0
h 11984 -11992 0
h 11985 -11992 0
h 11986 -11992 0
h 11987 -11992 0
h 11988 -11992 0
h 11989 -11992 0
h 11990 -11992 0
h 11991 -11992 0
h 11993 -15 234 0
h 15 -11993 0
h -234 -11993 0
h 11994 -14 233 0
h 14 -11994 0
h -233 -11994 0
h 11995 -13 232 0
h 13 -11995 0
h -232 -11995 0
h 11996 -12 231 0
h 12 -11996 0
h -231 -11996 0
h 11997 -11 230 0
h 11 -11997 0
h -230 -11997 0
h 11998 -10 229 0
h 10 -11998 0
h -229 -11998 0
h 11999 -9 228 0
h 9 -11999 0
h -228 -11999 0
h 12000 -8 227 0
h 8 -12000 0
h -227 -12000 0
h -12001 -235 11993 11994 11995 11996 11997 11998 11999 12000 7 6 5 0
h 235 12001 0
h -11993 12001 0
h -11994 12001 0
h -11995 12001 0
h -11996 12001 0
h -11997 12001 0
h -11998 12001 0
h -11999 12001 0
h -12000 12001 0
h -7 12001 0
h -6 12001 0
h -5 12001 0
h 12002 -237 13 0
h 237 -12002 0
h -13 -12002 0
h 12003 -236 12 0
h 236 -12003 0
h -12 -12003 0
h 12004 -235 11 0
h 235 -12004 0
h -11 -12004 0
h 12005 -234 10 0
h 234 -12005 0
h -10 -12005 0
h 12006 -233 9 0
h 233 -12006 0
h -9 -12006 0
h 12007 -232 8 0
h 232 -12007 0
h -8 -12007 0
h 12008 -231 7 0
h 231 -12008 0
h -7 -12008 0
h 12009 -230 6 0
h 230 -12009 0
h -6 -12009 0
h 12010 -229 5 0
h 229 -12010 0
h -5 -12010 0
h -12011 -14 12002 12003 12004 12005 12006 12007 12008 12009 12010 228 227 0
h 14 12011 0
h -12002 12011 0
h -12003 12011 0
h -12004 12011 0
h -12005 12011 0
h -12006 12011 0
h -12007 12011 0
h -12008 12011 0
h -12009 12011 0
h -12010 12011 0
h -228 12011 0
h -227 12011 0
h -12012 -357 158 0
h 357 12012 0
h -158 12012 0
h -12013 -158 357 0
h 158 12013 0
h -357 12013 0
h -12014 -358 159 0
h 358 12014 0
h -159 12014 0
h -12015 -159 358 0
h 159 12015 0
h -358 12015 0
h -12016 -359 160 0
h 359 12016 0
h -160 12016 0
h -12017 -160 359 0
h 160 12017 0
h -359 12017 0
h -12018 -360 161 0
h 360 12018 0
h -161 12018 0
h -12019 -161 360 0
h 161 12019 0
h -360 12019 0
h 12020 -12001 -12011 -12012 -12013 -12014 -12015 -12016 -12017 -12018 -12019 0
h 12001 -12020 0
h 12011 -12020 0
h 12012 -12020 0
h 12013 -12020 0
h 12014 -12020 0
h 12015 -12020 0
h 12016 -12020 0
h 12017 -12020 0
h 12018 -12020 0
h 12019 -12020 0
h 12021 -30 128 0
h 30 -12021 0
h -128 -12021 0
h 12022 -29 127 0
h 29 -12022 0
h -127 -12022 0
h 12023 -28 126 0
h 28 -12023 0
h -126 -12023 0
h 12024 -27 125 0
h 27 -12024 0
h -125 -12024 0
h 12025 -26 124 0
h 26 -12025 0
h -124 -12025 0
h 12026 -25 123 0
h 25 -12026 0
h -123 -12026 0
h 12027 -24 122 0
h 24 -12027 0
h -122 -12027 0
h 12028 -23 121 0
h 23 -12028 0
h -121 -12028 0
h 12029 -22 120 0
h 22 -12029 0
h -120 -12029 0
h -12030 -129 12021 12022 12023 12024 12025 12026 12027 12028 12029 21 20 0
h 129 12030 0
h -12021 12030 0
h -12022 12030 0
h -12023 12030 0
h -12024 12030 0
h -12025 12030 0
h -12026 12030 0
h -12027 12030 0
h -12028 12030 0
h -12029 12030 0
h -21 12030 0
h -20 12030 0
h 12031 -130 28 0
h 130 -12031 0
h -28 -12031 0
h 12032 -129 27 0
h 129 -12032 0
h -27 -12032 0
h 12033 -128 26 0
h 128 -12033 0
h -26 -12033 0
h 12034 -127 25 0
h 127 -12034 0
h -25 -12034 0
h 12035 -126 24 0
h 126 -12035 0
h -24 -12035 0
h 12036 -125 23 0
h 125 -12036 0
h -23 -12036 0
h 12037 -124 22 0
h 124 -12037 0
h -22 -12037 0
h 12038 -123 21 0
h 123 -12038 0
h -21 -12038 0
h 12039 -122 20 0
h 122 -12039 0
h -20 -12039 0
h -12040 -29 12031 12032 12033 12034 12035 12036 12037 12038 12039 121 120 0
h 29 12040 0
h -12031 12040 0
h -12032 12040 0
h -12033 12040 0
h -12034 12040 0
h -12035 12040 0
h -12036 12040 0
h -12037 12040 0
h -12038 12040 0
h -12039 12040 0
h -121 12040 0
h -120 12040 0
h -12041 -219 162 0
h 219 12041 0
h -162 12041 0
h -12042 -162 219 0
h 162 12042 0
h -219 12042 0
h -12043 -220 163 0
h 220 12043 0
h -163 12043 0
h -12044 -163 220 0
h 163 12044 0
h -220 12044 0
h -12045 -221 164 0
h 221 12045 0
h -164 12045 0
h -12046 -164 221 0
h 164 12046 0
h -221 12046 0
h -12047 -222 165 0
h 222 12047 0
h -165 12047 0
h -12048 -165 222 0
h 165 12048 0
h -222 12048 0
h 12049 -12030 -12040 -12041 -12042 -12043 -12044 -12045 -12046 -12047 -12048 0
h 12030 -12049 0
h 12040 -12049 0
h 12041 -12049 0
h 12042 -12049 0
h 12043 -12049 0
h 12044 -12049 0
h 12045 -12049 0
h 12046 -12049 0
h 12047 -12049 0
h 12048 -12049 0
h 12050 -15 128 0
h 15 -12050 0
h -128 -12050 0
h 12051 -14 127 0
h 14 -12051 0
h -127 -12051 0
h 12052 -13 126 0
h 13 -12052 0
h -126 -12052 0
h 12053 -12 125 0
h 12 -12053 0
h -125 -12053 0
h 12054 -11 124 0
h 11 -12054 0
h -124 -12054 0
h 12055 -10 123 0
h 10 -12055 0
h -123 -12055 0
h 12056 -9 122 0
h 9 -12056 0
h -122 -12056 0
h 12057 -8 121 0
h 8 -12057 0
h -121 -12057 0
h 12058 -7 120 0
h 7 -12058 0
h -120 -12058 0
h -12059 -129 12050 12051 12052 12053 12054 12055 12056 12057 12058 6 5 0
h 129 12059 0
h -12050 12059 0
h -12051 12059 0
h -12052 12059 0
h -12053 12059 0
h -12054 12059 0
h -12055 12059 0
h -12056 12059 0
h -12057 12059 0
h -12058 12059 0
h -6 12059 0
h -5 12059 0
h 12060 -130 13 0
h 130 -12060 0
h -13 -12060 0
h 12061 -129 12 0
h 129 -12061 0
h -12 -12061 0
h 12062 -128 11 0
h 128 -12062 0
h -11 -12062 0
h 12063 -127 10 0
h 127 -12063 0
h -10 -12063 0
h 12064 -126 9 0
h 126 -12064 0
h -9 -12064 0
h 12065 -125 8 0
h 125 -12065 0
h -8 -12065 0
h 12066 -124 7 0
h 124 -12066 0
h -7 -12066 0
h 12067 -123 6 0
h 123 -12067 0
h -6 -12067 0
h 12068 -122 5 0
h 122 -12068 0
h -5 -12068 0
h -12069 -14 12060 12061 12062 12063 12064 12065 12066 12067 12068 121 120 0
h 14 12069 0
h -12060 12069 0
h -12061 12069 0
h -12062 12069 0
h -12063 12069 0
h -12064 12069 0
h -12065 12069 0
h -12066 12069 0
h -12067 12069 0
h -12068 12069 0
h -121 12069 0
h -120 12069 0
h -12070 -219 158 0
h 219 12070 0
h -158 12070 0
h -12071 -158 219 0
h 158 12071 0
h -219 12071 0
h -12072 -220 159 0
h 220 12072 0
h -159 12072 0
h -12073 -159 220 0
h 159 12073 0
h -220 12073 0
h -12074 -221 160 0
h 221 12074 0
h -160 12074 0
h -12075 -160 221 0
h 160 12075 0
h -221 12075 0
h -12076 -222 161 0
h 222 12076 0
h -161 12076 0
h -12077 -161 222 0
h 161 12077 0
h -222 12077 0
h 12078 -12059 -12069 -12070 -12071 -12072 -12073 -12074 -12075 -12076 -12077 0
h 12059 -12078 0
h 12069 -12078 0
h 12070 -12078 0
h 12071 -12078 0
h 12072 -12078 0
h 12073 -12078 0
h 12074 -12078 0
h 12075 -12078 0
h 12076 -12078 0
h 12077 -12078 0
h 12079 -30 106 0
h 30 -12079 0
h -106 -12079 0
h 12080 -29 105 0
h 29 -12080 0
h -105 -12080 0
h 12081 -28 104 0
h 28 -12081 0
h -104 -12081 0
h 12082 -27 103 0
h 27 -12082 0
h -103 -12082 0
h 12083 -26 102 0
h 26 -12083 0
h -102 -12083 0
h 12084 -25 101 0
h 25 -12084 0
h -101 -12084 0
h 12085 -24 100 0
h 24 -12085 0
h -100 -12085 0
h 12086 -23 99 0
h 23 -12086 0
h -99 -12086 0
h 12087 -22 98 0
h 22 -12087 0
h -98 -12087 0
h -12088 -107 12079 12080 12081 12082 12083 12084 12085 12086 12087 21 20 0
h 107 12088 0
h -12079 12088 0
h -12080 12088 0
h -12081 12088 0
h -12082 12088 0
h -12083 12088 0
h -12084 12088 0
h -12085 12088 0
h -12086 12088 0
h -12087 12088 0
h -21 12088 0
h -20 12088 0
h 12089 -108 28 0
h 108 -12089 0
h -28 -12089 0
h 12090 -107 27 0
h 107 -12090 0
h -27 -12090 0
h 12091 -106 26 0
h 106 -12091 0
h -26 -12091 0
h 12092 -105 25 0
h 105 -12092 0
h -25 -12092 0
h 12093 -104 24 0
h 104 -12093 0
h -24 -12093 0
h 12094 -103 23 0
h 103 -12094 0
h -23 -12094 0
h 12095 -102 22 0
h 102 -12095 0
h -22 -12095 0
h 12096 -101 21 0
h 101 -12096 0
h -21 -12096 0
h 12097 -100 20 0
h 100 -12097 0
h -20 -12097 0
h -12098 -29 12089 12090 12091 12092 12093 12094 12095 12096 12097 99 98 0
h 29 12098 0
h -12089 12098 0
h -12090 12098 0
h -12091 12098 0
h -12092 12098 0
h -12093 12098 0
h -12094 12098 0
h -12095 12098 0
h -12096 12098 0
h -12097 12098 0
h -99 12098 0
h -98 12098 0
h -12099 -204 162 0
h 204 12099 0
h -162 12099 0
h -12100 -162 204 0
h 162 12100 0
h -204 12100 0
h -12101 -205 163 0
h 205 12101 0
h -163 12101 0
h -12102 -163 205 0
h 163 12102 0
h -205 12102 0
h -12103 -206 164 0
h 206 12103 0
h -164 12103 0
h -12104 -164 206 0
h 164 12104 0
h -206 12104 0
h -12105 -207 165 0
h 207 12105 0
h -165 12105 0
h -12106 -165 207 0
h 165 12106 0
h -207 12106 0
h 12107 -12088 -12098 -12099 -12100 -12101 -12102 -12103 -12104 -12105 -12106 0
h 12088 -12107 0
h 12098 -12107 0
h 12099 -12107 0
h 12100 -12107 0
h 12101 -12107 0
h 12102 -12107 0
h 12103 -12107 0
h 12104 -12107 0
h 12105 -12107 0
h 12106 -12107 0
h 12108 -15 106 0
h 15 -12108 0
h -106 -12108 0
h 12109 -14 105 0
h 14 -12109 0
h -105 -12109 0
h 12110 -13 104 0
h 13 -12110 0
h -104 -12110 0
h 12111 -12 103 0
h 12 -12111 0
h -103 -12111 0
h 12112 -11 102 0
h 11 -12112 0
h -102 -12112 0
h 12113 -10 101 0
h 10 -12113 0
h -101 -12113 0
h 12114 -9 100 0
h 9 -12114 0
h -100 -12114 0
h 12115 -8 99 0
h 8 -12115 0
h -99 -12115 0
h 12116 -7 98 0
h 7 -12116 0
h -98 -12116 0
h -12117 -107 12108 12109 12110 12111 12112 12113 12114 12115 12116 6 5 0
h 107 12117 0
h -12108 12117 0
h -12109 12117 0
h -12110 12117 0
h -12111 12117 0
h -12112 12117 0
h -12113 12117 0
h -12114 12117 0
h -12115 12117 0
h -12116 12117 0
h -6 12117 0
h -5 12117 0
h 12118 -108 13 0
h 108 -12118 0
h -13 -12118 0
h 12119 -107 12 0
h 107 -12119 0
h -12 -12119 0
h 12120 -106 11 0
h 106 -12120 0
h -11 -12120 0
h 12121 -105 10 0
h 105 -12121 0
h -10 -12121 0
h 12122 -104 9 0
h 104 -12122 0
h -9 -12122 0
h 12123 -103 8 0
h 103 -12123 0
h -8 -12123 0
h 12124 -102 7 0
h 102 -12124 0
h -7 -12124 0
h 12125 -101 6 0
h 101 -12125 0
h -6 -12125 0
h 12126 -100 5 0
h 100 -12126 0
h -5 -12126 0
h -12127 -14 12118 12119 12120 12121 12122 12123 12124 12125 12126 99 98 0
h 14 12127 0
h -12118 12127 0
h -12119 12127 0
h -12120 12127 0
h -12121 12127 0
h -12122 12127 0
h -12123 12127 0
h -12124 12127 0
h -12125 12127 0
h -12126 12127 0
h -99 12127 0
h -98 12127 0
h -12128 -204 158 0
h 204 12128 0
h -158 12128 0
h -12129 -158 204 0
h 158 12129 0
h -204 12129 0
h -12130 -205 159 0
h 205 12130 0
h -159 12130 0
h -12131 -159 205 0
h 159 12131 0
h -205 12131 0
h -12132 -206 160 0
h 206 12132 0
h -160 12132 0
h -12133 -160 206 0
h 160 12133 0
h -206 12133 0
h -12134 -207 161 0
h 207 12134 0
h -161 12134 0
h -12135 -161 207 0
h 161 12135 0
h -207 12135 0
h 12136 -12117 -12127 -12128 -12129 -12130 -12131 -12132 -12133 -12134 -12135 0
h 12117 -12136 0
h 12127 -12136 0
h 12128 -12136 0
h 12129 -12136 0
h 12130 -12136 0
h 12131 -12136 0
h 12132 -12136 0
h 12133 -12136 0
h 12134 -12136 0
h 12135 -12136 0
h -12137 -30 53 0
h 30 12137 0
h -53 12137 0
h -12138 -29 52 0
h 29 12138 0
h -52 12138 0
h -12139 -28 51 0
h 28 12139 0
h -51 12139 0
h -12140 -27 50 0
h 27 12140 0
h -50 12140 0
h -12141 -26 49 0
h 26 12141 0
h -49 12141 0
h -12142 -25 48 0
h 25 12142 0
h -48 12142 0
h -12143 -24 47 0
h 24 12143 0
h -47 12143 0
h -12144 -23 46 0
h 23 12144 0
h -46 12144 0
h 12145 -54 -12137 -12138 -12139 -12140 -12141 -12142 -12143 -12144 22 21 20 0
h 54 -12145 0
h 12137 -12145 0
h 12138 -12145 0
h 12139 -12145 0
h 12140 -12145 0
h 12141 -12145 0
h 12142 -12145 0
h 12143 -12145 0
h 12144 -12145 0
h -22 -12145 0
h -21 -12145 0
h -20 -12145 0
h -12146 -56 28 0
h 56 12146 0
h -28 12146 0
h -12147 -55 27 0
h 55 12147 0
h -27 12147 0
h -12148 -54 26 0
h 54 12148 0
h -26 12148 0
h -12149 -53 25 0
h 53 12149 0
h -25 12149 0
h -12150 -52 24 0
h 52 12150 0
h -24 12150 0
h -12151 -51 23 0
h 51 12151 0
h -23 12151 0
h -12152 -50 22 0
h 50 12152 0
h -22 12152 0
h -12153 -49 21 0
h 49 12153 0
h -21 12153 0
h -12154 -48 20 0
h 48 12154 0
h -20 12154 0
h 12155 -29 -12146 -12147 -12148 -12149 -12150 -12151 -12152 -12153 -12154 47 46 0
h 29 -12155 0
h 12146 -12155 0
h 12147 -12155 0
h 12148 -12155 0
h 12149 -12155 0
h 12150 -12155 0
h 12151 -12155 0
h 12152 -12155 0
h 12153 -12155 0
h 12154 -12155 0
h -47 -12155 0
h -46 -12155 0
h 12156 -189 162 0
h 189 -12156 0
h -162 -12156 0
h 12157 -162 189 0
h 162 -12157 0
h -189 -12157 0
h 12158 -190 163 0
h 190 -12158 0
h -163 -12158 0
h 12159 -163 190 0
h 163 -12159 0
h -190 -12159 0
h 12160 -191 164 0
h 191 -12160 0
h -164 -12160 0
h 12161 -164 191 0
h 164 -12161 0
h -191 -12161 0
h 12162 -192 165 0
h 192 -12162 0
h -165 -12162 0
h 12163 -165 192 0
h 165 -12163 0
h -192 -12163 0
h -12164 12145 12155 12156 12157 12158 12159 12160 12161 12162 12163 0
h -12145 12164 0
h -12155 12164 0
h -12156 12164 0
h -12157 12164 0
h -12158 12164 0
h -12159 12164 0
h -12160 12164 0
h -12161 12164 0
h -12162 12164 0
h -12163 12164 0
h -12165 -15 53 0
h 15 12165 0
h -53 12165 0
h -12166 -14 52 0
h 14 12166 0
h -52 12166 0
h -12167 -13 51 0
h 13 12167 0
h -51 12167 0
h -12168 -12 50 0
h 12 12168 0
h -50 12168 0
h -12169 -11 49 0
h 11 12169 0
h -49 12169 0
h -12170 -10 48 0
h 10 12170 0
h -48 12170 0
h -12171 -9 47 0
h 9 12171 0
h -47 12171 0
h -12172 -8 46 0
h 8 12172 0
h -46 12172 0
h 12173 -54 -12165 -12166 -12167 -12168 -12169 -12170 -12171 -12172 7 6 5 0
h 54 -12173 0
h 12165 -12173 0
h 12166 -12173 0
h 12167 -12173 0
h 12168 -12173 0
h 12169 -12173 0
h 12170 -12173 0
h 12171 -12173 0
h 12172 -12173 0
h -7 -12173 0
h -6 -12173 0
h -5 -12173 0
h -12174 -56 13 0
h 56 12174 0
h -13 12174 0
h -12175 -55 12 0
h 55 12175 0
h -12 12175 0
h -12176 -54 11 0
h 54 12176 0
h -11 12176 0
h -12177 -53 10 0
h 53 12177 0
h -10 12177 0
h -12178 -52 9 0
h 52 12178 0
h -9 12178 0
h -12179 -51 8 0
h 51 12179 0
h -8 12179 0
h -12180 -50 7 0
h 50 12180 0
h -7 12180 0
h -12181 -49 6 0
h 49 12181 0
h -6 12181 0
h -12182 -48 5 0
h 48 12182 0
h -5 12182 0
h 12183 -14 -12174 -12175 -12176 -12177 -12178 -12179 -12180 -12181 -12182 47 46 0
h 14 -12183 0
h 12174 -12183 0
h 12175 -12183 0
h 12176 -12183 0
h 12177 -12183 0
h 12178 -12183 0
h 12179 -12183 0
h 12180 -12183 0
h 12181 -12183 0
h 12182 -12183 0
h -47 -12183 0
h -46 -12183 0
h 12184 -189 158 0
h 189 -12184 0
h -158 -12184 0
h 12185 -158 189 0
h 158 -12185 0
h -189 -12185 0
h 12186 -190 159 0
h 190 -12186 0
h -159 -12186 0
h 12187 -159 190 0
h 159 -12187 0
h -190 -12187 0
h 12188 -191 160 0
h 191 -12188 0
h -160 -12188 0
h 12189 -160 191 0
h 160 -12189 0
h -191 -12189 0
h 12190 -192 161 0
h 192 -12190 0
h -161 -12190 0
h 12191 -161 192 0
h 161 -12191 0
h -192 -12191 0
h -12192 12173 12183 12184 12185 12186 12187 12188 12189 12190 12191 0
h -12173 12192 0
h -12183 12192 0
h -12184 12192 0
h -12185 12192 0
h -12186 12192 0
h -12187 12192 0
h -12188 12192 0
h -12189 12192 0
h -12190 12192 0
h -12191 12192 0
h -12193 -30 40 0
h 30 12193 0
h -40 12193 0
h -12194 -29 39 0
h 29 12194 0
h -39 12194 0
h -12195 -28 38 0
h 28 12195 0
h -38 12195 0
h -12196 -27 37 0
h 27 12196 0
h -37 12196 0
h -12197 -26 36 0
h 26 12197 0
h -36 12197 0
h -12198 -25 35 0
h 25 12198 0
h -35 12198 0
h -12199 -24 34 0
h 24 12199 0
h -34 12199 0
h -12200 -23 33 0
h 23 12200 0
h -33 12200 0
h -12201 -22 32 0
h 22 12201 0
h -32 12201 0
h -12202 -21 31 0
h 21 12202 0
h -31 12202 0
h 12203 -41 -12193 -12194 -12195 -12196 -12197 -12198 -12199 -12200 -12201 -12202 20 0
h 41 -12203 0
h 12193 -12203 0
h 12194 -12203 0
h 12195 -12203 0
h 12196 -12203 0
h 12197 -12203 0
h 12198 -12203 0
h 12199 -12203 0
h 12200 -12203 0
h 12201 -12203 0
h 12202 -12203 0
h -20 -12203 0
h -12204 -41 28 0
h 41 12204 0
h -28 12204 0
h -12205 -40 27 0
h 40 12205 0
h -27 12205 0
h -12206 -39 26 0
h 39 12206 0
h -26 12206 0
h -12207 -38 25 0
h 38 12207 0
h -25 12207 0
h -12208 -37 24 0
h 37 12208 0
h -24 12208 0
h -12209 -36 23 0
h 36 12209 0
h -23 12209 0
h -12210 -35 22 0
h 35 12210 0
h -22 12210 0
h -12211 -34 21 0
h 34 12211 0
h -21 12211 0
h -12212 -33 20 0
h 33 12212 0
h -20 12212 0
h 12213 -29 -12204 -12205 -12206 -12207 -12208 -12209 -12210 -12211 -12212 32 31 0
h 29 -12213 0
h 12204 -12213 0
h 12205 -12213 0
h 12206 -12213 0
h 12207 -12213 0
h 12208 -12213 0
h 12209 -12213 0
h 12210 -12213 0
h 12211 -12213 0
h 12212 -12213 0
h -32 -12213 0
h -31 -12213 0
h 12214 -181 162 0
h 181 -12214 0
h -162 -12214 0
h 12215 -162 181 0
h 162 -12215 0
h -181 -12215 0
h 12216 -182 163 0
h 182 -12216 0
h -163 -12216 0
h 12217 -163 182 0
h 163 -12217 0
h -182 -12217 0
h 12218 -183 164 0
h 183 -12218 0
h -164 -12218 0
h 12219 -164 183 0
h 164 -12219 0
h -183 -12219 0
h 12220 -184 165 0
h 184 -12220 0
h -165 -12220 0
h 12221 -165 184 0
h 165 -12221 0
h -184 -12221 0
h -12222 12203 12213 12214 12215 12216 12217 12218 12219 12220 12221 0
h -12203 12222 0
h -12213 12222 0
h -12214 12222 0
h -12215 12222 0
h -12216 12222 0
h -12217 12222 0
h -12218 12222 0
h -12219 12222 0
h -12220 12222 0
h -12221 12222 0
h -12223 -15 40 0
h 15 12223 0
h -40 12223 0
h -12224 -14 39 0
h 14 12224 0
h -39 12224 0
h -12225 -13 38 0
h 13 12225 0
h -38 12225 0
h -12226 -12 37 0
h 12 12226 0
h -37 12226 0
h -12227 -11 36 0
h 11 12227 0
h -36 12227 0
h -12228 -10 35 0
h 10 12228 0
h -35 12228 0
h -12229 -9 34 0
h 9 12229 0
h -34 12229 0
h -12230 -8 33 0
h 8 12230 0
h -33 12230 0
h -12231 -7 32 0
h 7 12231 0
h -32 12231 0
h -12232 -6 31 0
h 6 12232 0
h -31 12232 0
h 12233 -41 -12223 -12224 -12225 -12226 -12227 -12228 -12229 -12230 -12231 -12232 5 0
h 41 -12233 0
h 12223 -12233 0
h 12224 -12233 0
h 12225 -12233 0
h 12226 -12233 0
h 12227 -12233 0
h 12228 -12233 0
h 12229 -12233 0
h 12230 -12233 0
h 12231 -12233 0
h 12232 -12233 0
h -5 -12233 0
h -12234 -41 13 0
h 41 12234 0
h -13 12234 0
h -12235 -40 12 0
h 40 12235 0
h -12 12235 0
h -12236 -39 11 0
h 39 12236 0
h -11 12236 0
h -12237 -38 10 0
h 38 12237 0
h -10 12237 0
h -12238 -37 9 0
h 37 12238 0
h -9 12238 0
h -12239 -36 8 0
h 36 12239 0
h -8 12239 0
h -12240 -35 7 0
h 35 12240 0
h -7 12240 0
h -12241 -34 6 0
h 34 12241 0
h -6 12241 0
h -12242 -33 5 0
h 33 12242 0
h -5 12242 0
h 12243 -14 -12234 -12235 -12236 -12237 -12238 -12239 -12240 -12241 -12242 32 31 0
h 14 -12243 0
h 12234 -12243 0
h 12235 -12243 0
h 12236 -12243 0
h 12237 -12243 0
h 12238 -12243 0
h 12239 -12243 0
h 12240 -12243 0
h 12241 -12243 0
h 12242 -12243 0
h -32 -12243 0
h -31 -12243 0
h 12244 -181 158 0
h 181 -12244 0
h -158 -12244 0
h 12245 -158 181 0
h 158 -12245 0
h -181 -12245 0
h 12246 -182 159 0
h 182 -12246 0
h -159 -12246 0
h 12247 -159 182 0
h 159 -12247 0
h -182 -12247 0
h 12248 -183 160 0
h 183 -12248 0
h -160 -12248 0
h 12249 -160 183 0
h 160 -12249 0
h -183 -12249 0
h 12250 -184 161 0
h 184 -12250 0
h -161 -12250 0
h 12251 -161 184 0
h 161 -12251 0
h -184 -12251 0
h -12252 12233 12243 12244 12245 12246 12247 12248 12249 12250 12251 0
h -12233 12252 0
h -12243 12252 0
h -12244 12252 0
h -12245 12252 0
h -12246 12252 0
h -12247 12252 0
h -12248 12252 0
h -12249 12252 0
h -12250 12252 0
h -12251 12252 0
h 12253 -12164 -12192 -12222 -12252 0
h 12164 -12253 0
h 12192 -12253 0
h 12222 -12253 0
h 12252 -12253 0
h 12254 -30 53 0
h 30 -12254 0
h -53 -12254 0
h 12255 -29 52 0
h 29 -12255 0
h -52 -12255 0
h 12256 -28 51 0
h 28 -12256 0
h -51 -12256 0
h 12257 -27 50 0
h 27 -12257 0
h -50 -12257 0
h 12258 -26 49 0
h 26 -12258 0
h -49 -12258 0
h 12259 -25 48 0
h 25 -12259 0
h -48 -12259 0
h 12260 -24 47 0
h 24 -12260 0
h -47 -12260 0
h 12261 -23 46 0
h 23 -12261 0
h -46 -12261 0
h -12262 -54 12254 12255 12256 12257 12258 12259 12260 12261 22 21 20 0
h 54 12262 0
h -12254 12262 0
h -12255 12262 0
h -12256 12262 0
h -12257 12262 0
h -12258 12262 0
h -12259 12262 0
h -12260 12262 0
h -12261 12262 0
h -22 12262 0
h -21 12262 0
h -20 12262 0
h 12263 -56 28 0
h 56 -12263 0
h -28 -12263 0
h 12264 -55 27 0
h 55 -12264 0
h -27 -12264 0
h 12265 -54 26 0
h 54 -12265 0
h -26 -12265 0
h 12266 -53 25 0
h 53 -12266 0
h -25 -12266 0
h 12267 -52 24 0
h 52 -12267 0
h -24 -12267 0
h 12268 -51 23 0
h 51 -12268 0
h -23 -12268 0
h 12269 -50 22 0
h 50 -12269 0
h -22 -12269 0
h 12270 -49 21 0
h 49 -12270 0
h -21 -12270 0
h 12271 -48 20 0
h 48 -12271 0
h -20 -12271 0
h -12272 -29 12263 12264 12265 12266 12267 12268 12269 12270 12271 47 46 0
h 29 12272 0
h -12263 12272 0
h -12264 12272 0
h -12265 12272 0
h -12266 12272 0
h -12267 12272 0
h -12268 12272 0
h -12269 12272 0
h -12270 12272 0
h -12271 12272 0
h -47 12272 0
h -46 12272 0
h -12273 -189 162 0
h 189 12273 0
h -162 12273 0
h -12274 -162 189 0
h 162 12274 0
h -189 12274 0
h -12275 -190 163 0
h 190 12275 0
h -163 12275 0
h -12276 -163 190 0
h 163 12276 0
h -190 12276 0
h -12277 -191 164 0
h 191 12277 0
h -164 12277 0
h -12278 -164 191 0
h 164 12278 0
h -191 12278 0
h -12279 -192 165 0
h 192 12279 0
h -165 12279 0
h -12280 -165 192 0
h 165 12280 0
h -192 12280 0
h 12281 -12262 -12272 -12273 -12274 -12275 -12276 -12277 -12278 -12279 -12280 0
h 12262 -12281 0
h 12272 -12281 0
h 12273 -12281 0
h 12274 -12281 0
h 12275 -12281 0
h 12276 -12281 0
h 12277 -12281 0
h 12278 -12281 0
h 12279 -12281 0
h 12280 -12281 0
h 12282 -15 53 0
h 15 -12282 0
h -53 -12282 0
h 12283 -14 52 0
h 14 -12283 0
h -52 -12283 0
h 12284 -13 51 0
h 13 -12284 0
h -51 -12284 0
h 12285 -12 50 0
h 12 -12285 0
h -50 -12285 0
h 12286 -11 49 0
h 11 -12286 0
h -49 -12286 0
h 12287 -10 48 0
h 10 -12287 0
h -48 -12287 0
h 12288 -9 47 0
h 9 -12288 0
h -47 -12288 0
h 12289 -8 46 0
h 8 -12289 0
h -46 -12289 0
h -12290 -54 12282 12283 12284 12285 12286 12287 12288 12289 7 6 5 0
h 54 12290 0
h -12282 12290 0
h -12283 12290 0
h -12284 12290 0
h -12285 12290 0
h -12286 12290 0
h -12287 12290 0
h -12288 12290 0
h -12289 12290 0
h -7 12290 0
h -6 12290 0
h -5 12290 0
h 12291 -56 13 0
h 56 -12291 0
h -13 -12291 0
h 12292 -55 12 0
h 55 -12292 0
h -12 -12292 0
h 12293 -54 11 0
h 54 -12293 0
h -11 -12293 0
h 12294 -53 10 0
h 53 -12294 0
h -10 -12294 0
h 12295 -52 9 0
h 52 -12295 0
h -9 -12295 0
h 12296 -51 8 0
h 51 -12296 0
h -8 -12296 0
h 12297 -50 7 0
h 50 -12297 0
h -7 -12297 0
h 12298 -49 6 0
h 49 -12298 0
h -6 -12298 0
h 12299 -48 5 0
h 48 -12299 0
h -5 -12299 0
h -12300 -14 12291 12292 12293 12294 12295 12296 12297 12298 12299 47 46 0
h 14 12300 0
h -12291 12300 0
h -12292 12300 0
h -12293 12300 0
h -12294 12300 0
h -12295 12300 0
h -12296 12300 0
h -12297 12300 0
h -12298 12300 0
h -12299 12300 0
h -47 12300 0
h -46 12300 0
h -12301 -189 158 0
h 189 12301 0
h -158 12301 0
h -12302 -158 189 0
h 158 12302 0
h -189 12302 0
h -12303 -190 159 0
h 190 12303 0
h -159 12303 0
h -12304 -159 190 0
h 159 12304 0
h -190 12304 0
h -12305 -191 160 0
h 191 12305 0
h -160 12305 0
h -12306 -160 191 0
h 160 12306 0
h -191 12306 0
h -12307 -192 161 0
h 192 12307 0
h -161 12307 0
h -12308 -161 192 0
h 161 12308 0
h -192 12308 0
h 12309 -12290 -12300 -12301 -12302 -12303 -12304 -12305 -12306 -12307 -12308 0
h 12290 -12309 0
h 12300 -12309 0
h 12301 -12309 0
h 12302 -12309 0
h 12303 -12309 0
h 12304 -12309 0
h 12305 -12309 0
h 12306 -12309 0
h 12307 -12309 0
h 12308 -12309 0
h 12310 -30 40 0
h 30 -12310 0
h -40 -12310 0
h 12311 -29 39 0
h 29 -12311 0
h -39 -12311 0
h 12312 -28 38 0
h 28 -12312 0
h -38 -12312 0
h 12313 -27 37 0
h 27 -12313 0
h -37 -12313 0
h 12314 -26 36 0
h 26 -12314 0
h -36 -12314 0
h 12315 -25 35 0
h 25 -12315 0
h -35 -12315 0
h 12316 -24 34 0
h 24 -12316 0
h -34 -12316 0
h 12317 -23 33 0
h 23 -12317 0
h -33 -12317 0
h 12318 -22 32 0
h 22 -12318 0
h -32 -12318 0
h 12319 -21 31 0
h 21 -12319 0
h -31 -12319 0
h -12320 -41 12310 12311 12312 12313 12314 12315 12316 12317 12318 12319 20 0
h 41 12320 0
h -12310 12320 0
h -12311 12320 0
h -12312 12320 0
h -12313 12320 0
h -12314 12320 0
h -12315 12320 0
h -12316 12320 0
h -12317 12320 0
h -12318 12320 0
h -12319 12320 0
h -20 12320 0
h 12321 -41 28 0
h 41 -12321 0
h -28 -12321 0
h 12322 -40 27 0
h 40 -12322 0
h -27 -12322 0
h 12323 -39 26 0
h 39 -12323 0
h -26 -12323 0
h 12324 -38 25 0
h 38 -12324 0
h -25 -12324 0
h 12325 -37 24 0
h 37 -12325 0
h -24 -12325 0
h 12326 -36 23 0
h 36 -12326 0
h -23 -12326 0
h 12327 -35 22 0
h 35 -12327 0
h -22 -12327 0
h 12328 -34 21 0
h 34 -12328 0
h -21 -12328 0
h 12329 -33 20 0
h 33 -12329 0
h -20 -12329 0
h -12330 -29 12321 12322 12323 12324 12325 12326 12327 12328 12329 32 31 0
h 29 12330 0
h -12321 12330 0
h -12322 12330 0
h -12323 12330 0
h -12324 12330 0
h -12325 12330 0
h -12326 12330 0
h -12327 12330 0
h -12328 12330 0
h -12329 12330 0
h -32 12330 0
h -31 12330 0
h -12331 -181 162 0
h 181 12331 0
h -162 12331 0
h -12332 -162 181 0
h 162 12332 0
h -181 12332 0
h -12333 -182 163 0
h 182 12333 0
h -163 12333 0
h -12334 -163 182 0
h 163 12334 0
h -182 12334 0
h -12335 -183 164 0
h 183 12335 0
h -164 12335 0
h -12336 -164 183 0
h 164 12336 0
h -183 12336 0
h -12337 -184 165 0
h 184 12337 0
h -165 12337 0
h -12338 -165 184 0
h 165 12338 0
h -184 12338 0
h 12339 -12320 -12330 -12331 -12332 -12333 -12334 -12335 -12336 -12337 -12338 0
h 12320 -12339 0
h 12330 -12339 0
h 12331 -12339 0
h 12332 -12339 0
h 12333 -12339 0
h 12334 -12339 0
h 12335 -12339 0
h 12336 -12339 0
h 12337 -12339 0
h 12338 -12339 0
h 12340 -15 40 0
h 15 -12340 0
h -40 -12340 0
h 12341 -14 39 0
h 14 -12341 0
h -39 -12341 0
h 12342 -13 38 0
h 13 -12342 0
h -38 -12342 0
h 12343 -12 37 0
h 12 -12343 0
h -37 -12343 0
h 12344 -11 36 0
h 11 -12344 0
h -36 -12344 0
h 12345 -10 35 0
h 10 -12345 0
h -35 -12345 0
h 12346 -9 34 0
h 9 -12346 0
h -34 -12346 0
h 12347 -8 33 0
h 8 -12347 0
h -33 -12347 0
h 12348 -7 32 0
h 7 -12348 0
h -32 -12348 0
h 12349 -6 31 0
h 6 -12349 0
h -31 -12349 0
h -12350 -41 12340 12341 12342 12343 12344 12345 12346 12347 12348 12349 5 0
h 41 12350 0
h -12340 12350 0
h -12341 12350 0
h -12342 12350 0
h -12343 12350 0
h -12344 12350 0
h -12345 12350 0
h -12346 12350 0
h -12347 12350 0
h -12348 12350 0
h -12349 12350 0
h -5 12350 0
h 12351 -41 13 0
h 41 -12351 0
h -13 -12351 0
h 12352 -40 12 0
h 40 -12352 0
h -12 -12352 0
h 12353 -39 11 0
h 39 -12353 0
h -11 -12353 0
h 12354 -38 10 0
h 38 -12354 0
h -10 -12354 0
h 12355 -37 9 0
h 37 -12355 0
h -9 -12355 0
h 12356 -36 8 0
h 36 -12356 0
h -8 -12356 0
h 12357 -35 7 0
h 35 -12357 0
h -7 -12357 0
h 12358 -34 6 0
h 34 -12358 0
h -6 -12358 0
h 12359 -33 5 0
h 33 -12359 0
h -5 -12359 0
h -12360 -14 12351 12352 12353 12354 12355 12356 12357 12358 12359 32 31 0
h 14 12360 0
h -12351 12360 0
h -12352 12360 0
h -12353 12360 0
h -12354 12360 0
h -12355 12360 0
h -12356 12360 0
h -12357 12360 0
h -12358 12360 0
h -12359 12360 0
h -32 12360 0
h -31 12360 0
h -12361 -181 158 0
h 181 12361 0
h -158 12361 0
h -12362 -158 181 0
h 158 12362 0
h -181 12362 0
h -12363 -182 159 0
h 182 12363 0
h -159 12363 0
h -12364 -159 182 0
h 159 12364 0
h -182 12364 0
h -12365 -183 160 0
h 183 12365 0
h -160 12365 0
h -12366 -160 183 0
h 160 12366 0
h -183 12366 0
h -12367 -184 161 0
h 184 12367 0
h -161 12367 0
h -12368 -161 184 0
h 161 12368 0
h -184 12368 0
h 12369 -12350 -12360 -12361 -12362 -12363 -12364 -12365 -12366 -12367 -12368 0
h 12350 -12369 0
h 12360 -12369 0
h 12361 -12369 0
h 12362 -12369 0
h 12363 -12369 0
h 12364 -12369 0
h 12365 -12369 0
h 12366 -12369 0
h 12367 -12369 0
h 12368 -12369 0
h -12370 -301 173 0
h 301 12370 0
h -173 12370 0
h -12371 -16 266 0
h 16 12371 0
h -266 12371 0
h -12372 -1 249 0
h 1 12372 0
h -249 12372 0
h -12373 -357 234 0
h 357 12373 0
h -234 12373 0
h -12374 -219 128 0
h 219 12374 0
h -128 12374 0
h -12375 -204 106 0
h 204 12375 0
h -106 12375 0
h -12376 -154 354 0
h 154 12376 0
h -354 12376 0
h -12377 -150 340 0
h 150 12377 0
h -340 12377 0
h -12378 -142 325 0
h 142 12378 0
h -325 12378 0
h -12379 -146 314 0
h 146 12379 0
h -314 12379 0
h -12380 -162 28 0
h 162 12380 0
h -28 12380 0
h -12381 -158 13 0
h 158 12381 0
h -13 12381 0
h -12382 -342 200 0
h 342 12382 0
h -200 12382 0
h -12383 -327 215 0
h 327 12383 0
h -215 12383 0
h -12384 -185 84 0
h 185 12384 0
h -84 12384 0
h -12385 -177 73 0
h 177 12385 0
h -73 12385 0
h -12386 -189 53 0
h 189 12386 0
h -53 12386 0
h -12387 -181 40 0
h 181 12387 0
h -40 12387 0
h -12388 -238 95 0
h 238 12388 0
h -95 12388 0
h -12389 -253 117 0
h 253 12389 0
h -117 12389 0
h -12390 -223 139 0
h 223 12390 0
h -139 12390 0
h -12391 -42 277 0
h 42 12391 0
h -277 12391 0
h -12392 -61 299 0
h 61 12392 0
h -299 12392 0
h -12393 -57 288 0
h 57 12393 0
h -288 12393 0
h 12394 -12370 -12371 -12372 -12373 -12374 -12375 -12376 -12377 -12378 -12379 -12380 -12381 -12382 -12383 -12384 -12385 -12386 -12387 -12388 -12389 -12390 -12391 -12392 -12393 0
h 12370 -12394 0
h 12371 -12394 0
h 12372 -12394 0
h 12373 -12394 0
h 12374 -12394 0
h 12375 -12394 0
h 12376 -12394 0
h 12377 -12394 0
h 12378 -12394 0
h 12379 -12394 0
h 12380 -12394 0
h 12381 -12394 0
h 12382 -12394 0
h 12383 -12394 0
h 12384 -12394 0
h 12385 -12394 0
h 12386 -12394 0
h 12387 -12394 0
h 12388 -12394 0
h 12389 -12394 0
h 12390 -12394 0
h 12391 -12394 0
h 12392 -12394 0
h 12393 -12394 0
h 12395 -301 173 0
h 301 -12395 0
h -173 -12395 0
h 12396 -16 266 0
h 16 -12396 0
h -266 -12396 0
h 12397 -1 249 0
h 1 -12397 0
h -249 -12397 0
h 12398 -357 234 0
h 357 -12398 0
h -234 -12398 0
h 12399 -219 128 0
h 219 -12399 0
h -128 -12399 0
h 12400 -204 106 0
h 204 -12400 0
h -106 -12400 0
h 12401 -154 354 0
h 154 -12401 0
h -354 -12401 0
h 12402 -150 340 0
h 150 -12402 0
h -340 -12402 0
h 12403 -142 325 0
h 142 -12403 0
h -325 -12403 0
h 12404 -146 314 0
h 146 -12404 0
h -314 -12404 0
h 12405 -162 28 0
h 162 -12405 0
h -28 -12405 0
h 12406 -158 13 0
h 158 -12406 0
h -13 -12406 0
h 12407 -342 200 0
h 342 -12407 0
h -200 -12407 0
h 12408 -327 215 0
h 327 -12408 0
h -215 -12408 0
h 12409 -185 84 0
h 185 -12409 0
h -84 -12409 0
h 12410 -177 73 0
h 177 -12410 0
h -73 -12410 0
h 12411 -189 53 0
h 189 -12411 0
h -53 -12411 0
h 12412 -181 40 0
h 181 -12412 0
h -40 -12412 0
h 12413 -238 95 0
h 238 -12413 0
h -95 -12413 0
h 12414 -253 117 0
h 253 -12414 0
h -117 -12414 0
h 12415 -223 139 0
h 223 -12415 0
h -139 -12415 0
h 12416 -42 277 0
h 42 -12416 0
h -277 -12416 0
h 12417 -61 299 0
h 61 -12417 0
h -299 -12417 0
h 12418 -57 288 0
h 57 -12418 0
h -288 -12418 0
h -12419 173 -302 301 0
h -173 12419 0
h 302 12419 0
h -301 12419 0
h -12420 266 -17 16 0
h -266 12420 0
h 17 12420 0
h -16 12420 0
h -12421 249 -2 1 0
h -249 12421 0
h 2 12421 0
h -1 12421 0
h -12422 234 -358 357 0
h -234 12422 0
h 358 12422 0
h -357 12422 0
h -12423 128 -220 219 0
h -128 12423 0
h 220 12423 0
h -219 12423 0
h -12424 106 -205 204 0
h -106 12424 0
h 205 12424 0
h -204 12424 0
h -12425 354 -155 154 0
h -354 12425 0
h 155 12425 0
h -154 12425 0
h -12426 340 -151 150 0
h -340 12426 0
h 151 12426 0
h -150 12426 0
h -12427 325 -143 142 0
h -325 12427 0
h 143 12427 0
h -142 12427 0
h -12428 314 -147 146 0
h -314 12428 0
h 147 12428 0
h -146 12428 0
h -12429 28 -163 162 0
h -28 12429 0
h 163 12429 0
h -162 12429 0
h -12430 13 -159 158 0
h -13 12430 0
h 159 12430 0
h -158 12430 0
h -12431 200 -343 342 0
h -200 12431 0
h 343 12431 0
h -342 12431 0
h -12432 215 -328 327 0
h -215 12432 0
h 328 12432 0
h -327 12432 0
h -12433 84 -186 185 0
h -84 12433 0
h 186 12433 0
h -185 12433 0
h -12434 73 -178 177 0
h -73 12434 0
h 178 12434 0
h -177 12434 0
h -12435 53 -190 189 0
h -53 12435 0
h 190 12435 0
h -189 12435 0
h -12436 40 -182 181 0
h -40 12436 0
h 182 12436 0
h -181 12436 0
h -12437 95 -239 238 0
h -95 12437 0
h 239 12437 0
h -238 12437 0
h -12438 117 -254 253 0
h -117 12438 0
h 254 12438 0
h -253 12438 0
h -12439 139 -224 223 0
h -139 12439 0
h 224 12439 0
h -223 12439 0
h -12440 277 -43 42 0
h -277 12440 0
h 43 12440 0
h -42 12440 0
h -12441 299 -62 61 0
h -299 12441 0
h 62 12441 0
h -61 12441 0
h -12442 288 -58 57 0
h -288 12442 0
h 58 12442 0
h -57 12442 0
h 12443 -12419 -12420 -12421 -12422 -12423 -12424 -12425 -12426 -12427 -12428 -12429 -12430 -12431 -12432 -12433 -12434 -12435 -12436 -12437 -12438 -12439 -12440 -12441 -12442 0
h 12419 -12443 0
h 12420 -12443 0
h 12421 -12443 0
h 12422 -12443 0
h 12423 -12443 0
h 12424 -12443 0
h 12425 -12443 0
h 12426 -12443 0
h 12427 -12443 0
h 12428 -12443 0
h 12429 -12443 0
h 12430 -12443 0
h 12431 -12443 0
h 12432 -12443 0
h 12433 -12443 0
h 12434 -12443 0
h 12435 -12443 0
h 12436 -12443 0
h 12437 -12443 0
h 12438 -12443 0
h 12439 -12443 0
h 12440 -12443 0
h 12441 -12443 0
h 12442 -12443 0
h 12444 173 -302 301 0
h -173 -12444 0
h 302 -12444 0
h -301 -12444 0
h 12445 266 -17 16 0
h -266 -12445 0
h 17 -12445 0
h -16 -12445 0
h 12446 249 -2 1 0
h -249 -12446 0
h 2 -12446 0
h -1 -12446 0
h 12447 234 -358 357 0
h -234 -12447 0
h 358 -12447 0
h -357 -12447 0
h 12448 128 -220 219 0
h -128 -12448 0
h 220 -12448 0
h -219 -12448 0
h 12449 106 -205 204 0
h -106 -12449 0
h 205 -12449 0
h -204 -12449 0
h 12450 354 -155 154 0
h -354 -12450 0
h 155 -12450 0
h -154 -12450 0
h 12451 340 -151 150 0
h -340 -12451 0
h 151 -12451 0
h -150 -12451 0
h 12452 325 -143 142 0
h -325 -12452 0
h 143 -12452 0
h -142 -12452 0
h 12453 314 -147 146 0
h -314 -12453 0
h 147 -12453 0
h -146 -12453 0
h 12454 28 -163 162 0
h -28 -12454 0
h 163 -12454 0
h -162 -12454 0
h 12455 13 -159 158 0
h -13 -12455 0
h 159 -12455 0
h -158 -12455 0
h 12456 200 -343 342 0
h -200 -12456 0
h 343 -12456 0
h -342 -12456 0
h 12457 215 -328 327 0
h -215 -12457 0
h 328 -12457 0
h -327 -12457 0
h 12458 84 -186 185 0
h -84 -12458 0
h 186 -12458 0
h -185 -12458 0
h 12459 73 -178 177 0
h -73 -12459 0
h 178 -12459 0
h -177 -12459 0
h 12460 53 -190 189 0
h -53 -12460 0
h 190 -12460 0
h -189 -12460 0
h 12461 40 -182 181 0
h -40 -12461 0
h 182 -12461 0
h -181 -12461 0
h 12462 95 -239 238 0
h -95 -12462 0
h 239 -12462 0
h -238 -12462 0
h 12463 117 -254 253 0
h -117 -12463 0
h 254 -12463 0
h -253 -12463 0
h 12464 139 -224 223 0
h -139 -12464 0
h 224 -12464 0
h -223 -12464 0
h 12465 277 -43 42 0
h -277 -12465 0
h 43 -12465 0
h -42 -12465 0
h 12466 299 -62 61 0
h -299 -12466 0
h 62 -12466 0
h -61 -12466 0
h 12467 288 -58 57 0
h -288 -12467 0
h 58 -12467 0
h -57 -12467 0
h -12468 173 -303 302 0
h -173 12468 0
h 303 12468 0
h -302 12468 0
h -12469 266 -18 17 0
h -266 12469 0
h 18 12469 0
h -17 12469 0
h -12470 249 -3 2 0
h -249 12470 0
h 3 12470 0
h -2 12470 0
h -12471 234 -359 358 0
h -234 12471 0
h 359 12471 0
h -358 12471 0
h -12472 128 -221 220 0
h -128 12472 0
h 221 12472 0
h -220 12472 0
h -12473 106 -206 205 0
h -106 12473 0
h 206 12473 0
h -205 12473 0
h -12474 354 -156 155 0
h -354 12474 0
h 156 12474 0
h -155 12474 0
h -12475 340 -152 151 0
h -340 12475 0
h 152 12475 0
h -151 12475 0
h -12476 325 -144 143 0
h -325 12476 0
h 144 12476 0
h -143 12476 0
h -12477 314 -148 147 0
h -314 12477 0
h 148 12477 0
h -147 12477 0
h -12478 28 -164 163 0
h -28 12478 0
h 164 12478 0
h -163 12478 0
h -12479 13 -160 159 0
h -13 12479 0
h 160 12479 0
h -159 12479 0
h -12480 200 -344 343 0
h -200 12480 0
h 344 12480 0
h -343 12480 0
h -12481 215 -329 328 0
h -215 12481 0
h 329 12481 0
h -328 12481 0
h -12482 84 -187 186 0
h -84 12482 0
h 187 12482 0
h -186 12482 0
h -12483 73 -179 178 0
h -73 12483 0
h 179 12483 0
h -178 12483 0
h -12484 53 -191 190 0
h -53 12484 0
h 191 12484 0
h -190 12484 0
h -12485 40 -183 182 0
h -40 12485 0
h 183 12485 0
h -182 12485 0
h -12486 95 -240 239 0
h -95 12486 0
h 240 12486 0
h -239 12486 0
h -12487 117 -255 254 0
h -117 12487 0
h 255 12487 0
h -254 12487 0
h -12488 139 -225 224 0
h -139 12488 0
h 225 12488 0
h -224 12488 0
h -12489 277 -44 43 0
h -277 12489 0
h 44 12489 0
h -43 12489 0
h -12490 299 -63 62 0
h -299 12490 0
h 63 12490 0
h -62 12490 0
h -12491 288 -59 58 0
h -288 12491 0
h 59 12491 0
h -58 12491 0
h 12492 -12468 -12469 -12470 -12471 -12472 -12473 -12474 -12475 -12476 -12477 -12478 -12479 -12480 -12481 -12482 -12483 -12484 -12485 -12486 -12487 -12488 -12489 -12490 -12491 0
h 12468 -12492 0
h 12469 -12492 0
h 12470 -12492 0
h 12471 -12492 0
h 12472 -12492 0
h 12473 -12492 0
h 12474 -12492 0
h 12475 -12492 0
h 12476 -12492 0
h 12477 -12492 0
h 12478 -12492 0
h 12479 -12492 0
h 12480 -12492 0
h 12481 -12492 0
h 12482 -12492 0
h 12483 -12492 0
h 12484 -12492 0
h 12485 -12492 0
h 12486 -12492 0
h 12487 -12492 0
h 12488 -12492 0
h 12489 -12492 0
h 12490 -12492 0
h 12491 -12492 0
h 12493 173 -303 302 0
h -173 -12493 0
h 303 -12493 0
h -302 -12493 0
h 12494 266 -18 17 0
h -266 -12494 0
h 18 -12494 0
h -17 -12494 0
h 12495 249 -3 2 0
h -249 -12495 0
h 3 -12495 0
h -2 -12495 0
h 12496 234 -359 358 0
h -234 -12496 0
h 359 -12496 0
h -358 -12496 0
h 12497 128 -221 220 0
h -128 -12497 0
h 221 -12497 0
h -220 -12497 0
h 12498 106 -206 205 0
h -106 -12498 0
h 206 -12498 0
h -205 -12498 0
h 12499 354 -156 155 0
h -354 -12499 0
h 156 -12499 0
h -155 -12499 0
h 12500 340 -152 151 0
h -340 -12500 0
h 152 -12500 0
h -151 -12500 0
h 12501 325 -144 143 0
h -325 -12501 0
h 144 -12501 0
h -143 -12501 0
h 12502 314 -148 147 0
h -314 -12502 0
h 148 -12502 0
h -147 -12502 0
h 12503 28 -164 163 0
h -28 -12503 0
h 164 -12503 0
h -163 -12503 0
h 12504 13 -160 159 0
h -13 -12504 0
h 160 -12504 0
h -159 -12504 0
h 12505 200 -344 343 0
h -200 -12505 0
h 344 -12505 0
h -343 -12505 0
h 12506 215 -329 328 0
h -215 -12506 0
h 329 -12506 0
h -328 -12506 0
h 12507 84 -187 186 0
h -84 -12507 0
h 187 -12507 0
h -186 -12507 0
h 12508 73 -179 178 0
h -73 -12508 0
h 179 -12508 0
h -178 -12508 0
h 12509 53 -191 190 0
h -53 -12509 0
h 191 -12509 0
h -190 -12509 0
h 12510 40 -183 182 0
h -40 -12510 0
h 183 -12510 0
h -182 -12510 0
h 12511 95 -240 239 0
h -95 -12511 0
h 240 -12511 0
h -239 -12511 0
h 12512 117 -255 254 0
h -117 -12512 0
h 255 -12512 0
h -254 -12512 0
h 12513 139 -225 224 0
h -139 -12513 0
h 225 -12513 0
h -224 -12513 0
h 12514 277 -44 43 0
h -277 -12514 0
h 44 -12514 0
h -43 -12514 0
h 12515 299 -63 62 0
h -299 -12515 0
h 63 -12515 0
h -62 -12515 0
h 12516 288 -59 58 0
h -288 -12516 0
h 59 -12516 0
h -58 -12516 0
h -12517 173 -304 303 0
h -173 12517 0
h 304 12517 0
h -303 12517 0
h -12518 266 -19 18 0
h -266 12518 0
h 19 12518 0
h -18 12518 0
h -12519 249 -4 3 0
h -249 12519 0
h 4 12519 0
h -3 12519 0
h -12520 234 -360 359 0
h -234 12520 0
h 360 12520 0
h -359 12520 0
h -12521 128 -222 221 0
h -128 12521 0
h 222 12521 0
h -221 12521 0
h -12522 106 -207 206 0
h -106 12522 0
h 207 12522 0
h -206 12522 0
h -12523 354 -157 156 0
h -354 12523 0
h 157 12523 0
h -156 12523 0
h -12524 340 -153 152 0
h -340 12524 0
h 153 12524 0
h -152 12524 0
h -12525 325 -145 144 0
h -325 12525 0
h 145 12525 0
h -144 12525 0
h -12526 314 -149 148 0
h -314 12526 0
h 149 12526 0
h -148 12526 0
h -12527 28 -165 164 0
h -28 12527 0
h 165 12527 0
h -164 12527 0
h -12528 13 -161 160 0
h -13 12528 0
h 161 12528 0
h -160 12528 0
h -12529 200 -345 344 0
h -200 12529 0
h 345 12529 0
h -344 12529 0
h -12530 215 -330 329 0
h -215 12530 0
h 330 12530 0
h -329 12530 0
h -12531 84 -188 187 0
h -84 12531 0
h 188 12531 0
h -187 12531 0
h -12532 73 -180 179 0
h -73 12532 0
h 180 12532 0
h -179 12532 0
h -12533 53 -192 191 0
h -53 12533 0
h 192 12533 0
h -191 12533 0
h -12534 40 -184 183 0
h -40 12534 0
h 184 12534 0
h -183 12534 0
h -12535 95 -241 240 0
h -95 12535 0
h 241 12535 0
h -240 12535 0
h -12536 117 -256 255 0
h -117 12536 0
h 256 12536 0
h -255 12536 0
h -12537 139 -226 225 0
h -139 12537 0
h 226 12537 0
h -225 12537 0
h -12538 277 -45 44 0
h -277 12538 0
h 45 12538 0
h -44 12538 0
h -12539 299 -64 63 0
h -299 12539 0
h 64 12539 0
h -63 12539 0
h -12540 288 -60 59 0
h -288 12540 0
h 60 12540 0
h -59 12540 0
h 12541 -12517 -12518 -12519 -12520 -12521 -12522 -12523 -12524 -12525 -12526 -12527 -12528 -12529 -12530 -12531 -12532 -12533 -12534 -12535 -12536 -12537 -12538 -12539 -12540 0
h 12517 -12541 0
h 12518 -12541 0
h 12519 -12541 0
h 12520 -12541 0
h 12521 -12541 0
h 12522 -12541 0
h 12523 -12541 0
h 12524 -12541 0
h 12525 -12541 0
h 12526 -12541 0
h 12527 -12541 0
h 12528 -12541 0
h 12529 -12541 0
h 12530 -12541 0
h 12531 -12541 0
h 12532 -12541 0
h 12533 -12541 0
h 12534 -12541 0
h 12535 -12541 0
h 12536 -12541 0
h 12537 -12541 0
h 12538 -12541 0
h 12539 -12541 0
h 12540 -12541 0
h 12542 173 -304 303 0
h -173 -12542 0
h 304 -12542 0
h -303 -12542 0
h 12543 266 -19 18 0
h -266 -12543 0
h 19 -12543 0
h -18 -12543 0
h 12544 249 -4 3 0
h -249 -12544 0
h 4 -12544 0
h -3 -12544 0
h 12545 234 -360 359 0
h -234 -12545 0
h 360 -12545 0
h -359 -12545 0
h 12546 128 -222 221 0
h -128 -12546 0
h 222 -12546 0
h -221 -12546 0
h 12547 106 -207 206 0
h -106 -12547 0
h 207 -12547 0
h -206 -12547 0
h 12548 354 -157 156 0
h -354 -12548 0
h 157 -12548 0
h -156 -12548 0
h 12549 340 -153 152 0
h -340 -12549 0
h 153 -12549 0
h -152 -12549 0
h 12550 325 -145 144 0
h -325 -12550 0
h 145 -12550 0
h -144 -12550 0
h 12551 314 -149 148 0
h -314 -12551 0
h 149 -12551 0
h -148 -12551 0
h 12552 28 -165 164 0
h -28 -12552 0
h 165 -12552 0
h -164 -12552 0
h 12553 13 -161 160 0
h -13 -12553 0
h 161 -12553 0
h -160 -12553 0
h 12554 200 -345 344 0
h -200 -12554 0
h 345 -12554 0
h -344 -12554 0
h 12555 215 -330 329 0
h -215 -12555 0
h 330 -12555 0
h -329 -12555 0
h 12556 84 -188 187 0
h -84 -12556 0
h 188 -12556 0
h -187 -12556 0
h 12557 73 -180 179 0
h -73 -12557 0
h 180 -12557 0
h -179 -12557 0
h 12558 53 -192 191 0
h -53 -12558 0
h 192 -12558 0
h -191 -12558 0
h 12559 40 -184 183 0
h -40 -12559 0
h 184 -12559 0
h -183 -12559 0
h 12560 95 -241 240 0
h -95 -12560 0
h 241 -12560 0
h -240 -12560 0
h 12561 117 -256 255 0
h -117 -12561 0
h 256 -12561 0
h -255 -12561 0
h 12562 139 -226 225 0
h -139 -12562 0
h 226 -12562 0
h -225 -12562 0
h 12563 277 -45 44 0
h -277 -12563 0
h 45 -12563 0
h -44 -12563 0
h 12564 299 -64 63 0
h -299 -12564 0
h 64 -12564 0
h -63 -12564 0
h 12565 288 -60 59 0
h -288 -12565 0
h 60 -12565 0
h -59 -12565 0
h -12566 304 171 0
h -304 12566 0
h -171 12566 0
h -12567 19 264 0
h -19 12567 0
h -264 12567 0
h -12568 4 247 0
h -4 12568 0
h -247 12568 0
h -12569 360 232 0
h -360 12569 0
h -232 12569 0
h -12570 222 126 0
h -222 12570 0
h -126 12570 0
h -12571 207 104 0
h -207 12571 0
h -104 12571 0
h -12572 157 352 0
h -157 12572 0
h -352 12572 0
h -12573 153 338 0
h -153 12573 0
h -338 12573 0
h -12574 145 323 0
h -145 12574 0
h -323 12574 0
h -12575 149 312 0
h -149 12575 0
h -312 12575 0
h -12576 165 26 0
h -165 12576 0
h -26 12576 0
h -12577 161 11 0
h -161 12577 0
h -11 12577 0
h -12578 345 198 0
h -345 12578 0
h -198 12578 0
h -12579 330 213 0
h -330 12579 0
h -213 12579 0
h -12580 188 82 0
h -188 12580 0
h -82 12580 0
h -12581 180 71 0
h -180 12581 0
h -71 12581 0
h -12582 192 51 0
h -192 12582 0
h -51 12582 0
h -12583 184 38 0
h -184 12583 0
h -38 12583 0
h -12584 241 93 0
h -241 12584 0
h -93 12584 0
h -12585 256 115 0
h -256 12585 0
h -115 12585 0
h -12586 226 137 0
h -226 12586 0
h -137 12586 0
h -12587 45 275 0
h -45 12587 0
h -275 12587 0
h -12588 64 297 0
h -64 12588 0
h -297 12588 0
h -12589 60 286 0
h -60 12589 0
h -286 12589 0
h 12590 -12566 -12567 -12568 -12569 -12570 -12571 -12572 -12573 -12574 -12575 -12576 -12577 -12578 -12579 -12580 -12581 -12582 -12583 -12584 -12585 -12586 -12587 -12588 -12589 0
h 12566 -12590 0
h 12567 -12590 0
h 12568 -12590 0
h 12569 -12590 0
h 12570 -12590 0
h 12571 -12590 0
h 12572 -12590 0
h 12573 -12590 0
h 12574 -12590 0
h 12575 -12590 0
h 12576 -12590 0
h 12577 -12590 0
h 12578 -12590 0
h 12579 -12590 0
h 12580 -12590 0
h 12581 -12590 0
h 12582 -12590 0
h 12583 -12590 0
h 12584 -12590 0
h 12585 -12590 0
h 12586 -12590 0
h 12587 -12590 0
h 12588 -12590 0
h 12589 -12590 0
h 12591 304 171 0
h -304 -12591 0
h -171 -12591 0
h 12592 19 264 0
h -19 -12592 0
h -264 -12592 0
h 12593 4 247 0
h -4 -12593 0
h -247 -12593 0
h 12594 360 232 0
h -360 -12594 0
h -232 -12594 0
h 12595 222 126 0
h -222 -12595 0
h -126 -12595 0
h 12596 207 104 0
h -207 -12596 0
h -104 -12596 0
h 12597 157 352 0
h -157 -12597 0
h -352 -12597 0
h 12598 153 338 0
h -153 -12598 0
h -338 -12598 0
h 12599 145 323 0
h -145 -12599 0
h -323 -12599 0
h 12600 149 312 0
h -149 -12600 0
h -312 -12600 0
h 12601 165 26 0
h -165 -12601 0
h -26 -12601 0
h 12602 161 11 0
h -161 -12602 0
h -11 -12602 0
h 12603 345 198 0
h -345 -12603 0
h -198 -12603 0
h 12604 330 213 0
h -330 -12604 0
h -213 -12604 0
h 12605 188 82 0
h -188 -12605 0
h -82 -12605 0
h 12606 180 71 0
h -180 -12606 0
h -71 -12606 0
h 12607 192 51 0
h -192 -12607 0
h -51 -12607 0
h 12608 184 38 0
h -184 -12608 0
h -38 -12608 0
h 12609 241 93 0
h -241 -12609 0
h -93 -12609 0
h 12610 256 115 0
h -256 -12610 0
h -115 -12610 0
h 12611 226 137 0
h -226 -12611 0
h -137 -12611 0
h 12612 45 275 0
h -45 -12612 0
h -275 -12612 0
h 12613 64 297 0
h -64 -12613 0
h -297 -12613 0
h 12614 60 286 0
h -60 -12614 0
h -286 -12614 0
h 12615 92 -94 114 -116 136 -138 273 -276 295 -298 284 -287 0
h -92 -12615 0
h 94 -12615 0
h -114 -12615 0
h 116 -12615 0
h -136 -12615 0
h 138 -12615 0
h -273 -12615 0
h 276 -12615 0
h -295 -12615 0
h 298 -12615 0
h -284 -12615 0
h 287 -12615 0
h 12616 51 -52 36 -39 0
h -51 -12616 0
h 52 -12616 0
h -36 -12616 0
h 39 -12616 0
h 12617 165 21 -23 161 6 -8 0
h -165 -12617 0
h -21 -12617 0
h 23 -12617 0
h -161 -12617 0
h -6 -12617 0
h 8 -12617 0
